 Entering Gaussian System, Link 0=g16
 Input=gaussian.com
 Output=gaussian.log
 Initial command:
 /mlatom/software/Gaussian/g16-avx2/l1.exe "/mlatom/home/qhzhang/git/ts-analysis/calculations/C60/irc/pro_opt/da_ub3lypd4_energy/Gau-103492.inp" -scrdir="/mlatom/home/qhzhang/git/ts-analysis/calculations/C60/irc/pro_opt/da_ub3lypd4_energy/"
 Entering Link 1 = /mlatom/software/Gaussian/g16-avx2/l1.exe PID=    103493.
  
 Copyright (c) 1988,1990,1992,1993,1995,1998,2003,2009,2016,
            Gaussian, Inc.  All Rights Reserved.
  
 This is part of the Gaussian(R) 16 program.  It is based on
 the Gaussian(R) 09 system (copyright 2009, Gaussian, Inc.),
 the Gaussian(R) 03 system (copyright 2003, Gaussian, Inc.),
 the Gaussian(R) 98 system (copyright 1998, Gaussian, Inc.),
 the Gaussian(R) 94 system (copyright 1995, Gaussian, Inc.),
 the Gaussian 92(TM) system (copyright 1992, Gaussian, Inc.),
 the Gaussian 90(TM) system (copyright 1990, Gaussian, Inc.),
 the Gaussian 88(TM) system (copyright 1988, Gaussian, Inc.),
 the Gaussian 86(TM) system (copyright 1986, Carnegie Mellon
 University), and the Gaussian 82(TM) system (copyright 1983,
 Carnegie Mellon University). Gaussian is a federally registered
 trademark of Gaussian, Inc.
  
 This software contains proprietary and confidential information,
 including trade secrets, belonging to Gaussian, Inc.
  
 This software is provided under written license and may be
 used, copied, transmitted, or stored only in accord with that
 written license.
  
 The following legend is applicable only to US Government
 contracts under FAR:
  
                    RESTRICTED RIGHTS LEGEND
  
 Use, reproduction and disclosure by the US Government is
 subject to restrictions as set forth in subparagraphs (a)
 and (c) of the Commercial Computer Software - Restricted
 Rights clause in FAR 52.227-19.
  
 Gaussian, Inc.
 340 Quinnipiac St., Bldg. 40, Wallingford CT 06492
  
  
 ---------------------------------------------------------------
 Warning -- This program may not be used in any manner that
 competes with the business of Gaussian, Inc. or will provide
 assistance to any competitor of Gaussian, Inc.  The licensee
 of this program is prohibited from giving any competitor of
 Gaussian, Inc. access to this program.  By using this program,
 the user acknowledges that Gaussian, Inc. is engaged in the
 business of creating and licensing software in the field of
 computational chemistry and represents and warrants to the
 licensee that it is not a competitor of Gaussian, Inc. and that
 it will not use this program in any manner prohibited above.
 ---------------------------------------------------------------
  

 Cite this work as:
 Gaussian 16, Revision A.03,
 M. J. Frisch, G. W. Trucks, H. B. Schlegel, G. E. Scuseria, 
 M. A. Robb, J. R. Cheeseman, G. Scalmani, V. Barone, 
 G. A. Petersson, H. Nakatsuji, X. Li, M. Caricato, A. V. Marenich, 
 J. Bloino, B. G. Janesko, R. Gomperts, B. Mennucci, H. P. Hratchian, 
 J. V. Ortiz, A. F. Izmaylov, J. L. Sonnenberg, D. Williams-Young, 
 F. Ding, F. Lipparini, F. Egidi, J. Goings, B. Peng, A. Petrone, 
 T. Henderson, D. Ranasinghe, V. G. Zakrzewski, J. Gao, N. Rega, 
 G. Zheng, W. Liang, M. Hada, M. Ehara, K. Toyota, R. Fukuda, 
 J. Hasegawa, M. Ishida, T. Nakajima, Y. Honda, O. Kitao, H. Nakai, 
 T. Vreven, K. Throssell, J. A. Montgomery, Jr., J. E. Peralta, 
 F. Ogliaro, M. J. Bearpark, J. J. Heyd, E. N. Brothers, K. N. Kudin, 
 V. N. Staroverov, T. A. Keith, R. Kobayashi, J. Normand, 
 K. Raghavachari, A. P. Rendell, J. C. Burant, S. S. Iyengar, 
 J. Tomasi, M. Cossi, J. M. Millam, M. Klene, C. Adamo, R. Cammi, 
 J. W. Ochterski, R. L. Martin, K. Morokuma, O. Farkas, 
 J. B. Foresman, and D. J. Fox, Gaussian, Inc., Wallingford CT, 2016.
 
 ******************************************
 Gaussian 16:  ES64L-G16RevA.03 25-Dec-2016
                13-Jun-2024 
 ******************************************
 %nproc=8
 Will use up to    8 processors via shared memory.
 ----------------------------------------------------------------------
 #p freq external='/mlatom/software/miniconda3/bin/python /mlatom/softw
 are/mlatom/mlatom/interfaces/gaussian_interface.py model_predict_kwarg
 s'
 ----------------------------------------------------------------------
 1/10=4,18=10,30=1,38=1/1,3;
 2/12=2,17=6,18=5,40=1/2;
 3/11=9,25=1,30=1,41=9900000,43=2,71=2,140=1/1;
 4/20=17,22=2,24=3,113=1,114=1/2;
 6/7=2,8=2,9=2,10=2/1;
 7/8=1,25=1,44=-1/16;
 1/10=4,18=10,30=1/3;
 99//99;
 Leave Link    1 at Thu Jun 13 17:45:42 2024, MaxMem=           0 cpu:               7.7 elap:               1.2
 (Enter /mlatom/software/Gaussian/g16-avx2/l101.exe)
 ------------------------------------
 f235a00e-69ae-4ec7-9656-a9c3b7284ed7
 ------------------------------------
 Symbolic Z-matrix:
 Charge =  0 Multiplicity = 1
 C                    -0.11783  -0.0159   -0.16696 
 C                     1.02708   0.73929  -0.79157 
 H                     0.02606  -0.02467   0.92637 
 H                    -0.11511  -1.06793  -0.477 
 H                     1.84637   0.18445  -1.24567 
 C                     1.03659   2.07584  -0.74034 
 C                    -0.13407   2.78957  -0.11356 
 H                     1.859     2.65486  -1.15438 
 H                    -0.11549   3.86091  -0.34043 
 H                    -0.082     2.706     0.98344 
 C                    -1.49763   0.62268  -0.48294 
 C                    -1.45779   2.16939  -0.61242 
 H                    -2.20606   0.32202   0.30071 
 H                    -1.87628   0.19737  -1.41941 
 H                    -1.56798   2.44911  -1.66773 
 H                    -2.30476   2.62019  -0.08006 
 
 ITRead=  0  0  0  0  0  0  0  0  0  0  0  0  0  0  0  0
 MicOpt= -1 -1 -1 -1 -1 -1 -1 -1 -1 -1 -1 -1 -1 -1 -1 -1
 NAtoms=     16 NQM=       16 NQMF=       0 NMMI=      0 NMMIF=      0
                NMic=       0 NMicF=      0.
                    Isotopes and Nuclear Properties:
 (Nuclear quadrupole moments (NQMom) in fm**2, nuclear magnetic moments (NMagM)
  in nuclear magnetons)

  Atom         1           2           3           4           5           6           7           8           9          10
 IAtWgt=          12          12           1           1           1          12          12           1           1           1
 AtmWgt=  12.0000000  12.0000000   1.0078250   1.0078250   1.0078250  12.0000000  12.0000000   1.0078250   1.0078250   1.0078250
 NucSpn=           0           0           1           1           1           0           0           1           1           1
 AtZEff=  -0.0000000  -0.0000000  -0.0000000  -0.0000000  -0.0000000  -0.0000000  -0.0000000  -0.0000000  -0.0000000  -0.0000000
 NQMom=    0.0000000   0.0000000   0.0000000   0.0000000   0.0000000   0.0000000   0.0000000   0.0000000   0.0000000   0.0000000
 NMagM=    0.0000000   0.0000000   2.7928460   2.7928460   2.7928460   0.0000000   0.0000000   2.7928460   2.7928460   2.7928460
 AtZNuc=   6.0000000   6.0000000   1.0000000   1.0000000   1.0000000   6.0000000   6.0000000   1.0000000   1.0000000   1.0000000

  Atom        11          12          13          14          15          16
 IAtWgt=          12          12           1           1           1           1
 AtmWgt=  12.0000000  12.0000000   1.0078250   1.0078250   1.0078250   1.0078250
 NucSpn=           0           0           1           1           1           1
 AtZEff=  -0.0000000  -0.0000000  -0.0000000  -0.0000000  -0.0000000  -0.0000000
 NQMom=    0.0000000   0.0000000   0.0000000   0.0000000   0.0000000   0.0000000
 NMagM=    0.0000000   0.0000000   2.7928460   2.7928460   2.7928460   2.7928460
 AtZNuc=   6.0000000   6.0000000   1.0000000   1.0000000   1.0000000   1.0000000
 Leave Link  101 at Thu Jun 13 17:45:48 2024, MaxMem=   104857600 cpu:               1.6 elap:               0.6
 (Enter /mlatom/software/Gaussian/g16-avx2/l103.exe)

 GradGradGradGradGradGradGradGradGradGradGradGradGradGradGradGradGradGrad
 Berny optimization.
 Initialization pass.
 Trust Radius=3.00D-01 FncErr=1.00D-07 GrdErr=1.00D-07 EigMax=2.50D+02 EigMin=1.00D-04
 Number of steps in this run=      2 maximum allowed number of steps=      2.
 GradGradGradGradGradGradGradGradGradGradGradGradGradGradGradGradGradGrad

 Leave Link  103 at Thu Jun 13 17:45:49 2024, MaxMem=   104857600 cpu:               0.3 elap:               0.1
 (Enter /mlatom/software/Gaussian/g16-avx2/l202.exe)
                          Input orientation:                          
 ---------------------------------------------------------------------
 Center     Atomic      Atomic             Coordinates (Angstroms)
 Number     Number       Type             X           Y           Z
 ---------------------------------------------------------------------
      1          6           0       -0.117826   -0.015898   -0.166965
      2          6           0        1.027081    0.739287   -0.791571
      3          1           0        0.026064   -0.024673    0.926371
      4          1           0       -0.115111   -1.067935   -0.477000
      5          1           0        1.846366    0.184452   -1.245666
      6          6           0        1.036587    2.075840   -0.740337
      7          6           0       -0.134074    2.789574   -0.113559
      8          1           0        1.859001    2.654857   -1.154384
      9          1           0       -0.115486    3.860905   -0.340434
     10          1           0       -0.082003    2.706003    0.983440
     11          6           0       -1.497627    0.622679   -0.482936
     12          6           0       -1.457793    2.169385   -0.612420
     13          1           0       -2.206063    0.322024    0.300708
     14          1           0       -1.876284    0.197373   -1.419406
     15          1           0       -1.567983    2.449113   -1.667735
     16          1           0       -2.304758    2.620187   -0.080057
 ---------------------------------------------------------------------
                    Distance matrix (angstroms):
                    1          2          3          4          5
     1  C    0.000000
     2  C    1.507066   0.000000
     3  H    1.102799   2.130022   0.000000
     4  H    1.096773   2.160928   1.754359   0.000000
     5  H    2.249841   1.088702   2.841650   2.450860   0.000000
     6  C    2.456989   1.337568   2.865524   3.358434   2.118596
     7  C    2.806027   2.451868   3.004511   3.874639   3.462726
     8  H    3.466378   2.119701   3.856045   4.267921   2.472123
     9  H    3.880683   3.354621   4.089321   4.930732   4.264342
    10  H    2.955243   2.872056   2.733409   4.046800   3.878884
    11  C    1.552891   2.546174   2.174131   2.183933   3.457758
    12  C    2.601808   2.872608   3.063266   3.507332   3.906204
    13  H    2.166482   3.438081   2.343938   2.628478   4.339629
    14  H    2.169393   3.019499   3.028350   2.364501   3.726725
    15  H    3.229790   3.228858   3.923008   3.987269   4.118812
    16  H    3.426247   3.891682   3.666185   4.307477   4.952099
                    6          7          8          9         10
     6  C    0.000000
     7  C    1.507552   0.000000
     8  H    1.087686   2.252513   0.000000
     9  H    2.161863   1.095248   2.452685   0.000000
    10  H    2.149362   1.101409   2.887976   1.757146   0.000000
    11  C    2.932605   2.586726   3.980897   3.523738   2.914531
    12  C    2.499409   1.544580   3.395663   2.176466   2.174288
    13  H    3.830721   3.248624   4.907560   4.159958   3.265135
    14  H    3.531939   3.385268   4.479042   4.205479   3.909775
    15  H    2.789836   2.141838   3.471322   2.421700   3.050059
    16  H    3.449184   2.177541   4.300264   2.529840   2.465569
                   11         12         13         14         15
    11  C    0.000000
    12  C    1.552628   0.000000
    13  H    1.098350   2.192363   0.000000
    14  H    1.096012   2.171449   1.755871   0.000000
    15  H    2.178201   1.097305   2.967562   2.286274   0.000000
    16  H    2.191760   1.097261   2.331582   2.801334   1.758643
                   16
    16  H    0.000000
 Stoichiometry    C6H10
 Framework group  C1[X(C6H10)]
 Deg. of freedom    42
 Full point group                 C1      NOp   1
 Largest Abelian subgroup         C1      NOp   1
 Largest concise Abelian subgroup C1      NOp   1
                         Standard orientation:                         
 ---------------------------------------------------------------------
 Center     Atomic      Atomic             Coordinates (Angstroms)
 Number     Number       Type             X           Y           Z
 ---------------------------------------------------------------------
      1          6           0        1.191147    0.765159    0.310064
      2          6           0       -0.046394    1.454368   -0.204458
      3          1           0        1.180988    0.808104    1.411980
      4          1           0        2.099103    1.295894   -0.001138
      5          1           0        0.029258    2.472483   -0.582597
      6          6           0       -1.221964    0.818711   -0.149089
      7          6           0       -1.261676   -0.596447    0.369045
      8          1           0       -2.141402    1.293531   -0.484113
      9          1           0       -2.221621   -1.075040    0.147635
     10          1           0       -1.162245   -0.598264    1.465956
     11          6           0        1.273357   -0.721802   -0.129999
     12          6           0       -0.109548   -1.417165   -0.251239
     13          1           0        1.911237   -1.259668    0.584272
     14          1           0        1.783758   -0.774681   -1.098470
     15          1           0       -0.351565   -1.563394   -1.311486
     16          1           0       -0.077045   -2.415907    0.202015
 ---------------------------------------------------------------------
 Rotational constants (GHZ):           4.6348931           4.5529596           2.5944708
 Leave Link  202 at Thu Jun 13 17:45:50 2024, MaxMem=   104857600 cpu:               0.5 elap:               0.2
 (Enter /mlatom/software/Gaussian/g16-avx2/l301.exe)
 Standard basis: STO-3G (5D, 7F)
 Ernie: Thresh=  0.10000D-02 Tol=  0.10000D-05 Strict=F.
 There are    40 symmetry adapted cartesian basis functions of A   symmetry.
 There are    40 symmetry adapted basis functions of A   symmetry.
    40 basis functions,   120 primitive gaussians,    40 cartesian basis functions
    23 alpha electrons       23 beta electrons
       nuclear repulsion energy       236.1752632720 Hartrees.
 IExCor=    0 DFT=F Ex=HF Corr=None ExCW=0 ScaHFX=  1.000000
 ScaDFX=  1.000000  1.000000  1.000000  1.000000 ScalE2=  1.000000  1.000000
 IRadAn=      5 IRanWt=     -1 IRanGd=            0 ICorTp=0 IEmpDi=  4
 NAtoms=   16 NActive=   16 NUniq=   16 SFac= 1.00D+00 NAtFMM=   60 NAOKFM=F Big=F
 Integral buffers will be    131072 words long.
 Raffenetti 1 integral format.
 Two-electron integral symmetry is turned on.
 Leave Link  301 at Thu Jun 13 17:45:51 2024, MaxMem=   104857600 cpu:               1.2 elap:               0.3
 (Enter /mlatom/software/Gaussian/g16-avx2/l402.exe)
 External calculation of energy, first and second derivatives.
 Running external command "/mlatom/software/miniconda3/bin/python /mlatom/software/mlatom/mlatom/interfaces/gaussian_interface.py model_predict_kwargs R"
         input file       "/mlatom/home/qhzhang/git/ts-analysis/calculations/C60/irc/pro_opt/da_ub3lypd4_energy/Gau-103493.EIn"
         output file      "/mlatom/home/qhzhang/git/ts-analysis/calculations/C60/irc/pro_opt/da_ub3lypd4_energy/Gau-103493.EOu"
         message file     "/mlatom/home/qhzhang/git/ts-analysis/calculations/C60/irc/pro_opt/da_ub3lypd4_energy/Gau-103493.EMs"
         fchk file        "/mlatom/home/qhzhang/git/ts-analysis/calculations/C60/irc/pro_opt/da_ub3lypd4_energy/Gau-103493.EFC"
         mat. el file     "/mlatom/home/qhzhang/git/ts-analysis/calculations/C60/irc/pro_opt/da_ub3lypd4_energy/Gau-103493.EUF"
 Recovered energy= -234.660286058     dipole=      0.126800000000     -0.187700000000      0.080100000000
 Energy=    -234.660286     NIter=   0.
 Dipole moment=       0.126800      -0.187700       0.080100
 Leave Link  402 at Thu Jun 13 17:52:42 2024, MaxMem=   104857600 cpu:            1558.2 elap:             409.9
 (Enter /mlatom/software/Gaussian/g16-avx2/l601.exe)
 Leave Link  601 at Thu Jun 13 17:52:43 2024, MaxMem=   104857600 cpu:               0.8 elap:               0.7
 (Enter /mlatom/software/Gaussian/g16-avx2/l716.exe)
 Dipole        = 1.26800000D-01-1.87700000D-01 8.01000000D-02
 Full mass-weighted force constant matrix:
 Low frequencies ---   -0.1215   -0.0535    0.0688    6.6809   21.2558   25.0332
 Low frequencies ---   41.7587  194.8947  416.1908
 Diagonal vibrational polarizability:
        0.0000000       0.0000000       0.0000000
 Harmonic frequencies (cm**-1), IR intensities (KM/Mole), Raman scattering
 activities (A**4/AMU), depolarization ratios for plane and unpolarized
 incident light, reduced masses (AMU), force constants (mDyne/A),
 and normal coordinates:
                      1                      2                      3
                      A                      A                      A
 Frequencies --     36.3416               194.8385               416.1900
 Red. masses --      1.6586                 1.7629                 2.1891
 Frc consts  --      0.0013                 0.0394                 0.2234
 IR Inten    --      0.0000                 0.0000                 0.0000
  Atom  AN      X      Y      Z        X      Y      Z        X      Y      Z
     1   6     0.04   0.04  -0.10    -0.07  -0.03   0.09     0.01   0.04  -0.02
     2   6    -0.02  -0.01  -0.02     0.00  -0.03  -0.09    -0.03   0.10   0.18
     3   1     0.19   0.23  -0.11    -0.29  -0.13   0.09     0.33   0.12  -0.02
     4   1    -0.00  -0.00  -0.31    -0.01  -0.01   0.31    -0.04  -0.03  -0.29
     5   1    -0.07   0.01   0.01     0.06  -0.10  -0.27    -0.06   0.16   0.34
     6   6    -0.02  -0.00   0.08     0.00  -0.02  -0.04     0.03  -0.05  -0.18
     7   6    -0.00  -0.03   0.00     0.09   0.03   0.13     0.09   0.01   0.01
     8   1    -0.04   0.02   0.17     0.00  -0.12  -0.17     0.04  -0.14  -0.31
     9   1    -0.00  -0.02  -0.02     0.04   0.00   0.42     0.01  -0.00   0.38
    10   1     0.02  -0.11  -0.00     0.40   0.12   0.11     0.40   0.25  -0.02
    11   6     0.01  -0.05   0.15    -0.01  -0.00   0.00    -0.09  -0.02   0.01
    12   6    -0.01   0.05  -0.10    -0.02   0.05  -0.11    -0.05  -0.09  -0.03
    13   1    -0.24   0.01   0.41    -0.08  -0.05   0.03    -0.13  -0.00   0.06
    14   1     0.26  -0.28   0.30     0.07   0.04   0.04    -0.03  -0.06   0.05
    15   1     0.05   0.31  -0.15    -0.09   0.29  -0.12    -0.06  -0.13  -0.02
    16   1    -0.07  -0.06  -0.33    -0.04  -0.04  -0.31    -0.04  -0.06   0.03
                      4                      5                      6
                      A                      A                      A
 Frequencies --    450.4751               529.2320               697.4402
 Red. masses --      2.5089                 3.9818                 1.3655
 Frc consts  --      0.3000                 0.6571                 0.3913
 IR Inten    --      0.0000                 0.0000                 0.0000
  Atom  AN      X      Y      Z        X      Y      Z        X      Y      Z
     1   6     0.14   0.09   0.06     0.04  -0.14  -0.04     0.00  -0.01  -0.03
     2   6     0.07  -0.11   0.03    -0.11  -0.14   0.14     0.03  -0.02  -0.06
     3   1     0.34   0.18   0.05     0.21  -0.22  -0.04    -0.22  -0.04  -0.03
     4   1     0.08   0.07  -0.17    -0.12   0.09  -0.13     0.08  -0.02   0.18
     5   1    -0.00  -0.20  -0.24     0.02  -0.11   0.25    -0.13   0.24   0.61
     6   6     0.07  -0.14  -0.05    -0.20   0.01  -0.14     0.06  -0.08  -0.09
     7   6    -0.14  -0.07   0.07    -0.06   0.13   0.04    -0.01  -0.03   0.02
     8   1     0.18  -0.16  -0.40    -0.13   0.08  -0.25    -0.04   0.16   0.54
     9   1    -0.12  -0.04  -0.07     0.07  -0.16   0.08    -0.01  -0.06   0.04
    10   1    -0.25  -0.10   0.08    -0.10   0.35   0.04    -0.06   0.14   0.03
    11   6    -0.05   0.11  -0.01     0.22  -0.09  -0.04    -0.02   0.04   0.01
    12   6    -0.08   0.10   0.00     0.08   0.21   0.07    -0.03   0.04   0.05
    13   1     0.01  -0.03  -0.18     0.20  -0.11  -0.04     0.00   0.05  -0.00
    14   1    -0.19   0.19  -0.09     0.16  -0.16  -0.07    -0.06  -0.01  -0.01
    15   1    -0.12   0.29  -0.02     0.03   0.35   0.06    -0.05   0.21   0.03
    16   1     0.03   0.01  -0.21    -0.05   0.14  -0.07     0.02  -0.03  -0.13
                      7                      8                      9
                      A                      A                      A
 Frequencies --    707.7389               775.5542               822.1236
 Red. masses --      1.7725                 1.3093                 3.0862
 Frc consts  --      0.5231                 0.4640                 1.2290
 IR Inten    --      0.0000                 0.0000                 0.0000
  Atom  AN      X      Y      Z        X      Y      Z        X      Y      Z
     1   6    -0.07  -0.01  -0.08     0.06   0.05  -0.03     0.10   0.14   0.05
     2   6    -0.02   0.17   0.05     0.01  -0.03   0.03    -0.03   0.09  -0.05
     3   1    -0.18  -0.26  -0.07    -0.18  -0.26  -0.02    -0.07   0.12   0.05
     4   1     0.00   0.01   0.17     0.08   0.19   0.30     0.09   0.25   0.19
     5   1    -0.03   0.10  -0.12    -0.08  -0.03   0.01    -0.12   0.13   0.01
     6   6     0.09  -0.03  -0.01     0.01  -0.04   0.01    -0.05   0.06  -0.03
     7   6    -0.00  -0.03   0.08    -0.07  -0.00   0.00    -0.16  -0.02   0.05
     8   1     0.09  -0.25  -0.33     0.06   0.02  -0.05    -0.05   0.14   0.06
     9   1     0.06   0.04  -0.34    -0.11   0.00   0.16    -0.27   0.09   0.27
    10   1    -0.41  -0.12   0.12     0.11   0.01  -0.01     0.02   0.11   0.04
    11   6     0.02  -0.06  -0.06     0.04   0.04  -0.07     0.22  -0.10   0.01
    12   6     0.02   0.01   0.06    -0.04   0.02  -0.04    -0.06  -0.22  -0.03
    13   1    -0.04   0.09   0.11    -0.32   0.09   0.29     0.39  -0.11  -0.15
    14   1     0.09  -0.26  -0.01     0.37  -0.29   0.12     0.03   0.05  -0.10
    15   1    -0.11   0.30   0.05    -0.08  -0.35   0.02    -0.01   0.10  -0.09
    16   1     0.02  -0.13  -0.23     0.11   0.17   0.29    -0.17  -0.34  -0.30
                     10                     11                     12
                      A                      A                      A
 Frequencies --    893.3573               947.1826               959.0545
 Red. masses --      2.3604                 2.5226                 1.5908
 Frc consts  --      1.1099                 1.3334                 0.8621
 IR Inten    --      0.0000                 0.0000                 0.0000
  Atom  AN      X      Y      Z        X      Y      Z        X      Y      Z
     1   6     0.11   0.10   0.08     0.18  -0.05   0.01     0.01   0.01   0.12
     2   6    -0.09   0.04  -0.04    -0.02   0.14  -0.04    -0.01   0.00  -0.03
     3   1    -0.01   0.05   0.08     0.02  -0.20   0.02     0.26   0.14   0.11
     4   1     0.12   0.13   0.16     0.38  -0.28   0.22    -0.07  -0.02  -0.18
     5   1    -0.34   0.04  -0.09     0.05   0.10  -0.18     0.11  -0.01  -0.04
     6   6    -0.01  -0.11   0.02    -0.13   0.10  -0.05    -0.04   0.03  -0.09
     7   6     0.14   0.05  -0.08    -0.03  -0.17   0.00     0.04   0.01   0.11
     8   1    -0.16  -0.30   0.17    -0.16   0.08  -0.04    -0.15   0.14   0.34
     9   1     0.20   0.01  -0.25     0.08  -0.49   0.20     0.13  -0.02  -0.27
    10   1    -0.01  -0.08  -0.06     0.17  -0.08  -0.02    -0.38  -0.02   0.14
    11   6     0.02  -0.14  -0.01    -0.11  -0.00   0.02    -0.02  -0.01  -0.08
    12   6    -0.10   0.10   0.02     0.06   0.07   0.04     0.03  -0.05  -0.04
    13   1    -0.03  -0.35  -0.13    -0.13  -0.12  -0.04    -0.31  -0.11   0.10
    14   1    -0.11  -0.14  -0.08    -0.18  -0.13  -0.02     0.32   0.01   0.09
    15   1    -0.15  -0.05   0.06     0.12   0.03   0.03    -0.29  -0.13   0.04
    16   1    -0.37   0.18   0.21     0.24   0.05  -0.01     0.23  -0.02   0.01
                     13                     14                     15
                      A                      A                      A
 Frequencies --    976.9537              1007.7218              1056.5884
 Red. masses --      1.2758                 2.3730                 1.8553
 Frc consts  --      0.7174                 1.4198                 1.2203
 IR Inten    --      0.0000                 0.0000                 0.0000
  Atom  AN      X      Y      Z        X      Y      Z        X      Y      Z
     1   6     0.00  -0.01   0.03    -0.09  -0.10   0.02     0.11  -0.09   0.00
     2   6     0.01  -0.01  -0.11    -0.02   0.16  -0.02    -0.08   0.02  -0.02
     3   1     0.02   0.14   0.02     0.14   0.19   0.01     0.06  -0.16   0.00
     4   1    -0.00  -0.06  -0.06    -0.09  -0.27  -0.25     0.29  -0.35   0.08
     5   1    -0.07   0.28   0.65    -0.01   0.09  -0.20    -0.38   0.04  -0.03
     6   6    -0.02   0.04   0.06     0.10  -0.08  -0.03    -0.02  -0.08   0.04
     7   6    -0.01  -0.01   0.05    -0.13  -0.04   0.05    -0.04   0.15   0.00
     8   1     0.07  -0.21  -0.55     0.00  -0.06   0.28    -0.13  -0.31   0.03
     9   1     0.02  -0.03  -0.05    -0.20   0.05   0.17    -0.18   0.45  -0.03
    10   1    -0.05  -0.13   0.05     0.13  -0.15   0.03    -0.15   0.23   0.01
    11   6     0.01  -0.02  -0.00     0.11  -0.05   0.04    -0.05   0.06   0.03
    12   6     0.00   0.02  -0.03     0.00   0.13  -0.08     0.08  -0.06  -0.04
    13   1    -0.04  -0.11  -0.03     0.13  -0.20  -0.10    -0.02   0.07   0.01
    14   1     0.06   0.06   0.02     0.08   0.23   0.01     0.01   0.11   0.05
    15   1    -0.06  -0.12   0.00     0.09  -0.32  -0.03     0.14  -0.01  -0.06
    16   1     0.05   0.07   0.09     0.07   0.31   0.30     0.21  -0.08  -0.09
                     16                     17                     18
                      A                      A                      A
 Frequencies --   1085.3568              1109.4838              1177.7074
 Red. masses --      2.7342                 1.9930                 1.0526
 Frc consts  --      1.8977                 1.4454                 0.8602
 IR Inten    --      0.0000                 0.0000                 0.0000
  Atom  AN      X      Y      Z        X      Y      Z        X      Y      Z
     1   6    -0.06   0.14   0.05     0.04   0.05  -0.12     0.01   0.02   0.02
     2   6     0.02  -0.03  -0.00    -0.00  -0.05   0.09     0.01  -0.00  -0.03
     3   1    -0.05   0.17   0.05    -0.43   0.10  -0.12     0.15  -0.21   0.03
     4   1    -0.09   0.12  -0.04     0.12   0.11   0.25    -0.19   0.33  -0.02
     5   1    -0.30  -0.01  -0.01     0.02  -0.07   0.02     0.36   0.03   0.12
     6   6     0.06  -0.03   0.05    -0.03   0.01  -0.08    -0.01   0.00  -0.03
     7   6    -0.10   0.05  -0.03     0.02   0.05   0.13    -0.01   0.00   0.01
     8   1     0.25   0.26  -0.04     0.05   0.20  -0.03    -0.22  -0.29   0.13
     9   1    -0.08  -0.09   0.19     0.09   0.06  -0.23    -0.19   0.37   0.01
    10   1     0.04   0.36  -0.04    -0.16  -0.32   0.14     0.12  -0.28   0.00
    11   6    -0.13  -0.20  -0.07    -0.05  -0.05   0.11    -0.02  -0.01   0.00
    12   6     0.21   0.04   0.01     0.04  -0.00  -0.12     0.01   0.02   0.01
    13   1    -0.20  -0.30  -0.09     0.15  -0.20  -0.18    -0.01  -0.03  -0.02
    14   1    -0.13  -0.22  -0.07    -0.27   0.21  -0.02    -0.20  -0.28  -0.07
    15   1     0.20   0.08   0.01     0.06  -0.28  -0.09     0.27   0.00  -0.04
    16   1     0.33  -0.00  -0.10     0.10   0.13   0.16     0.17   0.01  -0.03
                     19                     20                     21
                      A                      A                      A
 Frequencies --   1202.5182              1250.4155              1267.0085
 Red. masses --      1.1322                 1.2747                 1.2239
 Frc consts  --      0.9646                 1.1743                 1.1576
 IR Inten    --      0.0000                 0.0000                 0.0000
  Atom  AN      X      Y      Z        X      Y      Z        X      Y      Z
     1   6     0.01  -0.02  -0.05    -0.00   0.06  -0.01     0.01  -0.02  -0.00
     2   6     0.01   0.02   0.02     0.05   0.00   0.02    -0.02  -0.02   0.04
     3   1    -0.22   0.22  -0.05    -0.14   0.21  -0.01    -0.29   0.49  -0.02
     4   1    -0.05   0.15   0.06     0.19  -0.24   0.04     0.12  -0.19   0.02
     5   1     0.34  -0.03  -0.02     0.47  -0.01   0.08    -0.08  -0.04  -0.02
     6   6    -0.00  -0.00   0.04    -0.03  -0.04   0.01    -0.02   0.02  -0.03
     7   6     0.01  -0.03  -0.05    -0.06   0.05   0.01     0.01  -0.01  -0.02
     8   1    -0.15  -0.30   0.01    -0.24  -0.39   0.10     0.02   0.08  -0.03
     9   1    -0.05   0.03   0.07     0.08  -0.24   0.03    -0.17   0.35   0.02
    10   1    -0.12   0.44  -0.04    -0.01   0.02   0.01     0.25  -0.45  -0.04
    11   6     0.02   0.00   0.03    -0.03  -0.03  -0.06     0.01  -0.00  -0.07
    12   6    -0.02   0.01   0.01     0.06  -0.01  -0.01    -0.01   0.01   0.09
    13   1    -0.13  -0.34  -0.10     0.03   0.20   0.07    -0.19  -0.14   0.01
    14   1     0.03   0.17   0.03     0.15   0.11   0.03     0.23   0.09   0.03
    15   1    -0.29  -0.01   0.07     0.15   0.02  -0.03     0.10   0.16   0.05
    16   1     0.38  -0.02  -0.07    -0.45   0.01   0.07     0.10  -0.07  -0.09
                     22                     23                     24
                      A                      A                      A
 Frequencies --   1305.7892              1355.6252              1357.4426
 Red. masses --      1.1589                 1.2206                 1.3082
 Frc consts  --      1.1642                 1.3216                 1.4202
 IR Inten    --      0.0000                 0.0000                 0.0000
  Atom  AN      X      Y      Z        X      Y      Z        X      Y      Z
     1   6    -0.03   0.04   0.04     0.03  -0.08   0.03    -0.04   0.08  -0.01
     2   6     0.01  -0.03   0.02    -0.02   0.02   0.01    -0.04  -0.01  -0.01
     3   1    -0.06   0.22   0.03    -0.19   0.45   0.01     0.10  -0.23  -0.00
     4   1     0.20  -0.36  -0.00    -0.09   0.11   0.00     0.21  -0.34   0.01
     5   1     0.04  -0.03   0.01    -0.00   0.00  -0.03     0.31  -0.01   0.06
     6   6    -0.02   0.01  -0.00     0.01   0.00   0.01    -0.03  -0.03   0.01
     7   6     0.02  -0.02  -0.01     0.03  -0.03   0.04     0.05  -0.09   0.00
     8   1    -0.04  -0.03  -0.00     0.06   0.06  -0.04     0.15   0.27  -0.08
     9   1    -0.05   0.13  -0.01     0.01   0.01   0.00    -0.23   0.45   0.04
    10   1    -0.03   0.08  -0.01    -0.25   0.31   0.06    -0.13   0.19   0.02
    11   6     0.02  -0.05  -0.01     0.01   0.07  -0.03     0.03   0.03   0.01
    12   6    -0.04   0.04  -0.03    -0.02  -0.01  -0.03     0.05   0.02  -0.01
    13   1     0.34   0.46   0.10    -0.09  -0.03  -0.02    -0.13  -0.25  -0.06
    14   1    -0.19  -0.37  -0.10    -0.16  -0.45  -0.10    -0.03  -0.04  -0.02
    15   1    -0.23  -0.09   0.02     0.48  -0.08  -0.14    -0.09   0.02   0.03
    16   1     0.38   0.06  -0.02    -0.22   0.02   0.06    -0.35   0.05   0.09
                     25                     26                     27
                      A                      A                      A
 Frequencies --   1379.1779              1404.3675              1429.3367
 Red. masses --      1.4232                 1.4228                 1.5947
 Frc consts  --      1.5950                 1.6533                 1.9196
 IR Inten    --      0.0000                 0.0000                 0.0000
  Atom  AN      X      Y      Z        X      Y      Z        X      Y      Z
     1   6     0.00   0.03  -0.01    -0.07   0.08  -0.01     0.06  -0.03   0.01
     2   6     0.02  -0.02   0.00     0.01  -0.02   0.01    -0.12   0.06  -0.05
     3   1     0.06  -0.15  -0.00     0.10  -0.18  -0.00     0.02   0.08   0.01
     4   1     0.01   0.04   0.01     0.20  -0.40  -0.01    -0.02   0.15   0.07
     5   1    -0.11  -0.01  -0.01     0.10  -0.02   0.03     0.59   0.06   0.08
     6   6    -0.01   0.04  -0.01     0.00  -0.02   0.01    -0.01  -0.13   0.05
     7   6     0.06  -0.09   0.02     0.00   0.08   0.01     0.00   0.06  -0.01
     8   1    -0.05  -0.04  -0.01     0.01  -0.01   0.01     0.36   0.47  -0.11
     9   1    -0.08   0.19   0.02     0.21  -0.31  -0.07     0.09  -0.06  -0.10
    10   1    -0.22   0.29   0.05     0.00  -0.05   0.01     0.09  -0.02  -0.02
    11   6    -0.04  -0.10  -0.03     0.07   0.04   0.00    -0.04  -0.04  -0.01
    12   6    -0.09   0.05   0.02    -0.11  -0.03   0.02    -0.04  -0.01   0.01
    13   1     0.10   0.22   0.09    -0.18  -0.38  -0.09     0.13   0.22   0.04
    14   1     0.28   0.48   0.10    -0.04  -0.13  -0.05     0.12   0.12   0.06
    15   1     0.56  -0.07  -0.11     0.45  -0.05  -0.10     0.08   0.04  -0.02
    16   1     0.13   0.04  -0.01     0.34  -0.08  -0.12     0.23  -0.01  -0.03
                     28                     29                     30
                      A                      A                      A
 Frequencies --   1513.2604              1519.5344              1523.6551
 Red. masses --      1.0813                 1.0910                 1.0885
 Frc consts  --      1.4590                 1.4842                 1.4889
 IR Inten    --      0.0000                 0.0000                 0.0000
  Atom  AN      X      Y      Z        X      Y      Z        X      Y      Z
     1   6    -0.03  -0.02  -0.03    -0.01  -0.01  -0.01    -0.05  -0.01  -0.03
     2   6     0.00  -0.01  -0.00     0.00   0.01  -0.00     0.02  -0.00  -0.00
     3   1     0.38   0.21  -0.02     0.20   0.11  -0.01     0.41   0.21  -0.02
     4   1     0.09   0.06   0.43     0.04   0.05   0.22     0.09   0.06   0.45
     5   1    -0.02  -0.01  -0.00     0.02   0.01   0.01    -0.04  -0.00  -0.01
     6   6    -0.00   0.01   0.00    -0.01  -0.02  -0.00    -0.01   0.00  -0.00
     7   6    -0.03  -0.02   0.03     0.04   0.04  -0.04     0.01  -0.00  -0.01
     8   1    -0.02  -0.01   0.01     0.02   0.03  -0.01    -0.02  -0.01   0.01
     9   1     0.04   0.07  -0.42    -0.05  -0.07   0.52    -0.02  -0.01   0.09
    10   1     0.37   0.20  -0.02    -0.45  -0.27   0.02    -0.08  -0.04   0.00
    11   6     0.02  -0.01  -0.01     0.03  -0.02  -0.01    -0.02   0.00   0.00
    12   6     0.01   0.02   0.01     0.01   0.02   0.01    -0.01  -0.05  -0.02
    13   1    -0.17   0.04   0.19    -0.22   0.08   0.27     0.12  -0.05  -0.15
    14   1    -0.18   0.12  -0.11    -0.27   0.18  -0.16     0.14  -0.09   0.08
    15   1     0.00  -0.23   0.04    -0.02  -0.17   0.03     0.01   0.48  -0.09
    16   1    -0.08  -0.09  -0.21    -0.03  -0.06  -0.16     0.12   0.18   0.43
                     31                     32                     33
                      A                      A                      A
 Frequencies --   1542.9037              1717.9519              2990.6650
 Red. masses --      1.0936                 6.0673                 1.0728
 Frc consts  --      1.5338                10.5505                 5.6534
 IR Inten    --      0.0000                 0.0000                 0.0000
  Atom  AN      X      Y      Z        X      Y      Z        X      Y      Z
     1   6     0.02   0.00   0.02    -0.05  -0.02  -0.00    -0.01  -0.01  -0.07
     2   6     0.00   0.01   0.00     0.44   0.18   0.01    -0.00   0.00  -0.00
     3   1    -0.17  -0.08   0.01    -0.05   0.02   0.00    -0.02   0.02   0.97
     4   1    -0.03  -0.03  -0.20    -0.20   0.14  -0.14     0.14   0.08  -0.07
     5   1     0.00   0.01  -0.00    -0.32   0.24  -0.14    -0.00  -0.01  -0.00
     6   6    -0.01  -0.00   0.00    -0.39  -0.27   0.04     0.00   0.00  -0.00
     7   6    -0.01  -0.01   0.01     0.05   0.03  -0.01     0.00   0.00  -0.01
     8   1    -0.00   0.00  -0.00    -0.05   0.39  -0.15     0.01  -0.00   0.00
     9   1     0.02   0.00  -0.14    -0.03   0.25  -0.14    -0.01  -0.01  -0.00
    10   1     0.10   0.07  -0.00     0.01   0.03   0.01     0.01  -0.00   0.09
    11   6     0.06  -0.03  -0.01     0.01   0.01   0.01     0.00  -0.00   0.01
    12   6    -0.01  -0.05  -0.02    -0.02   0.00   0.01     0.00   0.00  -0.00
    13   1    -0.33   0.09   0.39     0.01  -0.06  -0.05    -0.07   0.06  -0.08
    14   1    -0.38   0.24  -0.24     0.01  -0.05   0.02     0.02  -0.00  -0.03
    15   1     0.03   0.41  -0.08     0.02  -0.05   0.01     0.00   0.00   0.00
    16   1     0.11   0.15   0.38     0.04  -0.03  -0.07    -0.00  -0.00   0.00
                     34                     35                     36
                      A                      A                      A
 Frequencies --   3006.3742              3034.3099              3045.8355
 Red. masses --      1.0720                 1.0615                 1.0658
 Frc consts  --      5.7086                 5.7582                 5.8255
 IR Inten    --      0.0000                 0.0000                 0.0000
  Atom  AN      X      Y      Z        X      Y      Z        X      Y      Z
     1   6     0.00   0.00   0.01     0.00   0.00  -0.01    -0.00  -0.00   0.01
     2   6    -0.00   0.00   0.00     0.00  -0.00   0.00    -0.00  -0.00   0.00
     3   1     0.01  -0.00  -0.09     0.00   0.00   0.07    -0.00  -0.00  -0.08
     4   1    -0.02  -0.01   0.01    -0.06  -0.03   0.02     0.06   0.03  -0.02
     5   1     0.00  -0.01   0.00    -0.00   0.00  -0.00     0.00   0.00  -0.00
     6   6    -0.00   0.00  -0.00    -0.00   0.00  -0.00     0.00   0.00   0.00
     7   6     0.01   0.01  -0.07     0.00   0.00   0.00     0.01   0.01   0.00
     8   1     0.01  -0.00  -0.00     0.00  -0.00  -0.00     0.00  -0.00  -0.00
     9   1    -0.17  -0.08  -0.06    -0.05  -0.03  -0.01    -0.12  -0.07  -0.03
    10   1     0.10   0.00   0.96     0.00   0.00   0.00     0.01   0.00   0.03
    11   6    -0.00   0.00  -0.00    -0.05   0.03  -0.00     0.04  -0.02   0.02
    12   6     0.00  -0.00   0.01    -0.01  -0.04  -0.02    -0.01  -0.04  -0.04
    13   1     0.01  -0.01   0.01     0.36  -0.31   0.43    -0.33   0.28  -0.38
    14   1    -0.01   0.00   0.02     0.18  -0.01  -0.38    -0.08  -0.00   0.18
    15   1    -0.03  -0.02  -0.11     0.09   0.04   0.40     0.14   0.07   0.63
    16   1     0.00   0.06  -0.03    -0.02   0.42  -0.21    -0.02   0.37  -0.19
                     37                     38                     39
                      A                      A                      A
 Frequencies --   3065.0292              3075.1066              3087.2746
 Red. masses --      1.0950                 1.0951                 1.0924
 Frc consts  --      6.0610                 6.1014                 6.1345
 IR Inten    --      0.0000                 0.0000                 0.0000
  Atom  AN      X      Y      Z        X      Y      Z        X      Y      Z
     1   6    -0.05  -0.03   0.02    -0.05  -0.03   0.03    -0.01  -0.00   0.01
     2   6     0.00   0.00  -0.00     0.00   0.00  -0.00     0.00   0.00  -0.00
     3   1    -0.01  -0.01  -0.04    -0.01  -0.01  -0.13     0.00  -0.00  -0.06
     4   1     0.54   0.31  -0.19     0.57   0.33  -0.20     0.08   0.05  -0.03
     5   1    -0.00  -0.04   0.01    -0.01  -0.06   0.02    -0.00  -0.02   0.01
     6   6     0.00   0.00   0.00     0.00  -0.00   0.00     0.01  -0.00   0.00
     7   6    -0.00  -0.00   0.00     0.00   0.00  -0.01    -0.06  -0.03  -0.03
     8   1    -0.01   0.00  -0.00    -0.00   0.00  -0.00    -0.06   0.03  -0.02
     9   1     0.04   0.02   0.01    -0.04  -0.02  -0.01     0.77   0.38   0.18
    10   1    -0.01  -0.00  -0.06     0.01   0.00   0.08     0.00  -0.01   0.14
    11   6     0.01   0.01  -0.05    -0.01   0.00   0.02    -0.00  -0.01   0.03
    12   6     0.01  -0.03   0.03    -0.01   0.04  -0.05     0.00  -0.02   0.01
    13   1     0.15  -0.13   0.16     0.02  -0.02   0.03    -0.12   0.10  -0.13
    14   1    -0.24   0.02   0.46     0.14  -0.01  -0.28     0.14  -0.01  -0.26
    15   1    -0.05  -0.03  -0.23     0.07   0.05   0.34    -0.02  -0.01  -0.06
    16   1    -0.01   0.37  -0.17     0.02  -0.47   0.22    -0.01   0.20  -0.09
                     40                     41                     42
                      A                      A                      A
 Frequencies --   3093.2270              3163.4042              3188.4834
 Red. masses --      1.1023                 1.0854                 1.0984
 Frc consts  --      6.2140                 6.3996                 6.5790
 IR Inten    --      0.0000                 0.0000                 0.0000
  Atom  AN      X      Y      Z        X      Y      Z        X      Y      Z
     1   6     0.02   0.01  -0.01    -0.01  -0.00   0.00     0.00   0.00   0.00
     2   6    -0.00  -0.00   0.00    -0.01  -0.07   0.02     0.01   0.05  -0.02
     3   1     0.00   0.01   0.09    -0.00  -0.00  -0.01     0.00   0.00  -0.00
     4   1    -0.18  -0.11   0.06     0.05   0.03  -0.02    -0.03  -0.02   0.01
     5   1     0.00   0.02  -0.01     0.06   0.78  -0.29    -0.04  -0.51   0.19
     6   6     0.00  -0.00   0.00    -0.04   0.02  -0.01    -0.07   0.03  -0.02
     7   6    -0.03  -0.01  -0.02    -0.00  -0.00  -0.00    -0.00  -0.00  -0.00
     8   1    -0.03   0.01  -0.01     0.46  -0.24   0.17     0.70  -0.36   0.26
     9   1     0.35   0.17   0.08     0.04   0.02   0.01     0.05   0.03   0.01
    10   1     0.01  -0.00   0.14     0.00   0.00   0.01    -0.00  -0.00   0.00
    11   6     0.01   0.01  -0.06    -0.00   0.00   0.00     0.00  -0.00  -0.00
    12   6    -0.01   0.02  -0.05     0.00  -0.00  -0.00     0.00  -0.00  -0.00
    13   1     0.19  -0.16   0.21    -0.00  -0.00  -0.00    -0.00   0.00  -0.00
    14   1    -0.27   0.03   0.51     0.00  -0.00  -0.01    -0.00   0.00   0.01
    15   1     0.10   0.06   0.44     0.00   0.00   0.00     0.00   0.00   0.01
    16   1     0.01  -0.30   0.14    -0.00  -0.00   0.00    -0.00   0.00  -0.00

 -------------------
 - Thermochemistry -
 -------------------
 Temperature   298.150 Kelvin.  Pressure   1.00000 Atm.
 Atom     1 has atomic number  6 and mass  12.00000
 Atom     2 has atomic number  6 and mass  12.00000
 Atom     3 has atomic number  1 and mass   1.00783
 Atom     4 has atomic number  1 and mass   1.00783
 Atom     5 has atomic number  1 and mass   1.00783
 Atom     6 has atomic number  6 and mass  12.00000
 Atom     7 has atomic number  6 and mass  12.00000
 Atom     8 has atomic number  1 and mass   1.00783
 Atom     9 has atomic number  1 and mass   1.00783
 Atom    10 has atomic number  1 and mass   1.00783
 Atom    11 has atomic number  6 and mass  12.00000
 Atom    12 has atomic number  6 and mass  12.00000
 Atom    13 has atomic number  1 and mass   1.00783
 Atom    14 has atomic number  1 and mass   1.00783
 Atom    15 has atomic number  1 and mass   1.00783
 Atom    16 has atomic number  1 and mass   1.00783
 Molecular mass:    82.07825 amu.
 Principal axes and moments of inertia in atomic units:
                           1         2         3
     Eigenvalues --   389.38141 396.38858 695.61054
           X            0.73828   0.67449   0.00300
           Y           -0.67448   0.73828  -0.00340
           Z           -0.00451   0.00048   0.99999
 This molecule is an asymmetric top.
 Rotational symmetry number  1.
 Rotational temperatures (Kelvin)      0.22244     0.21851     0.12451
 Rotational constants (GHZ):           4.63489     4.55296     2.59447
 Zero-point vibrational energy     384970.5 (Joules/Mol)
                                   92.01015 (Kcal/Mol)
 Warning -- explicit consideration of   5 degrees of freedom as
           vibrations may cause significant error
 Vibrational temperatures:     52.29   280.33   598.80   648.13   761.45
          (Kelvin)           1003.46  1018.28  1115.85  1182.85  1285.34
                             1362.78  1379.87  1405.62  1449.89  1520.20
                             1561.59  1596.30  1694.46  1730.16  1799.07
                             1822.94  1878.74  1950.44  1953.06  1984.33
                             2020.57  2056.50  2177.24  2186.27  2192.20
                             2219.89  2471.75  4302.90  4325.50  4365.70
                             4382.28  4409.89  4424.39  4441.90  4450.46
                             4551.43  4587.52
 
 Zero-point correction=                           0.146628 (Hartree/Particle)
 Thermal correction to Energy=                    0.152466
 Thermal correction to Enthalpy=                  0.153410
 Thermal correction to Gibbs Free Energy=         0.116667
 Sum of electronic and zero-point Energies=           -234.513659
 Sum of electronic and thermal Energies=              -234.507820
 Sum of electronic and thermal Enthalpies=            -234.506876
 Sum of electronic and thermal Free Energies=         -234.543619
 
                     E (Thermal)             CV                S
                      KCal/Mol        Cal/Mol-Kelvin    Cal/Mol-Kelvin
 Total                   95.674             21.532             77.333
 Electronic               0.000              0.000              0.000
 Translational            0.889              2.981             39.129
 Rotational               0.889              2.981             26.176
 Vibrational             93.897             15.570             12.027
 Vibration     1          0.594              1.982              5.449
 Vibration     2          0.636              1.847              2.181
 Vibration     3          0.779              1.435              0.905
 Vibration     4          0.809              1.360              0.794
 Vibration     5          0.884              1.185              0.589
                       Q            Log10(Q)             Ln(Q)
 Total Bot       0.217255D-53        -53.663029       -123.563692
 Total V=0       0.603786D+14         13.780883         31.731656
 Vib (Bot)       0.633720D-66        -66.198102       -152.426764
 Vib (Bot)    1  0.569484D+01          0.755481          1.739560
 Vib (Bot)    2  0.102538D+01          0.010886          0.025065
 Vib (Bot)    3  0.423122D+00         -0.373535         -0.860095
 Vib (Bot)    4  0.380534D+00         -0.419607         -0.966181
 Vib (Bot)    5  0.302406D+00         -0.519409         -1.195984
 Vib (V=0)       0.176121D+02          1.245810          2.868584
 Vib (V=0)    1  0.621675D+01          0.793563          1.827247
 Vib (V=0)    2  0.164079D+01          0.215054          0.495180
 Vib (V=0)    3  0.115501D+01          0.062584          0.144105
 Vib (V=0)    4  0.112834D+01          0.052438          0.120744
 Vib (V=0)    5  0.108434D+01          0.035164          0.080969
 Electronic      0.100000D+01          0.000000          0.000000
 Translational   0.292278D+08          7.465796         17.190631
 Rotational      0.117294D+06          5.069277         11.672441
 ***** Axes restored to original set *****
 -------------------------------------------------------------------
 Center     Atomic                   Forces (Hartrees/Bohr)
 Number     Number              X              Y              Z
 -------------------------------------------------------------------
      1        6           0.000007147   -0.001098733    0.000039733
      2        6           0.001057909    0.001437825   -0.000087937
      3        1          -0.000412622    0.000008635   -0.000987557
      4        1          -0.000029222    0.000648831    0.000365729
      5        1          -0.000321137    0.000188038    0.000207232
      6        6          -0.000517937   -0.001671201    0.000119345
      7        6          -0.000256852   -0.000108742    0.000096694
      8        1           0.000081112   -0.000047555   -0.000249776
      9        1           0.000021050    0.000336176    0.000043831
     10        1           0.000033069    0.000000243    0.000289573
     11        6          -0.000378523    0.000455732    0.001082189
     12        6          -0.000155457    0.000182897   -0.000592205
     13        1           0.000662227    0.000516412   -0.001116012
     14        1           0.000068648    0.000072062    0.000337306
     15        1          -0.000310023   -0.000658603    0.000718188
     16        1           0.000450611   -0.000262017   -0.000266332
 -------------------------------------------------------------------
 Cartesian Forces:  Max     0.001671201 RMS     0.000561118
 Z-matrix is all fixed cartesians, so copy forces.
 Leave Link  716 at Thu Jun 13 17:52:44 2024, MaxMem=   104857600 cpu:               0.9 elap:               0.5
 (Enter /mlatom/software/Gaussian/g16-avx2/l103.exe)

 GradGradGradGradGradGradGradGradGradGradGradGradGradGradGradGradGradGrad
 Berny optimization.
 Search for a local minimum.
 Step number   1 out of a maximum of    2
 All quantities printed in internal units (Hartrees-Bohrs-Radians)
 Second derivative matrix not updated -- analytic derivatives used.
 ITU=  0
     Eigenvalues ---    0.00008   0.00248   0.01335   0.01520   0.02887
     Eigenvalues ---    0.03326   0.04081   0.04573   0.05063   0.05114
     Eigenvalues ---    0.05418   0.05451   0.05965   0.06265   0.07210
     Eigenvalues ---    0.08059   0.08090   0.10192   0.11679   0.12835
     Eigenvalues ---    0.13115   0.14925   0.15611   0.18572   0.19426
     Eigenvalues ---    0.20632   0.23533   0.33708   0.34262   0.49817
     Eigenvalues ---    0.51953   0.63938   0.66673   0.71028   0.75002
     Eigenvalues ---    0.76128   0.80644   0.82972   0.85285   0.89733
     Eigenvalues ---    0.94364   1.43351
 Quadratic step=7.383D-01 exceeds max=3.000D-01 adjusted using Lamda=-1.141D-04.
 Angle between NR and scaled steps=   2.78 degrees.
 Angle between quadratic step and forces=  87.18 degrees.
 Linear search not attempted -- first point.
 B after Tr=     0.000554    0.000986   -0.000271
         Rot=    1.000000   -0.000211    0.000172   -0.000132 Ang=  -0.03 deg.
 Variable       Old X    -DE/DX   Delta X   Delta X   Delta X     New X
                                 (Linear)    (Quad)   (Total)
    X1       -0.22266   0.00001   0.00000   0.00238   0.00306  -0.21959
    Y1       -0.03004  -0.00110   0.00000  -0.01780  -0.01673  -0.04677
    Z1       -0.31552   0.00004   0.00000  -0.03587  -0.03624  -0.35176
    X2        1.94090   0.00106   0.00000   0.00515   0.00584   1.94675
    Y2        1.39705   0.00144   0.00000   0.01039   0.01252   1.40957
    Z2       -1.49585  -0.00009   0.00000   0.00001   0.00100  -1.49485
    X3        0.04925  -0.00041   0.00000   0.02271   0.02271   0.07197
    Y3       -0.04662   0.00001   0.00000  -0.09254  -0.09226  -0.13888
    Z3        1.75059  -0.00099   0.00000  -0.04246  -0.04276   1.70783
    X4       -0.21753  -0.00003   0.00000  -0.00873  -0.00730  -0.22482
    Y4       -2.01810   0.00065   0.00000   0.00356   0.00491  -2.01319
    Z4       -0.90140   0.00037   0.00000  -0.10085  -0.10205  -1.00345
    X5        3.48913  -0.00032   0.00000   0.01731   0.01857   3.50770
    Y5        0.34856   0.00019   0.00000   0.02335   0.02626   0.37482
    Z5       -2.35397   0.00021   0.00000   0.00868   0.00977  -2.34420
    X6        1.95887  -0.00052   0.00000   0.00171   0.00170   1.96056
    Y6        3.92277  -0.00167   0.00000   0.00682   0.00891   3.93168
    Z6       -1.39903   0.00012   0.00000   0.02509   0.02715  -1.37189
    X7       -0.25336  -0.00026   0.00000  -0.01079  -0.01156  -0.26493
    Y7        5.27153  -0.00011   0.00000   0.00688   0.00789   5.27942
    Z7       -0.21460   0.00010   0.00000   0.00323   0.00510  -0.20950
    X8        3.51300   0.00008   0.00000   0.01135   0.01131   3.52432
    Y8        5.01695  -0.00005   0.00000   0.00942   0.01223   5.02919
    Z8       -2.18147  -0.00025   0.00000   0.04629   0.04935  -2.13212
    X9       -0.21824   0.00002   0.00000  -0.00660  -0.00775  -0.22599
    Y9        7.29605   0.00034   0.00000   0.00735   0.00854   7.30460
    Z9       -0.64333   0.00004   0.00000   0.00081   0.00354  -0.63979
   X10       -0.15496   0.00003   0.00000  -0.03612  -0.03756  -0.19252
   Y10        5.11361   0.00000   0.00000   0.01001   0.01016   5.12377
   Z10        1.85843   0.00029   0.00000   0.00555   0.00737   1.86580
   X11       -2.83010  -0.00038   0.00000  -0.00695  -0.00641  -2.83652
   Y11        1.17669   0.00046   0.00000   0.00923   0.00983   1.18652
   Z11       -0.91262   0.00108   0.00000   0.04484   0.04410  -0.86852
   X12       -2.75483  -0.00016   0.00000   0.01013   0.01001  -2.74482
   Y12        4.09954   0.00018   0.00000  -0.00269  -0.00193   4.09761
   Z12       -1.15731  -0.00059   0.00000  -0.03057  -0.03006  -1.18736
   X13       -4.16885   0.00066   0.00000   0.04940   0.04954  -4.11931
   Y13        0.60854   0.00052   0.00000   0.06554   0.06515   0.67369
   Z13        0.56826  -0.00112   0.00000   0.11172   0.11032   0.67857
   X14       -3.54566   0.00007   0.00000  -0.09975  -0.09840  -3.64406
   Y14        0.37298   0.00007   0.00000  -0.02229  -0.02117   0.35181
   Z14       -2.68229   0.00034   0.00000   0.09750   0.09612  -2.58617
   X15       -2.96306  -0.00031   0.00000   0.06065   0.06110  -2.90196
   Y15        4.62815  -0.00066   0.00000  -0.05998  -0.05841   4.56974
   Z15       -3.15156   0.00072   0.00000  -0.04862  -0.04796  -3.19952
   X16       -4.35536   0.00045   0.00000  -0.01420  -0.01488  -4.37024
   Y16        4.95144  -0.00026   0.00000   0.02416   0.02410   4.97553
   Z16       -0.15129  -0.00027   0.00000  -0.09507  -0.09474  -0.24603
         Item               Value     Threshold  Converged?
 Maximum Force            0.001671     0.000450     NO 
 RMS     Force            0.000561     0.000300     NO 
 Maximum Displacement     0.110316     0.001800     NO 
 RMS     Displacement     0.043371     0.001200     NO 
 Predicted change in Energy=-3.401979D-05
 GradGradGradGradGradGradGradGradGradGradGradGradGradGradGradGradGradGrad

 Leave Link  103 at Thu Jun 13 17:52:46 2024, MaxMem=   104857600 cpu:               2.6 elap:               0.8
 (Enter /mlatom/software/Gaussian/g16-avx2/l9999.exe)
 1\1\GINC-B004\Freq\RExternal='/mlatom/software/miniconda3/bin/python /
 mlatom/software/mlatom/mlatom/\ZDO\C6H10\UNKNOWN\13-Jun-2024\0\\#p fre
 q external='/mlatom/software/miniconda3/bin/python /mlatom/software/ml
 atom/mlatom/interfaces/gaussian_interface.py model_predict_kwargs'\\f2
 35a00e-69ae-4ec7-9656-a9c3b7284ed7\\0,1\C,-0.11782585,-0.01589772,-0.1
 6696487\C,1.02708115,0.73928728,-0.79157087\H,0.02606415,-0.02467272,0
 .92637113\H,-0.11511085,-1.06793472,-0.47699987\H,1.84636615,0.1844522
 8,-1.24566587\C,1.03658715,2.07584028,-0.74033687\C,-0.13407385,2.7895
 7428,-0.11355887\H,1.85900115,2.65485728,-1.15438387\H,-0.11548585,3.8
 6090528,-0.34043387\H,-0.08200285,2.70600328,0.98344013\C,-1.49762685,
 0.62267928,-0.48293587\C,-1.45779285,2.16938528,-0.61241987\H,-2.20606
 285,0.32202428,0.30070813\H,-1.87628385,0.19737328,-1.41940587\H,-1.56
 798285,2.44911328,-1.66773487\H,-2.30475785,2.62018728,-0.08005687\\Ve
 rsion=ES64L-G16RevA.03\HF=-234.6602861\RMSD=0.000e+00\RMSF=5.611e-04\Z
 eroPoint=0.1466275\Thermal=0.1524662\Dipole=-0.2171551,-0.0212514,0.10
 05862\PG=C01 [X(C6H10)]\NImag=0\\0.43180651,0.02087098,0.57959905,-0.0
 0114720,0.03067654,0.52732862,-0.15415231,-0.04886818,0.04719923,0.495
 97749,-0.04194955,-0.12244487,0.02395246,-0.05188884,0.83650743,0.0480
 3480,0.02557675,-0.09564408,-0.19340154,0.04758127,0.24790672,-0.04479
 003,0.00031617,-0.02777184,0.00034299,-0.00439814,0.02659997,0.0599754
 8,-0.00007965,-0.04997108,-0.00104688,0.00039684,-0.00165341,0.0183048
 7,0.00134578,0.05046970,-0.03390352,-0.00405784,-0.28728766,0.00438311
 ,0.00477135,-0.01318108,0.03275664,0.00064243,0.31386969,-0.04930613,0
 .00127984,0.00147901,0.00056154,-0.02627976,-0.00956244,-0.00000669,-0
 .00380044,-0.00129581,0.05590687,-0.00082148,-0.28509451,-0.07268800,0
 .00118589,-0.01519139,-0.00470956,-0.00011920,0.00015953,-0.00125138,0
 .00034312,0.30944101,0.00066949,-0.07551281,-0.07220920,0.00015752,0.0
 1779889,0.00395521,0.00014045,-0.03306045,-0.01049143,-0.00025761,0.07
 877035,0.07615300,-0.01107667,0.01134445,0.00694023,-0.20941181,0.1064
 3114,0.09679678,-0.00160329,-0.00039764,0.00053867,0.00100591,0.000038
 06,-0.00069010,0.21722810,-0.01293760,0.00945484,0.00590990,0.10337225
 ,-0.12781802,-0.05783753,-0.00046308,-0.00029453,0.00101691,0.00042801
 ,0.00120519,-0.00048156,-0.11354505,0.13532961,0.00901618,-0.00697374,
 -0.00018895,0.09705475,-0.06027773,-0.08861436,-0.00001965,0.00056487,
 -0.00102820,-0.00047481,0.00055111,0.00067729,-0.10708994,0.06450975,0
 .08223838,0.00427380,-0.02758006,0.00030179,-0.10294131,-0.00599946,0.
 02390046,-0.00123044,-0.00124189,0.00191600,-0.00430363,-0.00357815,0.
 00272653,0.00390201,0.02738191,0.00197442,0.50487872,-0.01628616,-0.02
 210604,0.00920012,-0.00146781,-0.54194685,-0.01869031,0.00131072,-0.00
 123643,-0.00310141,-0.00180038,0.00021831,0.00021476,-0.00180468,-0.01
 250173,0.00045355,0.06795647,0.83849600,-0.00006692,0.01608689,0.00418
 357,0.02380791,-0.01686376,-0.06736397,0.00134457,0.00051781,0.0008156
 5,0.00288488,0.00121121,-0.00062338,0.00069900,-0.01520475,0.00384655,
 -0.18618473,-0.00881408,0.23925679,-0.00774576,-0.00087172,0.00002072,
 0.00365959,0.01697156,0.00040661,0.00134392,-0.00102022,-0.00092149,-0
 .00094921,0.00012329,-0.00021258,0.00349324,-0.00260394,0.00373676,-0.
 15639764,0.04048920,0.05073950,0.42825229,0.00072418,0.00106330,-0.001
 94044,0.02799122,-0.02039281,-0.01672588,0.00054419,0.00074446,0.00028
 502,-0.00011576,0.00091216,-0.00016372,-0.00064627,-0.00484172,-0.0008
 8913,0.04688347,-0.11948052,-0.02488398,-0.01646718,0.59208228,-0.0019
 0919,0.00190631,-0.00635688,0.00165104,-0.01013158,0.00198671,0.001273
 44,0.00211083,0.00019823,-0.00015110,0.00014588,-0.00022116,0.00436547
 ,0.00097093,0.01016983,0.04780503,-0.02052931,-0.09599305,-0.00910476,
 -0.02813850,0.53459892,0.00385822,0.00037140,0.00404706,0.00353201,0.0
 0146940,0.00111937,-0.00084801,-0.00052011,0.00030057,0.00046074,0.000
 22453,0.00002555,-0.00073932,-0.00016597,-0.00358712,-0.21211412,-0.11
 338694,0.09021624,-0.01092531,-0.01173522,0.00687221,0.22015055,0.0020
 1374,-0.00471567,-0.00237611,-0.02721755,-0.01314995,0.01432498,0.0001
 0630,0.00003560,0.00016132,-0.00137574,-0.00087630,0.00079376,0.000436
 63,0.00112969,0.00009757,-0.11045028,-0.13478718,0.05448827,0.01229695
 ,0.00942379,-0.00563249,0.12114336,0.14267448,0.00472372,-0.00002125,0
 .00966432,-0.00034844,-0.00219715,0.00519090,-0.00176040,-0.00127533,0
 .00058280,0.00085411,0.00028032,-0.00010895,-0.00360371,0.00042659,-0.
 00550376,0.09123956,0.05721013,-0.08038711,0.00885386,0.00754091,0.000
 14361,-0.10000161,-0.06021369,0.07316235,-0.00087417,0.00014383,-0.000
 22364,-0.00455180,0.00145892,0.00307481,0.00016640,-0.00008424,-0.0000
 7322,0.00016446,0.00000977,-0.00000626,0.00047102,0.00137500,0.0009081
 6,0.00105268,0.02823761,-0.00749362,-0.04914746,-0.00520330,0.00171465
 ,0.00106940,-0.00047850,-0.00056068,0.05506481,-0.00017331,0.00089064,
 -0.00010426,0.00329916,0.00028681,-0.00113812,0.00000051,0.00007252,0.
 00010269,-0.00000329,-0.00004615,-0.00002749,-0.00020559,-0.00078977,-
 0.00026316,-0.00154609,-0.01393323,0.00322996,-0.00317605,-0.29823693,
 0.05563411,0.00002912,0.00119393,-0.00047531,0.00422797,0.32360274,-0.
 00023756,0.00021212,-0.00028241,0.00266184,-0.00006378,-0.00053263,0.0
 0001910,-0.00034875,0.00022065,0.00000381,0.00001508,0.00014912,0.0000
 3442,-0.00074863,-0.00007297,-0.00001507,-0.01716144,0.00197539,0.0010
 7517,0.05812654,-0.06227307,-0.00059825,0.00041358,0.00067028,-0.00186
 873,-0.05996240,0.06513050,0.00143018,-0.00057101,0.00120729,-0.001085
 33,-0.00156819,0.00088987,0.00018933,0.00007045,-0.00029121,0.00015064
 ,0.00002081,-0.00004222,-0.00088512,0.00007224,-0.00174717,-0.00150258
 ,0.00105358,0.02726093,-0.04289379,0.00044611,-0.00811546,-0.00188495,
 0.00081570,0.00038604,-0.00012506,-0.00008078,0.00088738,0.05396378,0.
 00076258,0.00086172,-0.00196723,0.00106218,-0.00144429,-0.00065343,0.0
 0007457,0.00014070,0.00092162,0.00009496,0.00006129,0.00033678,0.00048
 616,-0.00006772,0.00119871,-0.00048089,0.00049893,-0.01646533,0.001695
 51,-0.05215552,0.02150130,0.00042448,-0.00020686,-0.00053702,0.0015634
 4,-0.00249401,0.03345462,-0.00219013,0.05252969,-0.00053203,-0.0003305
 1,0.00024263,0.00184438,0.00258951,0.00083321,-0.00021871,-0.00097093,
 -0.00017945,-0.00007847,-0.00009748,0.00022911,0.00028043,-0.00022264,
 0.00054783,0.00455268,-0.00291679,-0.01208706,-0.01314916,0.02422764,-
 0.29068763,0.00042282,-0.00099313,-0.00123229,-0.00042886,0.00175205,-
 0.00747026,0.01253699,-0.02278587,0.31901428,-0.14300036,0.03153441,-0
 .02388600,-0.03103622,0.00348884,0.00200027,-0.01003967,0.00403813,-0.
 00180927,0.00017881,-0.00013868,-0.00094957,-0.00189258,-0.00168906,-0
 .00101966,0.00168065,0.00363809,0.00252276,0.00353390,-0.02729278,0.00
 325767,0.00039957,0.00056832,0.00018229,-0.00488142,-0.00192885,-0.002
 27151,0.00064810,0.00027623,-0.00038684,0.49319628,0.02206206,-0.09327
 493,0.00740340,-0.00715713,0.01351500,-0.00834032,-0.00014943,-0.00005
 615,-0.00000967,0.02909044,-0.01133518,0.00928148,-0.00160711,-0.00125
 862,0.00242948,0.00108246,-0.00396275,-0.00104105,-0.01183973,-0.01617
 643,-0.00183695,0.00120618,-0.00032184,0.00098818,-0.00041776,0.000828
 26,-0.00064245,0.00170495,0.00065247,0.00049595,0.05016040,0.45606263,
 -0.01684095,0.00919850,-0.07882424,0.01399057,-0.00784985,0.00243879,-
 0.03023714,0.01408932,-0.00621717,0.00683147,-0.00300208,0.00134514,0.
 00266523,0.00193457,-0.00170267,0.00075557,0.00107169,0.00104930,0.002
 84561,-0.01249729,0.00157173,-0.00040895,0.00009990,-0.00069643,-0.002
 60804,-0.00111150,0.00012742,-0.00001832,-0.00044283,0.00007286,-0.020
 47452,0.01677141,0.58879903,0.00467654,0.02851147,-0.00103283,0.001105
 77,-0.00373304,0.00169625,-0.00021730,0.00042700,-0.00042033,-0.005176
 03,0.00229426,-0.00191648,0.00058791,-0.00055128,0.00043385,-0.0359099
 2,-0.00263394,-0.00221761,-0.14174188,-0.03106409,-0.03185804,-0.00204
 723,0.00170708,-0.00043054,-0.00009598,-0.00001709,-0.00041694,-0.0046
 0886,-0.00226210,-0.00237361,-0.07974653,0.00049674,-0.00146324,0.5149
 0053,0.01236131,-0.01521576,0.00014272,0.00006837,-0.00440265,0.000651
 49,-0.00187573,0.00076406,-0.00040079,0.00052448,0.00057991,0.00092486
 ,-0.00122000,-0.00022371,-0.00102985,0.00697881,0.01160691,0.00963469,
 -0.02365851,-0.09423698,-0.01074008,0.00149791,-0.00094561,-0.00226311
 ,-0.02980239,-0.01139195,-0.01236929,0.00284078,0.00108240,0.00056000,
 -0.00720283,-0.16767651,0.00619894,-0.05279867,0.45923893,0.00346563,0
 .00475714,-0.00081297,0.00131230,-0.00231678,0.00167256,-0.00062046,0.
 00021154,-0.00019943,-0.00016360,-0.00021310,0.00040012,-0.00036040,-0
 .00003747,-0.00074927,0.01128616,0.00690792,0.00431507,-0.02933162,-0.
 01252701,-0.08763036,0.00229591,-0.00157048,-0.00193843,0.00666753,0.0
 0270060,0.00171509,-0.03160959,-0.01410665,-0.01102746,0.00110634,0.01
 339083,-0.07985748,-0.04001698,-0.00590047,0.57670319,-0.02200420,-0.0
 0796280,0.02020915,-0.00379352,0.00428378,-0.00126644,0.00135168,-0.00
 098678,-0.00006362,-0.00019964,0.00053570,0.00002799,-0.00121337,-0.00
 083890,0.00040809,0.00011213,0.00023988,0.00018124,-0.00039814,-0.0001
 4317,-0.00022274,0.00020428,-0.00015161,0.00020642,-0.00010888,-0.0001
 3914,-0.00011756,0.00015657,-0.00015218,-0.00023990,-0.15167340,-0.045
 31702,0.11713680,-0.00030801,0.00215113,-0.00010159,0.16739638,0.00942
 681,0.00441624,-0.00893171,0.00146603,-0.00133443,0.00074170,-0.000316
 18,0.00103101,-0.00018951,-0.00051687,-0.00021971,-0.00012932,0.000477
 57,0.00035892,-0.00027879,0.00073259,-0.00014324,-0.00016132,0.0006332
 2,-0.00203418,0.00125104,-0.00005840,0.00010180,-0.00002651,-0.0007439
 5,-0.00029976,-0.00053369,-0.00018482,0.00014697,-0.00036255,-0.044664
 25,-0.06658622,0.04660918,-0.01841125,-0.01048809,0.02436794,0.0440064
 5,0.07498479,-0.00819878,-0.00216778,0.00491736,-0.00139903,0.00117289
 ,0.00081000,-0.00022631,-0.00031049,0.00178214,0.00042310,0.00000978,-
 0.00007429,-0.00032124,-0.00025166,0.00039547,0.00009412,-0.00036814,-
 0.00006326,-0.00028073,0.00007695,0.00012561,0.00001057,-0.00002363,-0
 .00006533,0.00012381,-0.00001885,-0.00009091,0.00013035,0.00008475,-0.
 00013710,0.11850010,0.04705759,-0.18479534,-0.00071856,-0.00017600,-0.
 00079664,-0.12715820,-0.05362315,0.19677098,-0.01254000,-0.00887086,-0
 .02724383,0.00150410,0.00147406,-0.00105381,-0.00503334,0.00198189,-0.
 00112198,0.00168684,-0.00025920,0.00033301,-0.00007043,-0.00002111,0.0
 0016140,0.00038216,-0.00088499,0.00027473,-0.00071778,-0.00072600,0.00
 037929,-0.00002330,-0.00005882,-0.00003529,-0.00022585,-0.00016569,-0.
 00008987,0.00018086,0.00013504,0.00013334,-0.07864620,-0.03535756,-0.0
 7189713,0.00036870,-0.00039583,-0.00148951,0.00853684,0.00924172,0.019
 50746,0.08369642,0.00685751,0.00313673,0.01313655,-0.00080211,-0.00032
 957,0.00057451,0.00341432,-0.00036962,0.00095054,0.00003635,0.00112485
 ,0.00060880,-0.00004208,0.00008943,-0.00006339,0.00073995,0.00002258,-
 0.00028841,0.00185456,-0.00484584,0.00085095,-0.00011902,0.00008662,0.
 00005276,-0.00141845,-0.00064142,-0.00040989,0.00013690,0.00014998,-0.
 00009567,-0.03558510,-0.08400504,-0.08760353,-0.01188907,-0.01581263,-
 0.02575440,0.00351155,0.00363447,0.00731583,0.03385413,0.09902062,-0.0
 0226970,-0.00065514,-0.00516583,0.00040820,0.00020395,0.00025638,-0.00
 151780,0.00073021,0.00114338,-0.00009841,0.00069522,0.00095263,-0.0001
 6747,-0.00006036,0.00003387,-0.00010592,-0.00027386,-0.00007509,0.0000
 1031,0.00070226,0.00056298,-0.00001774,-0.00002265,0.00002197,0.000025
 87,0.00009205,0.00005539,0.00027568,0.00018442,0.00015024,-0.07333407,
 -0.08806948,-0.24383240,0.00263712,0.00441292,0.00322533,-0.00798377,-
 0.00925261,-0.02138348,0.08225247,0.09095720,0.26140545,-0.00017978,0.
 00040488,0.00018468,0.00041376,0.00060758,0.00057827,0.00009000,-0.000
 17724,0.00009622,-0.00013018,0.00008397,0.00000849,-0.00004339,0.00005
 643,-0.00005250,0.00188968,-0.00116420,-0.00148460,-0.00687545,0.00526
 712,-0.03056175,0.00001017,-0.00006501,-0.00000538,0.00140535,0.000332
 38,0.00062459,-0.00521107,-0.00226933,-0.00214724,-0.00048549,-0.00160
 193,0.00016238,-0.05232016,0.00946043,-0.01972833,0.00027711,-0.000831
 69,-0.00003228,0.00121735,-0.00051059,0.00026061,0.05639122,-0.0013171
 2,-0.00191542,0.00013581,-0.00034062,-0.00014540,0.00004016,0.00010482
 ,0.00002922,0.00004324,0.00055443,-0.00029411,0.00013157,0.00010687,0.
 00009649,-0.00010891,0.00100990,0.00010395,-0.00001613,-0.00313146,0.0
 0227105,-0.01458838,0.00007708,0.00004750,0.00013527,0.00054938,0.0006
 3355,-0.00039343,-0.00328676,-0.00022551,-0.00109504,0.00115091,-0.012
 42313,0.03015713,0.00889867,-0.06272086,0.06169196,0.00054449,-0.00492
 983,0.00086947,0.00012693,0.00106295,0.00049858,-0.00292849,0.07508500
 ,-0.00015192,0.00007703,0.00051266,0.00027470,0.00094771,0.00008597,0.
 00017876,-0.00016862,0.00004407,-0.00017287,0.00010569,-0.00003721,-0.
 00012546,0.00004759,-0.00008205,0.00134315,-0.00089303,0.00094018,-0.0
 0290472,0.00126961,-0.01195130,-0.00022563,0.00009271,0.00007373,0.000
 07686,-0.00060369,0.00061118,-0.00228678,-0.00134790,0.00074212,0.0007
 9427,-0.00149646,-0.00115895,-0.02116188,0.06261734,-0.28933822,-0.000
 46209,0.00049560,0.00098432,0.00001461,-0.00011492,0.00229178,0.026062
 96,-0.06444937,0.31227774,-0.00037583,-0.00005280,-0.00028382,-0.00012
 496,-0.00036829,0.00018679,0.00030896,0.00004812,-0.00009076,-0.000044
 29,0.00005731,-0.00001420,0.00024778,0.00013015,0.00029725,-0.00377218
 ,-0.00349645,-0.00248428,-0.02249049,0.01153749,0.01460423,-0.00110271
 ,0.00070942,0.00030004,0.00061651,-0.00045323,0.00030915,0.00147729,0.
 00077948,-0.00021583,0.00176454,-0.00235555,-0.00043933,-0.19946756,0.
 08107073,0.09728819,0.00166417,-0.00025698,-0.00045438,-0.00031637,-0.
 00003885,-0.00037540,0.00355088,-0.00211905,-0.00125394,0.21806426,-0.
 00151432,-0.00468424,-0.00150285,-0.00109968,-0.00005560,0.00029943,0.
 00010437,0.00013441,0.00011546,0.00154064,-0.00064489,0.00051413,0.000
 14754,0.00013163,0.00007962,-0.00188878,-0.00084871,-0.00143002,-0.011
 29547,0.00590389,0.00722596,-0.00045779,0.00031000,0.00037522,0.000582
 70,0.00032477,0.00041180,0.00072017,0.00046977,0.00024547,0.02364623,-
 0.01398160,-0.01362360,0.08102529,-0.09015746,-0.05160156,0.00041861,0
 .00136124,0.00035244,-0.00007371,-0.00232411,-0.00014271,-0.00666429,0
 .00332455,0.00342069,-0.08519152,0.10073635,-0.00065204,0.00122779,-0.
 00007696,0.00040346,0.00068258,0.00019965,0.00005937,0.00000960,-0.000
 07218,-0.00022127,0.00017698,-0.00009600,0.00003809,0.00002835,0.00003
 304,-0.00158975,-0.00230982,0.00021039,-0.01178346,0.00553702,0.005755
 81,-0.00047101,0.00036006,0.00042235,0.00067136,0.00019331,0.00006723,
 0.00053621,0.00062407,0.00098899,-0.00423227,0.00361807,0.00168042,0.0
 9925980,-0.05226341,-0.11568111,-0.00055379,0.00002369,0.00162048,-0.0
 0012487,-0.00011693,0.00035740,0.02603387,-0.01305188,-0.01599601,-0.1
 0737372,0.05526051,0.12058650\\-0.00000715,0.00109873,-0.00003973,-0.0
 0105791,-0.00143782,0.00008794,0.00041262,-0.00000863,0.00098756,0.000
 02922,-0.00064883,-0.00036573,0.00032114,-0.00018804,-0.00020723,0.000
 51794,0.00167120,-0.00011934,0.00025685,0.00010874,-0.00009669,-0.0000
 8111,0.00004756,0.00024978,-0.00002105,-0.00033618,-0.00004383,-0.0000
 3307,-0.00000024,-0.00028957,0.00037852,-0.00045573,-0.00108219,0.0001
 5546,-0.00018290,0.00059220,-0.00066223,-0.00051641,0.00111601,-0.0000
 6865,-0.00007206,-0.00033731,0.00031002,0.00065860,-0.00071819,-0.0004
 5061,0.00026202,0.00026633\\\@


 THE SOLUTION TO A PROBLEM CHANGES THE PROBLEM.

                                 -- JOHN PEERS
           PAUL DICKSON'S "THE OFFICIAL RULES"
 Job cpu time:       0 days  0 hours 26 minutes 15.5 seconds.
 Elapsed time:       0 days  0 hours  6 minutes 55.3 seconds.
 File lengths (MBytes):  RWF=     22 Int=      0 D2E=      0 Chk=      2 Scr=      2
 Normal termination of Gaussian 16 at Thu Jun 13 17:52:47 2024.
