 Entering Gaussian System, Link 0=/mlatom/software/Gaussian/g16-avx2/g16
 Input=gaussian.com
 Output=gaussian.log
 Initial command:
 /mlatom/software/Gaussian/g16-avx2/l1.exe "/mlatom/home/qhzhang/git/ts-analysis/calculations/C60/energy_barrier/da/da_pro_ub3lypd4_recalculate/Gau-281529.inp" -scrdir="/mlatom/home/qhzhang/git/ts-analysis/calculations/C60/energy_barrier/da/da_pro_ub3lypd4_recalculate/"
 Entering Link 1 = /mlatom/software/Gaussian/g16-avx2/l1.exe PID=    281530.
  
 Copyright (c) 1988,1990,1992,1993,1995,1998,2003,2009,2016,
            Gaussian, Inc.  All Rights Reserved.
  
 This is part of the Gaussian(R) 16 program.  It is based on
 the Gaussian(R) 09 system (copyright 2009, Gaussian, Inc.),
 the Gaussian(R) 03 system (copyright 2003, Gaussian, Inc.),
 the Gaussian(R) 98 system (copyright 1998, Gaussian, Inc.),
 the Gaussian(R) 94 system (copyright 1995, Gaussian, Inc.),
 the Gaussian 92(TM) system (copyright 1992, Gaussian, Inc.),
 the Gaussian 90(TM) system (copyright 1990, Gaussian, Inc.),
 the Gaussian 88(TM) system (copyright 1988, Gaussian, Inc.),
 the Gaussian 86(TM) system (copyright 1986, Carnegie Mellon
 University), and the Gaussian 82(TM) system (copyright 1983,
 Carnegie Mellon University). Gaussian is a federally registered
 trademark of Gaussian, Inc.
  
 This software contains proprietary and confidential information,
 including trade secrets, belonging to Gaussian, Inc.
  
 This software is provided under written license and may be
 used, copied, transmitted, or stored only in accord with that
 written license.
  
 The following legend is applicable only to US Government
 contracts under FAR:
  
                    RESTRICTED RIGHTS LEGEND
  
 Use, reproduction and disclosure by the US Government is
 subject to restrictions as set forth in subparagraphs (a)
 and (c) of the Commercial Computer Software - Restricted
 Rights clause in FAR 52.227-19.
  
 Gaussian, Inc.
 340 Quinnipiac St., Bldg. 40, Wallingford CT 06492
  
  
 ---------------------------------------------------------------
 Warning -- This program may not be used in any manner that
 competes with the business of Gaussian, Inc. or will provide
 assistance to any competitor of Gaussian, Inc.  The licensee
 of this program is prohibited from giving any competitor of
 Gaussian, Inc. access to this program.  By using this program,
 the user acknowledges that Gaussian, Inc. is engaged in the
 business of creating and licensing software in the field of
 computational chemistry and represents and warrants to the
 licensee that it is not a competitor of Gaussian, Inc. and that
 it will not use this program in any manner prohibited above.
 ---------------------------------------------------------------
  

 Cite this work as:
 Gaussian 16, Revision A.03,
 M. J. Frisch, G. W. Trucks, H. B. Schlegel, G. E. Scuseria, 
 M. A. Robb, J. R. Cheeseman, G. Scalmani, V. Barone, 
 G. A. Petersson, H. Nakatsuji, X. Li, M. Caricato, A. V. Marenich, 
 J. Bloino, B. G. Janesko, R. Gomperts, B. Mennucci, H. P. Hratchian, 
 J. V. Ortiz, A. F. Izmaylov, J. L. Sonnenberg, D. Williams-Young, 
 F. Ding, F. Lipparini, F. Egidi, J. Goings, B. Peng, A. Petrone, 
 T. Henderson, D. Ranasinghe, V. G. Zakrzewski, J. Gao, N. Rega, 
 G. Zheng, W. Liang, M. Hada, M. Ehara, K. Toyota, R. Fukuda, 
 J. Hasegawa, M. Ishida, T. Nakajima, Y. Honda, O. Kitao, H. Nakai, 
 T. Vreven, K. Throssell, J. A. Montgomery, Jr., J. E. Peralta, 
 F. Ogliaro, M. J. Bearpark, J. J. Heyd, E. N. Brothers, K. N. Kudin, 
 V. N. Staroverov, T. A. Keith, R. Kobayashi, J. Normand, 
 K. Raghavachari, A. P. Rendell, J. C. Burant, S. S. Iyengar, 
 J. Tomasi, M. Cossi, J. M. Millam, M. Klene, C. Adamo, R. Cammi, 
 J. W. Ochterski, R. L. Martin, K. Morokuma, O. Farkas, 
 J. B. Foresman, and D. J. Fox, Gaussian, Inc., Wallingford CT, 2016.
 
 ******************************************
 Gaussian 16:  ES64L-G16RevA.03 25-Dec-2016
                26-Apr-2024 
 ******************************************
 %nproc=1
 Will use up to    1 processors via shared memory.
 ----------------------------------------------------------------------
 #p freq external='/mlatom/software/miniconda3/bin/python /mlatom/softw
 are/mlatom/mlatom/interfaces/gaussian_interface.py model_predict_kwarg
 s'
 ----------------------------------------------------------------------
 1/10=4,18=10,30=1,38=1/1,3;
 2/12=2,17=6,18=5,40=1/2;
 3/11=9,25=1,30=1,41=9900000,43=2,71=2,140=1/1;
 4/20=17,22=2,24=3,113=1,114=1/2;
 6/7=2,8=2,9=2,10=2/1;
 7/8=1,25=1,44=-1/16;
 1/10=4,18=10,30=1/3;
 99//99;
 Leave Link    1 at Fri Apr 26 11:28:31 2024, MaxMem=           0 cpu:               0.0 elap:               0.3
 (Enter /mlatom/software/Gaussian/g16-avx2/l101.exe)
 ------------------------------------
 eba597fe-30b9-4ca5-8a5a-6f0ba0b1a3f4
 ------------------------------------
 Symbolic Z-matrix:
 Charge =  0 Multiplicity = 1
 C                     1.49706   0.04667  -0.11127 
 C                     0.66574   1.30442  -0.05757 
 H                     2.38634   0.16297   0.52353 
 H                     1.88315  -0.0941   -1.13359 
 H                     1.19926   2.25261  -0.1137 
 C                    -0.66574   1.30442   0.05757 
 C                    -1.49706   0.04667   0.11128 
 H                    -1.19927   2.2526    0.11369 
 H                    -2.38635   0.16296  -0.52352 
 H                    -1.88314  -0.09411   1.13359 
 C                     0.69586  -1.18997   0.32176 
 C                    -0.69586  -1.18997  -0.32177 
 H                     0.58509  -1.18312   1.41503 
 H                     1.24264  -2.10509   0.06427 
 H                    -0.58509  -1.18312  -1.41504 
 H                    -1.24263  -2.10509  -0.06428 
 
 ITRead=  0  0  0  0  0  0  0  0  0  0  0  0  0  0  0  0
 MicOpt= -1 -1 -1 -1 -1 -1 -1 -1 -1 -1 -1 -1 -1 -1 -1 -1
 NAtoms=     16 NQM=       16 NQMF=       0 NMMI=      0 NMMIF=      0
                NMic=       0 NMicF=      0.
                    Isotopes and Nuclear Properties:
 (Nuclear quadrupole moments (NQMom) in fm**2, nuclear magnetic moments (NMagM)
  in nuclear magnetons)

  Atom         1           2           3           4           5           6           7           8           9          10
 IAtWgt=          12          12           1           1           1          12          12           1           1           1
 AtmWgt=  12.0000000  12.0000000   1.0078250   1.0078250   1.0078250  12.0000000  12.0000000   1.0078250   1.0078250   1.0078250
 NucSpn=           0           0           1           1           1           0           0           1           1           1
 AtZEff=  -0.0000000  -0.0000000  -0.0000000  -0.0000000  -0.0000000  -0.0000000  -0.0000000  -0.0000000  -0.0000000  -0.0000000
 NQMom=    0.0000000   0.0000000   0.0000000   0.0000000   0.0000000   0.0000000   0.0000000   0.0000000   0.0000000   0.0000000
 NMagM=    0.0000000   0.0000000   2.7928460   2.7928460   2.7928460   0.0000000   0.0000000   2.7928460   2.7928460   2.7928460
 AtZNuc=   6.0000000   6.0000000   1.0000000   1.0000000   1.0000000   6.0000000   6.0000000   1.0000000   1.0000000   1.0000000

  Atom        11          12          13          14          15          16
 IAtWgt=          12          12           1           1           1           1
 AtmWgt=  12.0000000  12.0000000   1.0078250   1.0078250   1.0078250   1.0078250
 NucSpn=           0           0           1           1           1           1
 AtZEff=  -0.0000000  -0.0000000  -0.0000000  -0.0000000  -0.0000000  -0.0000000
 NQMom=    0.0000000   0.0000000   0.0000000   0.0000000   0.0000000   0.0000000
 NMagM=    0.0000000   0.0000000   2.7928460   2.7928460   2.7928460   2.7928460
 AtZNuc=   6.0000000   6.0000000   1.0000000   1.0000000   1.0000000   1.0000000
 Leave Link  101 at Fri Apr 26 11:28:37 2024, MaxMem=   104857600 cpu:               0.2 elap:               0.7
 (Enter /mlatom/software/Gaussian/g16-avx2/l103.exe)

 GradGradGradGradGradGradGradGradGradGradGradGradGradGradGradGradGradGrad
 Berny optimization.
 Initialization pass.
 Trust Radius=3.00D-01 FncErr=1.00D-07 GrdErr=1.00D-07 EigMax=2.50D+02 EigMin=1.00D-04
 Number of steps in this run=      2 maximum allowed number of steps=      2.
 GradGradGradGradGradGradGradGradGradGradGradGradGradGradGradGradGradGrad

 Leave Link  103 at Fri Apr 26 11:28:38 2024, MaxMem=   104857600 cpu:               0.1 elap:               0.1
 (Enter /mlatom/software/Gaussian/g16-avx2/l202.exe)
                          Input orientation:                          
 ---------------------------------------------------------------------
 Center     Atomic      Atomic             Coordinates (Angstroms)
 Number     Number       Type             X           Y           Z
 ---------------------------------------------------------------------
      1          6           0        1.497061    0.046671   -0.111273
      2          6           0        0.665736    1.304425   -0.057569
      3          1           0        2.386344    0.162970    0.523529
      4          1           0        1.883146   -0.094103   -1.133589
      5          1           0        1.199265    2.252605   -0.113697
      6          6           0       -0.665742    1.304423    0.057567
      7          6           0       -1.497061    0.046666    0.111276
      8          1           0       -1.199273    2.252602    0.113693
      9          1           0       -2.386348    0.162960   -0.523521
     10          1           0       -1.883139   -0.094112    1.133594
     11          6           0        0.695863   -1.189967    0.321765
     12          6           0       -0.695858   -1.189968   -0.321767
     13          1           0        0.585090   -1.183121    1.415034
     14          1           0        1.242641   -2.105087    0.064270
     15          1           0       -0.585086   -1.183117   -1.415036
     16          1           0       -1.242633   -2.105092   -0.064276
 ---------------------------------------------------------------------
                    Distance matrix (angstroms):
                    1          2          3          4          5
     1  C    0.000000
     2  C    1.508619   0.000000
     3  H    1.098782   2.145014   0.000000
     4  H    1.101821   2.143779   1.750810   0.000000
     5  H    2.225946   1.089426   2.486320   2.648568   0.000000
     6  C    2.507621   1.336446   3.291695   3.141903   2.099198
     7  C    3.002382   2.507620   3.906957   3.604901   3.490982
     8  H    3.490983   2.099197   4.170273   4.069895   2.409293
     9  H    3.906960   3.291697   4.886194   4.320514   4.170275
    10  H    3.604895   3.141901   4.320504   4.396024   4.069894
    11  C    1.535811   2.523250   2.174598   2.174538   3.506329
    12  C    2.526357   2.854074   3.470582   2.917403   3.935238
    13  H    2.161873   2.891876   2.418937   3.060456   3.810308
    14  H    2.173847   3.460121   2.581290   2.426762   4.361541
    15  H    2.747274   3.097602   3.794651   2.712441   4.084309
    16  H    3.483995   3.907265   4.319617   3.867558   4.995481
                    6          7          8          9         10
     6  C    0.000000
     7  C    1.508619   0.000000
     8  H    1.089426   2.225947   0.000000
     9  H    2.145014   1.098782   2.486321   0.000000
    10  H    2.143780   1.101821   2.648573   1.750810   0.000000
    11  C    2.854075   2.526357   3.935240   3.470582   2.917399
    12  C    2.523249   1.535811   3.506329   2.174597   2.174538
    13  H    3.097607   2.747273   4.084315   3.794650   2.712435
    14  H    3.907266   3.483995   4.995482   4.319618   3.867554
    15  H    2.891871   2.161872   3.810302   2.418939   3.060456
    16  H    3.460121   2.173847   4.361542   2.581288   2.426763
                   11         12         13         14         15
    11  C    0.000000
    12  C    1.533303   0.000000
    13  H    1.098888   2.158090   0.000000
    14  H    1.096684   2.178129   1.762656   0.000000
    15  H    2.158090   1.098888   3.062451   2.525661   0.000000
    16  H    2.178129   1.096684   2.525660   2.488597   1.762657
                   16
    16  H    0.000000
 Stoichiometry    C6H10
 Framework group  C1[X(C6H10)]
 Deg. of freedom    42
 Full point group                 C1      NOp   1
 Largest Abelian subgroup         C1      NOp   1
 Largest concise Abelian subgroup C1      NOp   1
                         Standard orientation:                         
 ---------------------------------------------------------------------
 Center     Atomic      Atomic             Coordinates (Angstroms)
 Number     Number       Type             X           Y           Z
 ---------------------------------------------------------------------
      1          6           0        1.497061    0.046671   -0.111273
      2          6           0        0.665736    1.304425   -0.057569
      3          1           0        2.386344    0.162970    0.523529
      4          1           0        1.883146   -0.094103   -1.133589
      5          1           0        1.199265    2.252605   -0.113697
      6          6           0       -0.665742    1.304423    0.057567
      7          6           0       -1.497061    0.046666    0.111276
      8          1           0       -1.199273    2.252602    0.113693
      9          1           0       -2.386348    0.162960   -0.523521
     10          1           0       -1.883139   -0.094112    1.133594
     11          6           0        0.695863   -1.189967    0.321765
     12          6           0       -0.695858   -1.189968   -0.321767
     13          1           0        0.585090   -1.183121    1.415034
     14          1           0        1.242641   -2.105087    0.064270
     15          1           0       -0.585086   -1.183117   -1.415036
     16          1           0       -1.242633   -2.105092   -0.064276
 ---------------------------------------------------------------------
 Rotational constants (GHZ):           4.7251437           4.5346106           2.5491147
 Leave Link  202 at Fri Apr 26 11:28:40 2024, MaxMem=   104857600 cpu:               0.1 elap:               0.8
 (Enter /mlatom/software/Gaussian/g16-avx2/l301.exe)
 Standard basis: STO-3G (5D, 7F)
 Ernie: Thresh=  0.10000D-02 Tol=  0.10000D-05 Strict=F.
 There are    40 symmetry adapted cartesian basis functions of A   symmetry.
 There are    40 symmetry adapted basis functions of A   symmetry.
    40 basis functions,   120 primitive gaussians,    40 cartesian basis functions
    23 alpha electrons       23 beta electrons
       nuclear repulsion energy       236.3877959956 Hartrees.
 IExCor=    0 DFT=F Ex=HF Corr=None ExCW=0 ScaHFX=  1.000000
 ScaDFX=  1.000000  1.000000  1.000000  1.000000 ScalE2=  1.000000  1.000000
 IRadAn=      5 IRanWt=     -1 IRanGd=            0 ICorTp=0 IEmpDi=  4
 NAtoms=   16 NActive=   16 NUniq=   16 SFac= 1.00D+00 NAtFMM=   60 NAOKFM=F Big=F
 Integral buffers will be    131072 words long.
 Raffenetti 1 integral format.
 Two-electron integral symmetry is turned on.
 Leave Link  301 at Fri Apr 26 11:28:42 2024, MaxMem=   104857600 cpu:               0.2 elap:               1.0
 (Enter /mlatom/software/Gaussian/g16-avx2/l402.exe)
 External calculation of energy, first and second derivatives.
 Running external command "/mlatom/software/miniconda3/bin/python /mlatom/software/mlatom/mlatom/interfaces/gaussian_interface.py model_predict_kwargs R"
         input file       "/mlatom/home/qhzhang/git/ts-analysis/calculations/C60/energy_barrier/da/da_pro_ub3lypd4_recalculate/Gau-281530.EIn"
         output file      "/mlatom/home/qhzhang/git/ts-analysis/calculations/C60/energy_barrier/da/da_pro_ub3lypd4_recalculate/Gau-281530.EOu"
         message file     "/mlatom/home/qhzhang/git/ts-analysis/calculations/C60/energy_barrier/da/da_pro_ub3lypd4_recalculate/Gau-281530.EMs"
         fchk file        "/mlatom/home/qhzhang/git/ts-analysis/calculations/C60/energy_barrier/da/da_pro_ub3lypd4_recalculate/Gau-281530.EFC"
         mat. el file     "/mlatom/home/qhzhang/git/ts-analysis/calculations/C60/energy_barrier/da/da_pro_ub3lypd4_recalculate/Gau-281530.EUF"
 Recovered energy= -234.669381205     dipole=      0.000000000000     -0.225900000000      0.000000000000
 Energy=    -234.669381     NIter=   0.
 Dipole moment=       0.000000      -0.225900       0.000000
 Leave Link  402 at Fri Apr 26 11:29:23 2024, MaxMem=   104857600 cpu:               0.1 elap:              40.8
 (Enter /mlatom/software/Gaussian/g16-avx2/l601.exe)
 Leave Link  601 at Fri Apr 26 11:29:24 2024, MaxMem=   104857600 cpu:               0.1 elap:               0.7
 (Enter /mlatom/software/Gaussian/g16-avx2/l716.exe)
 Dipole        = 0.00000000D+00-2.25900000D-01 0.00000000D+00
 Full mass-weighted force constant matrix:
 Low frequencies ---   -8.8221   -6.1382   -0.1992   -0.1031    0.2171   11.8955
 Low frequencies ---  167.0696  279.9281  398.2399
 Diagonal vibrational polarizability:
        0.0000000       0.0000000       0.0000000
 Harmonic frequencies (cm**-1), IR intensities (KM/Mole), Raman scattering
 activities (A**4/AMU), depolarization ratios for plane and unpolarized
 incident light, reduced masses (AMU), force constants (mDyne/A),
 and normal coordinates:
                      1                      2                      3
                      A                      A                      A
 Frequencies --    167.0682               279.9281               398.2399
 Red. masses --      1.7620                 1.8416                 1.9338
 Frc consts  --      0.0290                 0.0850                 0.1807
 IR Inten    --      0.0000                 0.0000                 0.0000
  Atom  AN      X      Y      Z        X      Y      Z        X      Y      Z
     1   6     0.02   0.01   0.14     0.01   0.04   0.05    -0.06  -0.02  -0.04
     2   6    -0.02  -0.01  -0.09     0.01   0.03   0.09     0.01   0.03   0.18
     3   1    -0.14   0.05   0.37    -0.03  -0.01   0.12     0.15  -0.14  -0.32
     4   1     0.30   0.04   0.24     0.09   0.19   0.06    -0.41   0.03  -0.18
     5   1    -0.03  -0.01  -0.27     0.01   0.03   0.16     0.05   0.02   0.30
     6   6    -0.02   0.01  -0.09    -0.01   0.03  -0.09    -0.01   0.03  -0.18
     7   6     0.02  -0.01   0.14    -0.01   0.04  -0.05     0.06  -0.02   0.04
     8   1    -0.03   0.01  -0.27    -0.01   0.03  -0.16    -0.05   0.02  -0.30
     9   1    -0.14  -0.05   0.37     0.03  -0.01  -0.12    -0.15  -0.14   0.32
    10   1     0.30  -0.04   0.24    -0.09   0.19  -0.06     0.41   0.03   0.18
    11   6    -0.01  -0.05  -0.06     0.06  -0.06  -0.13    -0.02  -0.01   0.03
    12   6    -0.01   0.05  -0.06    -0.06  -0.06   0.13     0.02  -0.01  -0.03
    13   1    -0.04  -0.22  -0.06     0.26  -0.33  -0.11    -0.06   0.05   0.03
    14   1    -0.01  -0.01  -0.18     0.04   0.01  -0.43     0.01  -0.01   0.10
    15   1    -0.04   0.22  -0.06    -0.26  -0.33   0.11     0.06   0.05  -0.03
    16   1    -0.01   0.01  -0.18    -0.04   0.01   0.43    -0.01  -0.01  -0.10
                      4                      5                      6
                      A                      A                      A
 Frequencies --    458.0901               502.4157               656.6547
 Red. masses --      2.2928                 4.3683                 1.3299
 Frc consts  --      0.2835                 0.6497                 0.3379
 IR Inten    --      0.0000                 0.0000                 0.0000
  Atom  AN      X      Y      Z        X      Y      Z        X      Y      Z
     1   6     0.04   0.08   0.00     0.26  -0.01  -0.04     0.02  -0.04  -0.04
     2   6     0.09   0.08   0.01     0.02  -0.19   0.11    -0.07  -0.06  -0.04
     3   1    -0.07  -0.06   0.19     0.25  -0.04  -0.02    -0.15   0.11   0.18
     4   1     0.22   0.09   0.07     0.22   0.10  -0.07     0.29  -0.06   0.07
     5   1     0.03   0.12   0.09    -0.15  -0.09   0.22     0.02  -0.08   0.53
     6   6     0.09  -0.08   0.01    -0.02  -0.19  -0.11    -0.07   0.06  -0.04
     7   6     0.04  -0.08   0.00    -0.26  -0.01   0.04     0.02   0.04  -0.04
     8   1     0.03  -0.12   0.09     0.15  -0.09  -0.22     0.02   0.08   0.53
     9   1    -0.07   0.06   0.19    -0.25  -0.04   0.02    -0.15  -0.11   0.18
    10   1     0.22  -0.09   0.07    -0.22   0.10   0.07     0.29   0.06   0.07
    11   6    -0.12   0.14  -0.06     0.05   0.17  -0.04     0.03  -0.02  -0.00
    12   6    -0.12  -0.14  -0.06    -0.05   0.17   0.04     0.03   0.02  -0.00
    13   1    -0.30   0.37  -0.08     0.10   0.31  -0.04    -0.02   0.14  -0.01
    14   1    -0.03   0.10   0.26    -0.17   0.02   0.05    -0.01  -0.08   0.15
    15   1    -0.30  -0.37  -0.08    -0.10   0.31   0.04    -0.02  -0.14  -0.01
    16   1    -0.03  -0.10   0.26     0.17   0.02  -0.05    -0.01   0.08   0.15
                      7                      8                      9
                      A                      A                      A
 Frequencies --    734.6686               830.8284               837.3405
 Red. masses --      1.6290                 2.0457                 1.9750
 Frc consts  --      0.5180                 0.8320                 0.8159
 IR Inten    --      0.0000                 0.0000                 0.0000
  Atom  AN      X      Y      Z        X      Y      Z        X      Y      Z
     1   6    -0.03   0.05  -0.01    -0.09  -0.01   0.08     0.13   0.03   0.06
     2   6     0.07   0.10  -0.07    -0.02  -0.10  -0.02     0.01   0.04  -0.05
     3   1    -0.03   0.05  -0.01     0.05  -0.00  -0.12     0.37   0.13  -0.29
     4   1    -0.01  -0.14   0.03    -0.30  -0.15   0.01    -0.24  -0.15  -0.06
     5   1     0.03   0.15   0.45    -0.04  -0.10  -0.07    -0.06   0.09  -0.09
     6   6     0.07  -0.10  -0.07     0.02  -0.10   0.02    -0.01   0.04   0.05
     7   6    -0.03  -0.05  -0.01     0.09  -0.01  -0.08    -0.13   0.03  -0.06
     8   1     0.03  -0.15   0.45     0.04  -0.10   0.07     0.06   0.09   0.09
     9   1    -0.03  -0.05  -0.01    -0.05  -0.00   0.12    -0.37   0.13   0.29
    10   1    -0.01   0.14   0.03     0.30  -0.15  -0.01     0.24  -0.15   0.06
    11   6    -0.04  -0.01   0.06    -0.06   0.14  -0.00     0.07  -0.05   0.10
    12   6    -0.04   0.01   0.06     0.06   0.14   0.00    -0.07  -0.05  -0.10
    13   1     0.17  -0.30   0.08     0.02  -0.28   0.01     0.03  -0.30   0.09
    14   1    -0.05   0.09  -0.30    -0.13   0.21  -0.41     0.06  -0.01  -0.09
    15   1     0.17   0.30   0.08    -0.02  -0.28  -0.01    -0.03  -0.30  -0.09
    16   1    -0.05  -0.09  -0.30     0.13   0.21   0.41    -0.06  -0.01   0.09
                     10                     11                     12
                      A                      A                      A
 Frequencies --    891.9273               919.5607               944.2705
 Red. masses --      2.4181                 2.4430                 1.3966
 Frc consts  --      1.1334                 1.2171                 0.7337
 IR Inten    --      0.0000                 0.0000                 0.0000
  Atom  AN      X      Y      Z        X      Y      Z        X      Y      Z
     1   6     0.17   0.00  -0.04     0.08  -0.14  -0.00    -0.01   0.01  -0.10
     2   6    -0.07   0.10   0.01     0.05   0.15  -0.02     0.01  -0.01   0.06
     3   1     0.19  -0.00  -0.07     0.08  -0.39   0.05    -0.22  -0.03   0.21
     4   1     0.09   0.02  -0.07     0.08  -0.27   0.01     0.32   0.15   0.01
     5   1    -0.34   0.25  -0.06     0.13   0.11   0.02     0.01  -0.03  -0.23
     6   6    -0.07  -0.10   0.01    -0.05   0.15   0.02     0.01   0.01   0.06
     7   6     0.17  -0.00  -0.04    -0.08  -0.14   0.00    -0.01  -0.01  -0.10
     8   1    -0.34  -0.25  -0.06    -0.13   0.11  -0.02     0.01   0.03  -0.23
     9   1     0.19   0.00  -0.07    -0.08  -0.39  -0.05    -0.22   0.03   0.21
    10   1     0.09  -0.02  -0.07    -0.08  -0.27  -0.01     0.32  -0.15   0.01
    11   6    -0.06  -0.12   0.03    -0.10   0.05  -0.05    -0.03   0.02   0.05
    12   6    -0.06   0.12   0.03     0.10   0.05   0.05    -0.03  -0.02   0.05
    13   1    -0.08  -0.02   0.03    -0.07  -0.08  -0.05     0.39   0.03   0.09
    14   1    -0.32  -0.29   0.09    -0.33  -0.06  -0.18    -0.15   0.01  -0.16
    15   1    -0.08   0.02   0.03     0.07  -0.08   0.05     0.39  -0.03   0.09
    16   1    -0.32   0.29   0.09     0.33  -0.06   0.18    -0.15  -0.01  -0.16
                     13                     14                     15
                      A                      A                      A
 Frequencies --   1001.3217              1024.8269              1057.7331
 Red. masses --      1.1885                 3.0201                 1.6119
 Frc consts  --      0.7021                 1.8688                 1.0625
 IR Inten    --      0.0000                 0.0000                 0.0000
  Atom  AN      X      Y      Z        X      Y      Z        X      Y      Z
     1   6    -0.01   0.00  -0.01     0.16   0.03   0.03     0.01  -0.12   0.00
     2   6    -0.01  -0.00  -0.09    -0.07  -0.16  -0.01    -0.05   0.06   0.01
     3   1    -0.02   0.07  -0.00     0.28   0.06  -0.14    -0.02  -0.42   0.10
     4   1     0.02  -0.08   0.01    -0.08  -0.07  -0.05     0.05  -0.34   0.05
     5   1     0.03   0.02   0.69    -0.03  -0.17   0.07    -0.25   0.18  -0.02
     6   6     0.01  -0.00   0.09    -0.07   0.16  -0.01    -0.05  -0.06   0.01
     7   6     0.01   0.00   0.01     0.16  -0.03   0.03     0.01   0.12   0.00
     8   1    -0.03   0.02  -0.69    -0.03   0.17   0.07    -0.25  -0.18  -0.02
     9   1     0.02   0.07   0.00     0.28  -0.06  -0.14    -0.02   0.42   0.10
    10   1    -0.02  -0.08  -0.01    -0.08   0.07  -0.05     0.05   0.34   0.05
    11   6     0.01   0.00   0.01    -0.10   0.15   0.02     0.03   0.07  -0.02
    12   6    -0.01   0.00  -0.01    -0.10  -0.15   0.02     0.03  -0.07  -0.02
    13   1     0.01  -0.02   0.01     0.12  -0.20   0.04     0.10   0.00  -0.01
    14   1     0.01   0.01  -0.02    -0.10   0.25  -0.35     0.17   0.17  -0.07
    15   1    -0.01  -0.02  -0.01     0.12   0.20   0.04     0.10  -0.00  -0.01
    16   1    -0.01   0.01   0.02    -0.10  -0.25  -0.35     0.17  -0.17  -0.07
                     16                     17                     18
                      A                      A                      A
 Frequencies --   1082.5045              1108.3265              1171.4339
 Red. masses --      1.9517                 1.8269                 1.0861
 Frc consts  --      1.3475                 1.3222                 0.8781
 IR Inten    --      0.0000                 0.0000                 0.0000
  Atom  AN      X      Y      Z        X      Y      Z        X      Y      Z
     1   6    -0.03  -0.10   0.04    -0.00  -0.01  -0.12    -0.01  -0.03   0.02
     2   6     0.02   0.04  -0.00     0.01   0.01   0.08     0.01   0.01   0.01
     3   1    -0.02  -0.20   0.04    -0.21   0.23   0.12    -0.01   0.36  -0.06
     4   1    -0.02  -0.20   0.06     0.32  -0.29   0.04    -0.02   0.07   0.00
     5   1     0.22  -0.07  -0.03    -0.01   0.01  -0.01     0.38  -0.20  -0.03
     6   6    -0.02   0.03   0.00    -0.01   0.01  -0.08    -0.01   0.01  -0.01
     7   6     0.03  -0.10  -0.04     0.00  -0.01   0.12     0.01  -0.03  -0.02
     8   1    -0.22  -0.07   0.03     0.01   0.01   0.01    -0.38  -0.20   0.03
     9   1     0.02  -0.20  -0.04     0.21   0.23  -0.12     0.01   0.36   0.06
    10   1     0.02  -0.20  -0.06    -0.32  -0.29  -0.04     0.02   0.07  -0.00
    11   6     0.15   0.07   0.01     0.00   0.02   0.12     0.04   0.01   0.00
    12   6    -0.15   0.07  -0.01    -0.00   0.02  -0.12    -0.04   0.01  -0.00
    13   1     0.29   0.18   0.03     0.07  -0.29   0.12     0.06   0.05   0.00
    14   1     0.39   0.20   0.06     0.02   0.12  -0.20    -0.35  -0.22  -0.01
    15   1    -0.29   0.18  -0.03    -0.07  -0.29  -0.12    -0.06   0.05  -0.00
    16   1    -0.39   0.20  -0.06    -0.02   0.12   0.20     0.35  -0.22   0.01
                     19                     20                     21
                      A                      A                      A
 Frequencies --   1173.3559              1261.3559              1283.1423
 Red. masses --      1.1709                 1.1989                 1.2832
 Frc consts  --      0.9498                 1.1238                 1.2448
 IR Inten    --      0.0000                 0.0000                 0.0000
  Atom  AN      X      Y      Z        X      Y      Z        X      Y      Z
     1   6     0.00   0.01  -0.06     0.03   0.03  -0.02    -0.02  -0.03  -0.00
     2   6     0.01  -0.00   0.05     0.03  -0.02  -0.02    -0.02   0.01  -0.03
     3   1    -0.09   0.32   0.01     0.04  -0.20   0.01    -0.04  -0.25   0.06
     4   1     0.14  -0.39   0.05     0.05   0.31  -0.06     0.01   0.42  -0.05
     5   1    -0.02  -0.00  -0.14     0.44  -0.24  -0.00    -0.19   0.11   0.01
     6   6     0.01   0.00   0.05    -0.03  -0.02   0.02     0.02   0.01   0.03
     7   6     0.00  -0.01  -0.06    -0.03   0.03   0.02     0.02  -0.03   0.00
     8   1    -0.02   0.00  -0.14    -0.44  -0.24   0.00     0.19   0.11  -0.01
     9   1    -0.09  -0.32   0.01    -0.04  -0.20  -0.01     0.04  -0.25  -0.06
    10   1     0.14   0.39   0.05    -0.05   0.31   0.06    -0.01   0.42   0.05
    11   6     0.00   0.00   0.02    -0.05  -0.00   0.04     0.02   0.01   0.10
    12   6     0.00  -0.00   0.02     0.05  -0.00  -0.04    -0.02   0.01  -0.10
    13   1    -0.33  -0.23  -0.02    -0.07  -0.14   0.04     0.31  -0.00   0.12
    14   1     0.13   0.08  -0.01     0.20   0.17  -0.05    -0.25  -0.10  -0.09
    15   1    -0.33   0.23  -0.02     0.07  -0.14  -0.04    -0.31  -0.00  -0.12
    16   1     0.13  -0.08  -0.01    -0.20   0.17   0.05     0.25  -0.10   0.09
                     22                     23                     24
                      A                      A                      A
 Frequencies --   1306.5764              1368.1957              1391.6710
 Red. masses --      1.1706                 1.3084                 1.7636
 Frc consts  --      1.1774                 1.4431                 2.0124
 IR Inten    --      0.0000                 0.0000                 0.0000
  Atom  AN      X      Y      Z        X      Y      Z        X      Y      Z
     1   6    -0.01  -0.03   0.04     0.01  -0.08   0.01    -0.01  -0.13  -0.00
     2   6     0.01   0.03   0.02     0.03  -0.01  -0.00    -0.00   0.06  -0.01
     3   1     0.01   0.36  -0.06     0.00   0.35  -0.06    -0.05   0.26  -0.01
     4   1    -0.07  -0.31   0.06     0.00   0.20  -0.03     0.00   0.42  -0.07
     5   1     0.03   0.01  -0.04    -0.25   0.15   0.01     0.04   0.03   0.01
     6   6     0.01  -0.03   0.02     0.03   0.01  -0.00    -0.00  -0.06  -0.01
     7   6    -0.01   0.03   0.04     0.01   0.08   0.01    -0.01   0.13  -0.00
     8   1     0.03  -0.01  -0.04    -0.25  -0.15   0.01     0.04  -0.03   0.01
     9   1     0.01  -0.36  -0.06     0.00  -0.35  -0.06    -0.05  -0.26  -0.01
    10   1    -0.07   0.31   0.06     0.00  -0.20  -0.03     0.00  -0.42  -0.07
    11   6     0.01   0.03  -0.05    -0.07  -0.04  -0.01     0.05   0.10   0.02
    12   6     0.01  -0.03  -0.05    -0.07   0.04  -0.01     0.05  -0.10   0.02
    13   1     0.28   0.26  -0.03     0.17   0.09   0.02    -0.26  -0.25  -0.01
    14   1    -0.28  -0.14  -0.05     0.38   0.21   0.05    -0.27  -0.06  -0.08
    15   1     0.28  -0.26  -0.03     0.17  -0.09   0.02    -0.26   0.25  -0.01
    16   1    -0.28   0.14  -0.05     0.38  -0.21   0.05    -0.27   0.06  -0.08
                     25                     26                     27
                      A                      A                      A
 Frequencies --   1393.6855              1405.3048              1438.8135
 Red. masses --      1.3923                 1.5489                 1.5190
 Frc consts  --      1.5933                 1.8022                 1.8527
 IR Inten    --      0.0000                 0.0000                 0.0000
  Atom  AN      X      Y      Z        X      Y      Z        X      Y      Z
     1   6     0.01   0.09   0.01     0.03  -0.10   0.02     0.04  -0.03  -0.00
     2   6     0.02  -0.02   0.00    -0.01   0.02   0.00    -0.08   0.11   0.01
     3   1     0.03  -0.12   0.02     0.01   0.43  -0.05     0.06   0.04  -0.03
     4   1    -0.04  -0.32   0.05    -0.05   0.22  -0.05     0.05   0.00  -0.01
     5   1     0.12  -0.08  -0.02    -0.09   0.07   0.01     0.57  -0.26  -0.05
     6   6    -0.02  -0.02  -0.00     0.01   0.02  -0.00    -0.08  -0.11   0.01
     7   6    -0.01   0.09  -0.01    -0.03  -0.10  -0.02     0.04   0.03  -0.00
     8   1    -0.12  -0.08   0.02     0.09   0.07  -0.01     0.57   0.26  -0.05
     9   1    -0.03  -0.12  -0.02    -0.01   0.43   0.05     0.06  -0.04  -0.03
    10   1     0.04  -0.32  -0.05     0.05   0.22   0.05     0.05  -0.00  -0.01
    11   6    -0.07  -0.05   0.01    -0.11  -0.01  -0.01    -0.04  -0.02  -0.01
    12   6     0.07  -0.05  -0.01     0.11  -0.01   0.01    -0.04   0.02  -0.01
    13   1     0.52   0.24   0.07     0.28   0.15   0.02     0.11  -0.02   0.01
    14   1    -0.08  -0.05  -0.00     0.26   0.22  -0.05     0.22   0.11   0.07
    15   1    -0.52   0.24  -0.07    -0.28   0.15  -0.02     0.11   0.02   0.01
    16   1     0.08  -0.05   0.00    -0.26   0.22   0.05     0.22  -0.11   0.07
                     28                     29                     30
                      A                      A                      A
 Frequencies --   1503.9047              1511.0743              1520.0680
 Red. masses --      1.0918                 1.0827                 1.0918
 Frc consts  --      1.4549                 1.4565                 1.4863
 IR Inten    --      0.0000                 0.0000                 0.0000
  Atom  AN      X      Y      Z        X      Y      Z        X      Y      Z
     1   6    -0.05  -0.00   0.02    -0.06  -0.00   0.02    -0.01   0.01   0.00
     2   6     0.02  -0.00   0.00    -0.00  -0.00   0.00     0.01  -0.01   0.00
     3   1     0.24  -0.03  -0.36     0.28  -0.05  -0.41     0.00  -0.00  -0.02
     4   1     0.40   0.03   0.16     0.46   0.04   0.19     0.01  -0.02   0.01
     5   1    -0.02   0.02   0.00    -0.02   0.00  -0.00    -0.04   0.02   0.00
     6   6    -0.02  -0.00  -0.00    -0.00   0.00   0.00     0.01   0.01   0.00
     7   6     0.05  -0.00  -0.02    -0.06   0.00   0.02    -0.01  -0.01   0.00
     8   1     0.02   0.02  -0.00    -0.02  -0.00  -0.00    -0.04  -0.02   0.00
     9   1    -0.24  -0.03   0.36     0.28   0.05  -0.41     0.00   0.00  -0.02
    10   1    -0.40   0.03  -0.16     0.46  -0.04   0.19     0.01   0.02   0.01
    11   6     0.00  -0.02   0.02     0.00   0.00   0.00    -0.02   0.04  -0.04
    12   6    -0.00  -0.02  -0.02     0.00  -0.00   0.00    -0.02  -0.04  -0.04
    13   1    -0.10   0.23  -0.00    -0.02   0.01   0.00     0.26  -0.42   0.00
    14   1    -0.01   0.05  -0.23    -0.02   0.00  -0.02    -0.01  -0.13   0.48
    15   1     0.10   0.23   0.00    -0.02  -0.01   0.00     0.26   0.42   0.00
    16   1     0.01   0.05   0.23    -0.02  -0.00  -0.02    -0.01   0.13   0.48
                     31                     32                     33
                      A                      A                      A
 Frequencies --   1530.9563              1740.3406              3004.5879
 Red. masses --      1.1014                 6.1852                 1.0697
 Frc consts  --      1.5210                11.0375                 5.6899
 IR Inten    --      0.0000                 0.0000                 0.0000
  Atom  AN      X      Y      Z        X      Y      Z        X      Y      Z
     1   6    -0.03  -0.00   0.01    -0.05   0.01   0.00     0.03  -0.01  -0.04
     2   6     0.00  -0.00   0.00     0.48  -0.06  -0.04    -0.00  -0.00  -0.00
     3   1     0.13  -0.00  -0.21    -0.13   0.20   0.08    -0.14  -0.02  -0.12
     4   1     0.22   0.02   0.09    -0.13   0.11  -0.05    -0.23   0.09   0.63
     5   1    -0.02   0.01   0.00    -0.16   0.37   0.02     0.01   0.01  -0.00
     6   6    -0.00  -0.00  -0.00    -0.48  -0.06   0.04    -0.00   0.00  -0.00
     7   6     0.03  -0.00  -0.01     0.05   0.01  -0.00     0.03   0.01  -0.04
     8   1     0.02   0.01  -0.00     0.16   0.37  -0.02     0.01  -0.01  -0.00
     9   1    -0.13  -0.00   0.21     0.13   0.20  -0.08    -0.14   0.02  -0.12
    10   1    -0.22   0.02  -0.09     0.13   0.11   0.05    -0.22  -0.09   0.63
    11   6    -0.02   0.04  -0.03     0.02  -0.00  -0.00    -0.00   0.00   0.01
    12   6     0.02   0.04   0.03    -0.02  -0.00   0.00    -0.00  -0.00   0.01
    13   1     0.22  -0.38   0.01    -0.01  -0.02  -0.01     0.01  -0.00  -0.09
    14   1     0.01  -0.08   0.42    -0.05  -0.05   0.04     0.02  -0.03  -0.01
    15   1    -0.22  -0.38  -0.01     0.01  -0.02   0.01     0.01   0.00  -0.09
    16   1    -0.01  -0.08  -0.42     0.05  -0.05  -0.04     0.02   0.03  -0.01
                     34                     35                     36
                      A                      A                      A
 Frequencies --   3004.6301              3030.3810              3034.0011
 Red. masses --      1.0697                 1.0697                 1.0665
 Frc consts  --      5.6900                 5.7875                 5.7841
 IR Inten    --      0.0000                 0.0000                 0.0000
  Atom  AN      X      Y      Z        X      Y      Z        X      Y      Z
     1   6    -0.03   0.01   0.04     0.02   0.00   0.02     0.02   0.00   0.02
     2   6    -0.00   0.00   0.00     0.00  -0.00   0.00    -0.00  -0.00   0.00
     3   1     0.14   0.02   0.12    -0.21  -0.02  -0.16    -0.28  -0.03  -0.20
     4   1     0.22  -0.09  -0.63     0.02  -0.00  -0.03     0.02  -0.01  -0.04
     5   1    -0.01  -0.02   0.00     0.00   0.01  -0.00     0.01   0.01  -0.00
     6   6     0.00   0.00  -0.00    -0.00  -0.00  -0.00    -0.00   0.00   0.00
     7   6     0.03   0.01  -0.04    -0.02   0.00  -0.02     0.02  -0.00   0.02
     8   1     0.01  -0.02  -0.00    -0.00   0.01   0.00     0.01  -0.01  -0.00
     9   1    -0.14   0.02  -0.12     0.21  -0.02   0.16    -0.28   0.03  -0.20
    10   1    -0.23  -0.09   0.63    -0.02  -0.00   0.03     0.02   0.01  -0.04
    11   6     0.00  -0.00  -0.01    -0.00   0.01  -0.05    -0.01   0.03  -0.03
    12   6    -0.00  -0.00   0.01     0.00   0.01   0.05    -0.01  -0.03  -0.03
    13   1    -0.00  -0.00   0.05    -0.06   0.01   0.61    -0.05   0.01   0.49
    14   1    -0.03   0.05   0.01     0.11  -0.17  -0.06     0.18  -0.31  -0.10
    15   1     0.00  -0.00  -0.05     0.06   0.01  -0.61    -0.05  -0.01   0.49
    16   1     0.03   0.05  -0.01    -0.11  -0.17   0.06     0.18   0.31  -0.10
                     37                     38                     39
                      A                      A                      A
 Frequencies --   3050.2786              3050.5587              3079.1296
 Red. masses --      1.0892                 1.0844                 1.0966
 Frc consts  --      5.9710                 5.9457                 6.1256
 IR Inten    --      0.0000                 0.0000                 0.0000
  Atom  AN      X      Y      Z        X      Y      Z        X      Y      Z
     1   6    -0.04  -0.01  -0.04    -0.03  -0.01  -0.04     0.00  -0.00  -0.01
     2   6     0.00   0.00  -0.00     0.00   0.00  -0.00    -0.00  -0.00   0.00
     3   1     0.51   0.07   0.36     0.47   0.06   0.34     0.00  -0.00   0.00
     4   1    -0.07   0.02   0.16    -0.07   0.02   0.15    -0.03   0.01   0.07
     5   1    -0.02  -0.03   0.00    -0.02  -0.02   0.00     0.00   0.01   0.00
     6   6    -0.00   0.00   0.00     0.00  -0.00  -0.00     0.00  -0.00  -0.00
     7   6     0.04  -0.01   0.04    -0.03   0.01  -0.04    -0.00  -0.00   0.01
     8   1     0.02  -0.03  -0.00    -0.02   0.02   0.00    -0.00   0.01  -0.00
     9   1    -0.50   0.07  -0.36     0.47  -0.06   0.34    -0.00  -0.00  -0.00
    10   1     0.07   0.02  -0.16    -0.07  -0.02   0.15     0.03   0.01  -0.07
    11   6    -0.00   0.01  -0.02    -0.01   0.02  -0.01     0.03  -0.05  -0.03
    12   6     0.00   0.01   0.02    -0.01  -0.02  -0.01    -0.03  -0.05   0.03
    13   1    -0.03   0.00   0.25    -0.02   0.01   0.21    -0.02  -0.01   0.22
    14   1     0.06  -0.09  -0.03     0.14  -0.24  -0.07    -0.33   0.55   0.16
    15   1     0.03   0.00  -0.25    -0.02  -0.01   0.21     0.02  -0.01  -0.22
    16   1    -0.06  -0.09   0.03     0.14   0.24  -0.07     0.33   0.55  -0.16
                     40                     41                     42
                      A                      A                      A
 Frequencies --   3083.2764              3147.4570              3170.9111
 Red. masses --      1.1055                 1.0840                 1.0966
 Frc consts  --      6.1919                 6.3271                 6.4962
 IR Inten    --      0.0000                 0.0000                 0.0000
  Atom  AN      X      Y      Z        X      Y      Z        X      Y      Z
     1   6    -0.00  -0.00  -0.01    -0.00  -0.00  -0.00    -0.00   0.00  -0.00
     2   6     0.00   0.00  -0.00    -0.03  -0.05   0.00    -0.04  -0.05   0.00
     3   1     0.05   0.01   0.04     0.03   0.00   0.02     0.03   0.00   0.02
     4   1    -0.04   0.01   0.10     0.00  -0.00  -0.01     0.01  -0.00  -0.01
     5   1    -0.00  -0.01   0.00     0.34   0.61  -0.04     0.35   0.61  -0.04
     6   6     0.00  -0.00  -0.00    -0.03   0.05   0.00     0.04  -0.05  -0.00
     7   6    -0.00   0.00  -0.01    -0.00   0.00  -0.00     0.00   0.00   0.00
     8   1    -0.00   0.01   0.00     0.34  -0.61  -0.04    -0.35   0.61   0.04
     9   1     0.05  -0.01   0.04     0.03  -0.00   0.02    -0.03   0.00  -0.02
    10   1    -0.04  -0.01   0.10     0.00   0.00  -0.01    -0.01  -0.00   0.01
    11   6     0.03  -0.04  -0.05     0.00   0.00  -0.00    -0.00   0.00  -0.00
    12   6     0.03   0.04  -0.05     0.00  -0.00  -0.00     0.00   0.00   0.00
    13   1    -0.04  -0.00   0.45    -0.00  -0.00   0.01    -0.00  -0.00   0.01
    14   1    -0.26   0.44   0.12    -0.00   0.00   0.00     0.00  -0.01  -0.00
    15   1    -0.04   0.00   0.45    -0.00   0.00   0.01     0.00  -0.00  -0.01
    16   1    -0.26  -0.44   0.12    -0.00  -0.00   0.00    -0.00  -0.01   0.00

 -------------------
 - Thermochemistry -
 -------------------
 Temperature   298.150 Kelvin.  Pressure   1.00000 Atm.
 Atom     1 has atomic number  6 and mass  12.00000
 Atom     2 has atomic number  6 and mass  12.00000
 Atom     3 has atomic number  1 and mass   1.00783
 Atom     4 has atomic number  1 and mass   1.00783
 Atom     5 has atomic number  1 and mass   1.00783
 Atom     6 has atomic number  6 and mass  12.00000
 Atom     7 has atomic number  6 and mass  12.00000
 Atom     8 has atomic number  1 and mass   1.00783
 Atom     9 has atomic number  1 and mass   1.00783
 Atom    10 has atomic number  1 and mass   1.00783
 Atom    11 has atomic number  6 and mass  12.00000
 Atom    12 has atomic number  6 and mass  12.00000
 Atom    13 has atomic number  1 and mass   1.00783
 Atom    14 has atomic number  1 and mass   1.00783
 Atom    15 has atomic number  1 and mass   1.00783
 Atom    16 has atomic number  1 and mass   1.00783
 Molecular mass:    82.07825 amu.
 Principal axes and moments of inertia in atomic units:
                           1         2         3
     Eigenvalues --   381.94419 397.99254 707.98744
           X            1.00000   0.00000  -0.00248
           Y           -0.00000   1.00000  -0.00000
           Z            0.00248   0.00000   1.00000
 This molecule is an asymmetric top.
 Rotational symmetry number  1.
 Rotational temperatures (Kelvin)      0.22677     0.21763     0.12234
 Rotational constants (GHZ):           4.72514     4.53461     2.54911
 Zero-point vibrational energy     386099.5 (Joules/Mol)
                                   92.27999 (Kcal/Mol)
 Warning -- explicit consideration of   5 degrees of freedom as
           vibrations may cause significant error
 Vibrational temperatures:    240.37   402.75   572.98   659.09   722.86
          (Kelvin)            944.78  1057.02  1195.38  1204.75  1283.28
                             1323.04  1358.59  1440.68  1474.50  1521.84
                             1557.48  1594.63  1685.43  1688.20  1814.81
                             1846.16  1879.87  1968.53  2002.30  2005.20
                             2021.92  2070.13  2163.78  2174.10  2187.04
                             2202.70  2503.96  4322.93  4322.99  4360.04
                             4365.25  4388.67  4389.07  4430.18  4436.15
                             4528.49  4562.23
 
 Zero-point correction=                           0.147058 (Hartree/Particle)
 Thermal correction to Energy=                    0.152542
 Thermal correction to Enthalpy=                  0.153487
 Thermal correction to Gibbs Free Energy=         0.118430
 Sum of electronic and zero-point Energies=           -234.522324
 Sum of electronic and thermal Energies=              -234.516839
 Sum of electronic and thermal Enthalpies=            -234.515895
 Sum of electronic and thermal Free Energies=         -234.550952
 
                     E (Thermal)             CV                S
                      KCal/Mol        Cal/Mol-Kelvin    Cal/Mol-Kelvin
 Total                   95.722             21.293             73.784
 Electronic               0.000              0.000              0.000
 Translational            0.889              2.981             39.129
 Rotational               0.889              2.981             26.179
 Vibrational             93.944             15.331              8.476
 Vibration     1          0.624              1.883              2.468
 Vibration     2          0.680              1.711              1.534
 Vibration     3          0.765              1.474              0.969
 Vibration     4          0.816              1.343              0.772
 Vibration     5          0.858              1.245              0.652
                       Q            Log10(Q)             Ln(Q)
 Total Bot       0.335923D-54        -54.473760       -125.430468
 Total V=0       0.147214D+14         13.167949         30.320324
 Vib (Bot)       0.978696D-67        -67.009352       -154.294735
 Vib (Bot)    1  0.120739D+01          0.081849          0.188463
 Vib (Bot)    2  0.686851D+00         -0.163138         -0.375638
 Vib (Bot)    3  0.448136D+00         -0.348591         -0.802660
 Vib (Bot)    4  0.371884D+00         -0.429593         -0.989175
 Vib (Bot)    5  0.326423D+00         -0.486219         -1.119561
 Vib (V=0)       0.428901D+01          0.632357          1.456057
 Vib (V=0)    1  0.180683D+01          0.256917          0.591572
 Vib (V=0)    2  0.134957D+01          0.130194          0.299784
 Vib (V=0)    3  0.117144D+01          0.068718          0.158230
 Vib (V=0)    4  0.112314D+01          0.050432          0.116124
 Vib (V=0)    5  0.109712D+01          0.040254          0.092688
 Electronic      0.100000D+01          0.000000          0.000000
 Translational   0.292278D+08          7.465796         17.190631
 Rotational      0.117435D+06          5.069796         11.673636
 ***** Axes restored to original set *****
 -------------------------------------------------------------------
 Center     Atomic                   Forces (Hartrees/Bohr)
 Number     Number              X              Y              Z
 -------------------------------------------------------------------
      1        6          -0.000007672    0.000000241    0.000000068
      2        6           0.000027135    0.000009886    0.000002553
      3        1           0.000004324   -0.000000220   -0.000004448
      4        1           0.000009810   -0.000003966   -0.000012705
      5        1          -0.000003462    0.000005102    0.000005977
      6        6          -0.000027029    0.000009881   -0.000002374
      7        6           0.000007754    0.000000015   -0.000000235
      8        1           0.000003383    0.000005064   -0.000006016
      9        1          -0.000004377   -0.000000175    0.000004393
     10        1          -0.000009795   -0.000003881    0.000012709
     11        6           0.000009376   -0.000008842    0.000009784
     12        6          -0.000009452   -0.000008581   -0.000009673
     13        1          -0.000001946   -0.000008611    0.000023184
     14        1           0.000000651    0.000006403    0.000009642
     15        1           0.000001953   -0.000008663   -0.000023217
     16        1          -0.000000653    0.000006347   -0.000009641
 -------------------------------------------------------------------
 Cartesian Forces:  Max     0.000027135 RMS     0.000009772
 Z-matrix is all fixed cartesians, so copy forces.
 Leave Link  716 at Fri Apr 26 11:29:26 2024, MaxMem=   104857600 cpu:               0.1 elap:               0.5
 (Enter /mlatom/software/Gaussian/g16-avx2/l103.exe)

 GradGradGradGradGradGradGradGradGradGradGradGradGradGradGradGradGradGrad
 Berny optimization.
 Search for a local minimum.
 Step number   1 out of a maximum of    2
 All quantities printed in internal units (Hartrees-Bohrs-Radians)
 Second derivative matrix not updated -- analytic derivatives used.
 ITU=  0
     Eigenvalues ---    0.00185   0.00511   0.01209   0.01476   0.02788
     Eigenvalues ---    0.02977   0.04353   0.04557   0.04884   0.05128
     Eigenvalues ---    0.05201   0.05316   0.05694   0.06727   0.07452
     Eigenvalues ---    0.07741   0.08583   0.09044   0.10232   0.13083
     Eigenvalues ---    0.13647   0.15933   0.16006   0.19367   0.19992
     Eigenvalues ---    0.21742   0.22208   0.33716   0.35573   0.51471
     Eigenvalues ---    0.54040   0.63689   0.68915   0.74988   0.76838
     Eigenvalues ---    0.78224   0.80303   0.80664   0.84670   0.90178
     Eigenvalues ---    0.92828   1.44608
 Angle between quadratic step and forces=  70.32 degrees.
 Linear search not attempted -- first point.
 B after Tr=     0.000000    0.000001    0.000000
         Rot=    1.000000   -0.000000    0.000002   -0.000000 Ang=  -0.00 deg.
 Variable       Old X    -DE/DX   Delta X   Delta X   Delta X     New X
                                 (Linear)    (Quad)   (Total)
    X1        2.82904  -0.00001   0.00000  -0.00006  -0.00006   2.82897
    Y1        0.08820   0.00000   0.00000  -0.00006  -0.00006   0.08813
    Z1       -0.21027   0.00000   0.00000  -0.00008  -0.00007  -0.21035
    X2        1.25806   0.00003   0.00000   0.00003   0.00003   1.25809
    Y2        2.46501   0.00001   0.00000   0.00004   0.00004   2.46505
    Z2       -0.10879   0.00000   0.00000   0.00004   0.00005  -0.10874
    X3        4.50954   0.00000   0.00000   0.00024   0.00024   4.50978
    Y3        0.30797  -0.00000   0.00000  -0.00008  -0.00008   0.30789
    Z3        0.98933  -0.00000   0.00000  -0.00051  -0.00049   0.98884
    X4        3.55863   0.00001   0.00000  -0.00043  -0.00042   3.55821
    Y4       -0.17783  -0.00000   0.00000  -0.00030  -0.00030  -0.17813
    Z4       -2.14217  -0.00001   0.00000  -0.00025  -0.00023  -2.14240
    X5        2.26628  -0.00000   0.00000  -0.00002  -0.00001   2.26627
    Y5        4.25681   0.00001   0.00000   0.00008   0.00008   4.25689
    Z5       -0.21486   0.00001   0.00000   0.00018   0.00019  -0.21466
    X6       -1.25807  -0.00003   0.00000  -0.00003  -0.00003  -1.25810
    Y6        2.46500   0.00001   0.00000   0.00004   0.00004   2.46505
    Z6        0.10879  -0.00000   0.00000  -0.00004  -0.00004   0.10874
    X7       -2.82904   0.00001   0.00000   0.00006   0.00006  -2.82897
    Y7        0.08819   0.00000   0.00000  -0.00006  -0.00006   0.08812
    Z7        0.21028  -0.00000   0.00000   0.00008   0.00006   0.21035
    X8       -2.26630   0.00000   0.00000   0.00002   0.00001  -2.26628
    Y8        4.25680   0.00001   0.00000   0.00008   0.00008   4.25688
    Z8        0.21485  -0.00001   0.00000  -0.00017  -0.00018   0.21467
    X9       -4.50954  -0.00000   0.00000  -0.00024  -0.00023  -4.50978
    Y9        0.30795  -0.00000   0.00000  -0.00008  -0.00008   0.30787
    Z9       -0.98931   0.00000   0.00000   0.00049   0.00047  -0.98884
   X10       -3.55862  -0.00001   0.00000   0.00041   0.00040  -3.55821
   Y10       -0.17785  -0.00000   0.00000  -0.00030  -0.00030  -0.17814
   Z10        2.14218   0.00001   0.00000   0.00023   0.00022   2.14240
   X11        1.31499   0.00001   0.00000  -0.00008  -0.00009   1.31490
   Y11       -2.24871  -0.00001   0.00000   0.00003   0.00003  -2.24868
   Z11        0.60805   0.00001   0.00000   0.00028   0.00029   0.60833
   X12       -1.31498  -0.00001   0.00000   0.00008   0.00009  -1.31489
   Y12       -2.24871  -0.00001   0.00000   0.00003   0.00003  -2.24869
   Z12       -0.60805  -0.00001   0.00000  -0.00028  -0.00028  -0.60834
   X13        1.10566  -0.00000   0.00000  -0.00043  -0.00044   1.10522
   Y13       -2.23577  -0.00001   0.00000   0.00029   0.00029  -2.23548
   Z13        2.67403   0.00002   0.00000   0.00031   0.00031   2.67434
   X14        2.34825   0.00000   0.00000   0.00006   0.00006   2.34831
   Y14       -3.97804   0.00001   0.00000  -0.00000  -0.00000  -3.97804
   Z14        0.12145   0.00001   0.00000   0.00078   0.00079   0.12225
   X15       -1.10565   0.00000   0.00000   0.00043   0.00044  -1.10521
   Y15       -2.23577  -0.00001   0.00000   0.00028   0.00028  -2.23548
   Z15       -2.67403  -0.00002   0.00000  -0.00030  -0.00031  -2.67434
   X16       -2.34824  -0.00000   0.00000  -0.00006  -0.00006  -2.34830
   Y16       -3.97805   0.00001   0.00000  -0.00000  -0.00000  -3.97805
   Z16       -0.12146  -0.00001   0.00000  -0.00077  -0.00079  -0.12225
         Item               Value     Threshold  Converged?
 Maximum Force            0.000027     0.000450     YES
 RMS     Force            0.000010     0.000300     YES
 Maximum Displacement     0.000792     0.001800     YES
 RMS     Displacement     0.000270     0.001200     YES
 Predicted change in Energy=-2.161715D-08
 Optimization completed.
    -- Stationary point found.
 GradGradGradGradGradGradGradGradGradGradGradGradGradGradGradGradGradGrad

 Leave Link  103 at Fri Apr 26 11:29:28 2024, MaxMem=   104857600 cpu:               0.0 elap:               1.1
 (Enter /mlatom/software/Gaussian/g16-avx2/l9999.exe)
 1\1\GINC-B006\Freq\RExternal='/mlatom/software/miniconda3/bin/python /
 mlatom/software/mlatom/mlatom/\ZDO\C6H10\UNKNOWN\26-Apr-2024\0\\#p fre
 q external='/mlatom/software/miniconda3/bin/python /mlatom/software/ml
 atom/mlatom/interfaces/gaussian_interface.py model_predict_kwargs'\\eb
 a597fe-30b9-4ca5-8a5a-6f0ba0b1a3f4\\0,1\C,1.4970614384,0.0466713176,-0
 .1112726427\C,0.6657359403,1.304424841,-0.0575686785\H,2.3863435514,0.
 1629703183,0.5235294556\H,1.8831463996,-0.0941031338,-1.1335889127\H,1
 .19926489,2.2526054522,-0.1136972577\C,-0.6657415002,1.3044226593,0.05
 7567228\C,-1.4970612542,0.0466656063,0.1112760089\H,-1.1992732166,2.25
 26018053,0.1136934546\H,-2.3863475476,0.1629600231,-0.5235208027\H,-1.
 8831393747,-0.094112443,1.1335943678\C,0.6958625011,-1.189966918,0.321
 7647698\C,-0.6958581442,-1.1899683343,-0.3217670783\H,0.5850895765,-1.
 1831210362,1.4150337056\H,1.2426410541,-2.1050874526,0.0642704584\H,-0
 .5850858665,-1.1831168642,-1.4150359768\H,-1.2426333534,-2.1050917004,
 -0.0642761356\\Version=ES64L-G16RevA.03\HF=-234.6693812\RMSD=0.000e+00
 \RMSF=9.772e-06\ZeroPoint=0.1470575\Thermal=0.1525424\Dipole=0.,-0.225
 9,0.\PG=C01 [X(C6H10)]\NImag=0\\0.55068900,0.00381577,0.46407443,0.018
 74220,0.01569910,0.55004997,-0.12542994,0.05330812,0.00165871,0.843938
 64,0.05243466,-0.17694563,-0.00019703,0.05156867,0.59243541,0.00280079
 ,-0.00495862,-0.07360268,-0.06246627,-0.00884502,0.14910993,-0.2095767
 3,-0.02304450,-0.11997153,-0.01821493,0.00006154,-0.00948756,0.2304866
 1,-0.02214428,-0.05144810,-0.01511857,0.02643395,0.00284633,0.01771696
 ,0.02357944,0.05771302,-0.12033722,-0.01584165,-0.13556685,0.00314490,
 -0.00017065,0.00234841,0.13050109,0.01655514,0.14596749,-0.07489308,0.
 00771087,0.07801830,-0.01147331,0.00606425,0.01821714,0.00950672,-0.00
 394604,-0.02545015,0.08192706,0.01033499,-0.05170287,-0.03385789,0.012
 87218,-0.00368095,-0.02616878,0.00096193,-0.00045768,-0.00374018,-0.01
 279546,0.05891703,0.07592973,-0.02862795,-0.26042910,0.00202788,-0.002
 21079,0.00251555,0.00581929,-0.00288194,-0.02034158,-0.08621424,0.0323
 3522,0.28495182,0.01069601,0.01605954,-0.00196047,-0.12076957,-0.11342
 868,0.00855013,0.00102080,-0.00078336,-0.00025963,0.00014265,-0.000575
 05,0.00047954,0.12931946,-0.01426564,-0.01839729,0.00272462,-0.1175242
 5,-0.26563188,0.01195028,0.00021898,0.00107669,0.00052617,0.00027790,-
 0.00009229,-0.00063112,0.12483609,0.28087256,-0.00214937,-0.00059249,0
 .00198911,0.00933390,0.01079006,-0.03798490,0.00061468,-0.00014319,0.0
 0049469,-0.00021016,0.00096200,-0.00014516,-0.00960340,-0.01357617,0.0
 2564162,-0.02056414,0.01140575,0.00272619,-0.54739314,-0.00318996,0.04
 301832,0.00118047,0.00038716,0.00067685,0.00120356,-0.00042644,-0.0014
 0022,-0.01470413,0.00197129,0.00110164,0.84393867,0.03025161,0.0043605
 8,-0.00382008,0.00318859,-0.11673861,0.00001050,0.00308567,-0.00449779
 ,0.00042138,0.00265046,-0.00282115,-0.00050042,-0.03159687,0.00237043,
 0.00293549,-0.05156792,0.59243547,0.00446747,-0.00126879,0.00507567,0.
 04301836,-0.00001017,-0.05329523,-0.00066643,0.00014537,-0.00023650,-0
 .00003488,0.00025728,0.00027694,0.00160659,-0.00014474,0.00372518,-0.0
 6246629,0.00884354,0.14910985,0.00226834,-0.00054225,0.00096354,-0.020
 56399,-0.03025172,0.00446761,0.00068326,0.00021039,-0.00027900,-0.0002
 9483,-0.00016856,-0.00031582,-0.00352267,0.00070577,0.00166657,-0.1254
 2952,-0.05243453,0.00280094,0.55068962,0.00054227,-0.00126805,0.000232
 74,-0.01140588,0.00436039,0.00126882,-0.00029263,-0.00048351,0.0000137
 6,0.00003433,-0.00047671,0.00008837,0.00277870,0.00136861,-0.00102899,
 -0.05330794,-0.17694612,0.00495908,-0.00381494,0.46407390,0.00096355,-
 0.00023275,-0.00755786,0.00272622,0.00382009,0.00507558,-0.00062739,0.
 00035028,0.00027783,0.00101919,-0.00125657,0.00013924,0.00129536,-0.00
 001928,0.01313592,0.00165886,0.00019740,-0.07360265,0.01874278,-0.0156
 9947,0.55004985,-0.00352265,-0.00277871,0.00129538,-0.01470426,0.03159
 684,0.00160649,-0.00067981,0.00081945,0.00004577,-0.00062579,0.0007402
 2,0.00013524,0.00087335,-0.00012643,-0.00072160,-0.12077029,0.11342916
 ,0.00854991,0.01069600,-0.01605941,-0.00196043,0.12932026,-0.00070578,
 0.00136860,0.00001931,-0.00197135,0.00237051,0.00014475,0.00005994,0.0
 0007360,-0.00012089,0.00012366,-0.00003685,0.00002686,0.00012642,0.001
 51144,0.00007005,0.11752478,-0.26563133,-0.01194966,0.01426572,-0.0183
 9723,-0.00272458,-0.12483664,0.28087191,0.00166654,0.00102903,0.013135
 93,0.00110166,-0.00293548,0.00372520,0.00123089,-0.00208197,-0.0001794
 7,-0.00167383,0.00231280,-0.00011706,-0.00072160,-0.00007008,-0.007577
 45,0.00933367,-0.01078945,-0.03798482,-0.00214945,0.00059258,0.0019891
 4,-0.00960315,0.01357547,0.02564152,0.00068326,0.00029264,-0.00062737,
 0.00118048,-0.00308566,-0.00066643,-0.00006558,-0.00001765,-0.00000288
 ,0.00004702,-0.00001791,0.00001638,-0.00067981,-0.00005993,0.00123087,
 -0.01821481,-0.00006159,-0.00948736,-0.20957860,0.02304378,-0.11997130
 ,0.00102080,-0.00021898,0.00061468,0.23048859,-0.00021039,-0.00048352,
 -0.00035028,-0.00038715,-0.00449783,-0.00014535,0.00001765,0.00025551,
 -0.00006904,-0.00006710,0.00028033,-0.00002670,-0.00081947,0.00007360,
 0.00208196,-0.02643416,0.00284623,-0.01771687,0.02214360,-0.05144788,0
 .01511787,0.00078336,0.00107670,0.00014319,-0.02357868,0.05771279,-0.0
 0027900,-0.00001377,0.00027783,0.00067684,-0.00042136,-0.00023649,-0.0
 0000288,0.00006904,-0.00004349,-0.00010731,0.00002634,0.00001102,0.000
 04578,0.00012089,-0.00017948,0.00314502,0.00017068,0.00234842,-0.12033
 699,0.01584092,-0.13556556,-0.00025963,-0.00052616,0.00049470,0.130500
 83,-0.01655440,0.14596605,-0.00029485,-0.00003434,0.00101918,0.0012035
 5,-0.00265042,-0.00003488,0.00004702,0.00006710,-0.00010731,-0.0002113
 7,0.00020346,-0.00014462,-0.00062578,-0.00012366,-0.00167382,-0.011473
 07,-0.00606425,0.01821705,-0.07489205,-0.00771098,0.07801697,0.0001426
 4,-0.00027791,-0.00021014,0.00950659,0.00394613,-0.02545035,0.08192590
 ,0.00016856,-0.00047671,0.00125658,0.00042649,-0.00282114,-0.00025726,
 0.00001791,0.00028033,-0.00002634,-0.00020346,0.00053168,0.00012795,-0
 .00074022,-0.00003686,-0.00231281,-0.01287204,-0.00368107,0.02616889,-
 0.01033507,-0.05170301,0.03385868,0.00057503,-0.00009231,-0.00096200,-
 0.00096186,-0.00045767,0.00374007,0.01279549,0.05891718,-0.00031582,-0
 .00008837,0.00013923,-0.00140022,0.00050042,0.00027696,0.00001638,0.00
 002670,0.00001102,-0.00014462,-0.00012795,0.00007416,0.00013524,-0.000
 02686,-0.00011705,0.00202792,0.00221083,0.00251547,0.07592843,0.028628
 68,-0.26042996,0.00047954,0.00063112,-0.00014518,0.00581910,0.00288196
 ,-0.02034145,-0.08621282,-0.03233605,0.28495280,-0.11039208,-0.0419570
 7,0.01650672,0.01486996,0.01115094,-0.00535214,-0.01378024,-0.02277958
 ,0.01055012,-0.00567645,-0.00929900,0.00235311,-0.00238916,0.00467603,
 -0.00008668,-0.00005084,-0.00032237,-0.00104706,-0.02248931,0.00930561
 ,-0.00804158,-0.00028091,-0.00062144,0.00043946,-0.00050998,0.00153867
 ,0.00097429,0.00076611,-0.00158823,-0.00020503,0.48273030,-0.04232216,
 -0.14740446,0.02643155,-0.01268357,-0.03307560,0.00782606,-0.00153367,
 -0.00197612,0.00134085,0.00188374,0.00181698,-0.00000983,0.00274729,-0
 .00236582,0.00037072,-0.00156976,0.00262423,0.00067845,0.02802837,-0.0
 0025703,0.01372969,-0.00060369,0.00042407,-0.00030136,0.00359157,-0.00
 513952,-0.00179492,-0.00057977,0.00031456,0.00014380,-0.06054007,0.545
 43951,0.01696616,0.02640122,-0.09097055,-0.00179951,-0.00139811,0.0005
 1193,-0.00924948,-0.01646510,0.00571170,0.01612086,0.02773160,-0.00943
 149,0.00079891,-0.00168612,0.00125846,0.00019066,-0.00032061,0.0006214
 5,0.00662550,0.00280061,0.00547692,0.00012461,-0.00019579,-0.00024539,
 0.00188280,-0.00256205,-0.00028657,0.00146068,-0.00043961,0.00027522,-
 0.02635787,0.02336986,0.56861518,-0.02248912,-0.00930565,-0.00804158,-
 0.00005085,0.00032234,-0.00104706,-0.00050996,-0.00153863,0.00097428,0
 .00076609,0.00158822,-0.00020502,-0.00028091,0.00062145,0.00043947,0.0
 1486989,-0.01115073,-0.00535218,-0.11039222,0.04195687,0.01650692,-0.0
 0238912,-0.00467601,-0.00008664,-0.01378034,0.02277960,0.01055025,-0.0
 0567641,0.00929884,0.00235313,-0.16538363,-0.00029110,-0.04088578,0.48
 272969,-0.02802844,-0.00025712,-0.01372979,0.00156975,0.00262421,-0.00
 067846,-0.00359156,-0.00513955,0.00179491,0.00057975,0.00031454,-0.000
 14378,0.00060369,0.00042407,0.00030137,0.01268371,-0.03307568,-0.00782
 619,0.04232195,-0.14740361,-0.02643164,-0.00274729,-0.00236586,-0.0003
 7072,0.00153360,-0.00197602,-0.00134080,-0.00188377,0.00181706,0.00000
 988,0.00029092,-0.08223877,0.00087462,0.06054038,0.54544002,0.00662540
 ,-0.00280062,0.00547686,0.00019068,0.00032062,0.00062147,0.00188277,0.
 00256203,-0.00028655,0.00146066,0.00043962,0.00027522,0.00012461,0.000
 19579,-0.00024539,-0.00179955,0.00139814,0.00051194,0.01696631,-0.0264
 0134,-0.09097073,0.00079892,0.00168615,0.00125843,-0.00924947,0.016464
 96,0.00571172,0.01612100,-0.02773157,-0.00943166,-0.04088574,-0.000874
 64,-0.10347049,-0.02635742,-0.02337047,0.56861528,-0.00417947,-0.00091
 320,0.01919807,-0.00024624,0.00093818,-0.00067414,0.00038266,0.0005554
 3,0.00016370,-0.00123659,-0.00396827,0.00117397,-0.00004590,-0.0000371
 7,-0.00018146,0.00021327,0.00006646,0.00006004,0.00180477,-0.00063958,
 -0.00040893,0.00011554,0.00004184,0.00014575,0.00028432,-0.00040662,0.
 00025761,-0.00033984,0.00016797,0.00058560,-0.05131561,0.00272442,0.02
 652277,0.00183165,-0.00007814,-0.03345656,0.05917202,-0.00414579,-0.00
 062264,0.02795819,-0.00086784,0.00139816,0.00049501,0.00050827,0.00129
 147,-0.00039085,-0.00247310,-0.00411267,0.00195678,-0.00004187,0.00003
 195,-0.00036884,0.00012205,-0.00010671,-0.00016679,0.00019572,0.000245
 27,0.00100632,0.00006095,0.00002737,-0.00009743,-0.00004086,0.00001905
 ,-0.00005313,0.00012312,0.00020055,0.00004381,0.00261376,-0.05199963,-
 0.00512977,0.00023203,-0.00029618,-0.00071798,0.00166437,0.05291146,0.
 00157917,0.00000683,-0.00887071,0.00046248,-0.00056757,0.00040257,0.00
 042275,0.00013250,0.00105427,0.00076711,0.00175090,0.00093096,-0.00007
 575,0.00017561,0.00007362,-0.00044085,0.00047827,0.00013105,0.00104500
 ,-0.00036337,0.00054389,-0.00006181,0.00007179,-0.00010826,-0.00002995
 ,-0.00010636,0.00038560,-0.00076652,0.00051867,0.00044527,0.02690738,-
 0.00358298,-0.29854431,0.00006394,-0.00035215,-0.01585112,-0.02757606,
 0.00345163,0.32620010,0.01024445,-0.01643756,-0.00436861,-0.00243408,-
 0.00242675,0.00100588,0.00034928,0.00065314,-0.00039447,0.00100424,0.0
 0056703,-0.00031587,0.00066494,-0.00098433,0.00013163,-0.00012558,-0.0
 0096222,0.00000209,-0.00504377,-0.00178099,-0.00474982,0.00018518,0.00
 014428,-0.00003801,-0.00111388,0.00190312,0.00051633,0.00015394,-0.000
 15064,0.00007506,-0.11235924,0.10715358,0.03154281,-0.01557067,0.02608
 339,0.00951351,-0.00180554,0.00212062,0.00110895,0.12373710,0.01389877
 ,-0.02220657,-0.00609119,-0.00494076,-0.00278958,0.00146872,-0.0002714
 0,0.00029850,-0.00044078,0.00038429,0.00130211,0.00047047,0.00102687,-
 0.00127546,0.00024098,-0.00053510,0.00025290,-0.00000560,-0.00057157,0
 .00116408,0.00015091,0.00013214,0.00004287,-0.00017243,-0.00018158,0.0
 0014827,-0.00009505,0.00010096,0.00001794,-0.00007070,0.10680322,-0.22
 756627,-0.05296707,-0.00096064,0.00170011,0.00073162,-0.00022516,0.000
 15073,-0.00083455,-0.11525236,0.24794841,-0.00522369,0.01030349,0.0012
 7119,0.00181966,0.00162409,0.00036492,0.00004839,-0.00043535,-0.000058
 66,-0.00060676,-0.00001099,0.00070790,-0.00034300,0.00053263,0.0001275
 1,-0.00005442,-0.00017919,0.00003573,-0.00248089,-0.00062195,-0.000961
 96,-0.00001048,-0.00000016,-0.00008844,-0.00050104,0.00053824,0.000462
 10,-0.00039481,0.00013472,0.00013636,0.03211695,-0.05426667,-0.0673645
 7,-0.00793593,0.01341275,0.00369365,0.01662557,-0.02809745,-0.00762676
 ,-0.03459433,0.05700590,0.06835089,0.00180477,0.00063958,-0.00040890,0
 .00021327,-0.00006646,0.00006003,0.00028431,0.00040662,0.00025761,-0.0
 0033984,-0.00016797,0.00058559,0.00011554,-0.00004184,0.00014575,-0.00
 024623,-0.00093820,-0.00067415,-0.00417945,0.00091311,0.01919819,-0.00
 004590,0.00003717,-0.00018146,0.00038266,-0.00055545,0.00016370,-0.001
 23662,0.00396827,0.00117399,0.00183167,0.00007830,-0.03345655,-0.05131
 557,-0.00272456,0.02652261,-0.00585545,-0.00030606,-0.00318053,0.00122
 041,0.00019659,0.00074461,0.05917196,-0.00019572,0.00024527,-0.0010063
 1,-0.00012205,-0.00010670,0.00016680,0.00004086,0.00001905,0.00005313,
 -0.00012312,0.00020055,-0.00004381,-0.00006095,0.00002737,0.00009743,0
 .00086784,0.00139817,-0.00049503,0.00414573,-0.00062254,-0.02795809,0.
 00004187,0.00003196,0.00036883,-0.00050827,0.00129146,0.00039086,0.002
 47312,-0.00411264,-0.00195680,-0.00023202,-0.00029619,0.00071792,-0.00
 261390,-0.05199966,0.00513104,0.00030605,0.00086179,-0.00038891,-0.000
 23461,0.00000003,0.00027841,-0.00166420,0.05291147,0.00104498,0.000363
 37,0.00054389,-0.00044086,-0.00047828,0.00013106,-0.00002995,0.0001063
 5,0.00038559,-0.00076651,-0.00051867,0.00044526,-0.00006181,-0.0000717
 9,-0.00010826,0.00046249,0.00056759,0.00040258,0.00157920,-0.00000681,
 -0.00887087,-0.00007575,-0.00017561,0.00007363,0.00042275,-0.00013249,
 0.00105426,0.00076714,-0.00175092,0.00093094,0.00006394,0.00035222,-0.
 01585107,0.02690722,0.00358425,-0.29854446,-0.00318053,0.00038890,0.00
 028547,-0.00022532,0.00039032,0.00054837,-0.02757592,-0.00345299,0.326
 20025,-0.00504375,0.00178099,-0.00474982,-0.00012559,0.00096222,0.0000
 0209,-0.00111388,-0.00190312,0.00051632,0.00015393,0.00015063,0.000075
 06,0.00018518,-0.00014428,-0.00003801,-0.00243410,0.00242676,0.0010059
 2,0.01024443,0.01643768,-0.00436859,0.00066494,0.00098434,0.00013163,0
 .00034929,-0.00065314,-0.00039447,0.00100423,-0.00056704,-0.00031587,-
 0.01557058,-0.02608350,0.00951341,-0.11235850,-0.10715338,0.03154225,0
 .00122041,0.00023461,-0.00022531,0.00089323,0.00039571,0.00079015,-0.0
 0180553,-0.00212061,0.00110893,0.12373629,0.00057156,0.00116408,-0.000
 15092,0.00053510,0.00025290,0.00000560,0.00018157,0.00014827,0.0000950
 5,-0.00010096,0.00001794,0.00007070,-0.00013214,0.00004287,0.00017243,
 0.00494074,-0.00278956,-0.00146876,-0.01389863,-0.02220654,0.00609112,
 -0.00102686,-0.00127545,-0.00024097,0.00027140,0.00029851,0.00044079,-
 0.00038429,0.00130210,-0.00047047,0.00096061,0.00170007,-0.00073160,-0
 .10680303,-0.22756758,0.05296663,-0.00019659,0.00000003,-0.00039032,-0
 .00039571,0.00081193,-0.00021845,0.00022509,0.00015060,0.00083458,0.11
 525213,0.24794981,-0.00248089,0.00062196,-0.00096196,-0.00005442,0.000
 17919,0.00003574,-0.00050104,-0.00053824,0.00046209,-0.00039481,-0.000
 13473,0.00013636,-0.00001048,0.00000016,-0.00008844,0.00181970,-0.0016
 2409,0.00036491,-0.00522372,-0.01030359,0.00127119,-0.00034300,-0.0005
 3263,0.00012752,0.00004838,0.00043536,-0.00005865,-0.00060676,0.000011
 00,0.00070789,-0.00793589,-0.01341278,0.00369359,0.03211639,0.05426621
 ,-0.06736420,0.00074461,-0.00027841,0.00054837,0.00079015,0.00021846,0
 .00040178,0.01662546,0.02809753,-0.00762663,-0.03459369,-0.05700541,0.
 06835046\\0.00000767,-0.00000024,-0.00000007,-0.00002713,-0.00000989,-
 0.00000255,-0.00000432,0.00000022,0.00000445,-0.00000981,0.00000397,0.
 00001271,0.00000346,-0.00000510,-0.00000598,0.00002703,-0.00000988,0.0
 0000237,-0.00000775,-0.00000002,0.00000023,-0.00000338,-0.00000506,0.0
 0000602,0.00000438,0.00000017,-0.00000439,0.00000980,0.00000388,-0.000
 01271,-0.00000938,0.00000884,-0.00000978,0.00000945,0.00000858,0.00000
 967,0.00000195,0.00000861,-0.00002318,-0.00000065,-0.00000640,-0.00000
 964,-0.00000195,0.00000866,0.00002322,0.00000065,-0.00000635,0.0000096
 4\\\@


 THE BEST WAY TO CONVINCE A FOOL THAT HE IS WRONG 
 IS TO LET HIM HAVE HIS OWN WAY.

                                         JOSH BILLINGS
 Job cpu time:       0 days  0 hours  0 minutes  0.9 seconds.
 Elapsed time:       0 days  0 hours  0 minutes 47.4 seconds.
 File lengths (MBytes):  RWF=     22 Int=      0 D2E=      0 Chk=      2 Scr=      2
 Normal termination of Gaussian 16 at Fri Apr 26 11:29:30 2024.
