 Entering Gaussian System, Link 0=/mlatom/software/Gaussian/g16-avx2/g16
 Input=gaussian.com
 Output=gaussian.log
 Initial command:
 /mlatom/software/Gaussian/g16-avx2/l1.exe "/mlatom/home/qhzhang/git/ts-analysis/calculations/C60/energy_barrier/da/da_opt_ub3lypd4_recalculate/da_react/Gau-187645.inp" -scrdir="/mlatom/home/qhzhang/git/ts-analysis/calculations/C60/energy_barrier/da/da_opt_ub3lypd4_recalculate/da_react/"
 Entering Link 1 = /mlatom/software/Gaussian/g16-avx2/l1.exe PID=    187646.
  
 Copyright (c) 1988,1990,1992,1993,1995,1998,2003,2009,2016,
            Gaussian, Inc.  All Rights Reserved.
  
 This is part of the Gaussian(R) 16 program.  It is based on
 the Gaussian(R) 09 system (copyright 2009, Gaussian, Inc.),
 the Gaussian(R) 03 system (copyright 2003, Gaussian, Inc.),
 the Gaussian(R) 98 system (copyright 1998, Gaussian, Inc.),
 the Gaussian(R) 94 system (copyright 1995, Gaussian, Inc.),
 the Gaussian 92(TM) system (copyright 1992, Gaussian, Inc.),
 the Gaussian 90(TM) system (copyright 1990, Gaussian, Inc.),
 the Gaussian 88(TM) system (copyright 1988, Gaussian, Inc.),
 the Gaussian 86(TM) system (copyright 1986, Carnegie Mellon
 University), and the Gaussian 82(TM) system (copyright 1983,
 Carnegie Mellon University). Gaussian is a federally registered
 trademark of Gaussian, Inc.
  
 This software contains proprietary and confidential information,
 including trade secrets, belonging to Gaussian, Inc.
  
 This software is provided under written license and may be
 used, copied, transmitted, or stored only in accord with that
 written license.
  
 The following legend is applicable only to US Government
 contracts under FAR:
  
                    RESTRICTED RIGHTS LEGEND
  
 Use, reproduction and disclosure by the US Government is
 subject to restrictions as set forth in subparagraphs (a)
 and (c) of the Commercial Computer Software - Restricted
 Rights clause in FAR 52.227-19.
  
 Gaussian, Inc.
 340 Quinnipiac St., Bldg. 40, Wallingford CT 06492
  
  
 ---------------------------------------------------------------
 Warning -- This program may not be used in any manner that
 competes with the business of Gaussian, Inc. or will provide
 assistance to any competitor of Gaussian, Inc.  The licensee
 of this program is prohibited from giving any competitor of
 Gaussian, Inc. access to this program.  By using this program,
 the user acknowledges that Gaussian, Inc. is engaged in the
 business of creating and licensing software in the field of
 computational chemistry and represents and warrants to the
 licensee that it is not a competitor of Gaussian, Inc. and that
 it will not use this program in any manner prohibited above.
 ---------------------------------------------------------------
  

 Cite this work as:
 Gaussian 16, Revision A.03,
 M. J. Frisch, G. W. Trucks, H. B. Schlegel, G. E. Scuseria, 
 M. A. Robb, J. R. Cheeseman, G. Scalmani, V. Barone, 
 G. A. Petersson, H. Nakatsuji, X. Li, M. Caricato, A. V. Marenich, 
 J. Bloino, B. G. Janesko, R. Gomperts, B. Mennucci, H. P. Hratchian, 
 J. V. Ortiz, A. F. Izmaylov, J. L. Sonnenberg, D. Williams-Young, 
 F. Ding, F. Lipparini, F. Egidi, J. Goings, B. Peng, A. Petrone, 
 T. Henderson, D. Ranasinghe, V. G. Zakrzewski, J. Gao, N. Rega, 
 G. Zheng, W. Liang, M. Hada, M. Ehara, K. Toyota, R. Fukuda, 
 J. Hasegawa, M. Ishida, T. Nakajima, Y. Honda, O. Kitao, H. Nakai, 
 T. Vreven, K. Throssell, J. A. Montgomery, Jr., J. E. Peralta, 
 F. Ogliaro, M. J. Bearpark, J. J. Heyd, E. N. Brothers, K. N. Kudin, 
 V. N. Staroverov, T. A. Keith, R. Kobayashi, J. Normand, 
 K. Raghavachari, A. P. Rendell, J. C. Burant, S. S. Iyengar, 
 J. Tomasi, M. Cossi, J. M. Millam, M. Klene, C. Adamo, R. Cammi, 
 J. W. Ochterski, R. L. Martin, K. Morokuma, O. Farkas, 
 J. B. Foresman, and D. J. Fox, Gaussian, Inc., Wallingford CT, 2016.
 
 ******************************************
 Gaussian 16:  ES64L-G16RevA.03 25-Dec-2016
                24-Apr-2024 
 ******************************************
 %nproc=1
 Will use up to    1 processors via shared memory.
 ----------------------------------------------------------------------
 #p freq external='/mlatom/software/miniconda3/bin/python /mlatom/softw
 are/mlatom/mlatom/interfaces/gaussian_interface.py model_predict_kwarg
 s'
 ----------------------------------------------------------------------
 1/10=4,18=10,30=1,38=1/1,3;
 2/12=2,17=6,18=5,40=1/2;
 3/11=9,25=1,30=1,41=9900000,43=2,71=2,140=1/1;
 4/20=17,22=2,24=3,113=1,114=1/2;
 6/7=2,8=2,9=2,10=2/1;
 7/8=1,25=1,44=-1/16;
 1/10=4,18=10,30=1/3;
 99//99;
 Leave Link    1 at Wed Apr 24 10:34:45 2024, MaxMem=           0 cpu:               0.0 elap:               0.0
 (Enter /mlatom/software/Gaussian/g16-avx2/l101.exe)
 ------------------------------------
 b38713fe-6b90-459c-9f9a-bcabe47b7db2
 ------------------------------------
 Symbolic Z-matrix:
 Charge =  0 Multiplicity = 1
 C                    -0.70144   1.50048   0.63637 
 C                    -1.41191   0.94038  -0.35116 
 H                    -0.13791   0.90317   1.34762 
 H                    -0.64397   2.57917   0.75 
 H                    -1.90527   1.58927  -1.0753 
 C                    -1.57687  -0.5028   -0.57183 
 C                    -1.57893  -1.44153   0.38387 
 H                    -1.73097  -0.8101   -1.60655 
 H                    -1.68933  -2.49503   0.14406 
 H                    -1.485    -1.18537   1.43613 
 C                     2.61391   0.39397  -0.28994 
 C                     2.28752  -0.83908   0.09266 
 H                     3.6342    0.76564  -0.22338 
 H                     1.86928   1.08107  -0.68274 
 H                     1.26697  -1.20616   0.02103 
 H                     3.02829  -1.53016   0.48933 
 
 ITRead=  0  0  0  0  0  0  0  0  0  0  0  0  0  0  0  0
 MicOpt= -1 -1 -1 -1 -1 -1 -1 -1 -1 -1 -1 -1 -1 -1 -1 -1
 NAtoms=     16 NQM=       16 NQMF=       0 NMMI=      0 NMMIF=      0
                NMic=       0 NMicF=      0.
                    Isotopes and Nuclear Properties:
 (Nuclear quadrupole moments (NQMom) in fm**2, nuclear magnetic moments (NMagM)
  in nuclear magnetons)

  Atom         1           2           3           4           5           6           7           8           9          10
 IAtWgt=          12          12           1           1           1          12          12           1           1           1
 AtmWgt=  12.0000000  12.0000000   1.0078250   1.0078250   1.0078250  12.0000000  12.0000000   1.0078250   1.0078250   1.0078250
 NucSpn=           0           0           1           1           1           0           0           1           1           1
 AtZEff=  -0.0000000  -0.0000000  -0.0000000  -0.0000000  -0.0000000  -0.0000000  -0.0000000  -0.0000000  -0.0000000  -0.0000000
 NQMom=    0.0000000   0.0000000   0.0000000   0.0000000   0.0000000   0.0000000   0.0000000   0.0000000   0.0000000   0.0000000
 NMagM=    0.0000000   0.0000000   2.7928460   2.7928460   2.7928460   0.0000000   0.0000000   2.7928460   2.7928460   2.7928460
 AtZNuc=   6.0000000   6.0000000   1.0000000   1.0000000   1.0000000   6.0000000   6.0000000   1.0000000   1.0000000   1.0000000

  Atom        11          12          13          14          15          16
 IAtWgt=          12          12           1           1           1           1
 AtmWgt=  12.0000000  12.0000000   1.0078250   1.0078250   1.0078250   1.0078250
 NucSpn=           0           0           1           1           1           1
 AtZEff=  -0.0000000  -0.0000000  -0.0000000  -0.0000000  -0.0000000  -0.0000000
 NQMom=    0.0000000   0.0000000   0.0000000   0.0000000   0.0000000   0.0000000
 NMagM=    0.0000000   0.0000000   2.7928460   2.7928460   2.7928460   2.7928460
 AtZNuc=   6.0000000   6.0000000   1.0000000   1.0000000   1.0000000   1.0000000
 Leave Link  101 at Wed Apr 24 10:34:51 2024, MaxMem=   104857600 cpu:               0.1 elap:               0.6
 (Enter /mlatom/software/Gaussian/g16-avx2/l103.exe)

 GradGradGradGradGradGradGradGradGradGradGradGradGradGradGradGradGradGrad
 Berny optimization.
 Initialization pass.
 Trust Radius=3.00D-01 FncErr=1.00D-07 GrdErr=1.00D-07 EigMax=2.50D+02 EigMin=1.00D-04
 Number of steps in this run=      2 maximum allowed number of steps=      2.
 GradGradGradGradGradGradGradGradGradGradGradGradGradGradGradGradGradGrad

 Leave Link  103 at Wed Apr 24 10:34:53 2024, MaxMem=   104857600 cpu:               0.0 elap:               0.2
 (Enter /mlatom/software/Gaussian/g16-avx2/l202.exe)
                          Input orientation:                          
 ---------------------------------------------------------------------
 Center     Atomic      Atomic             Coordinates (Angstroms)
 Number     Number       Type             X           Y           Z
 ---------------------------------------------------------------------
      1          6           0       -0.701436    1.500477    0.636375
      2          6           0       -1.411909    0.940377   -0.351162
      3          1           0       -0.137911    0.903169    1.347616
      4          1           0       -0.643972    2.579167    0.750002
      5          1           0       -1.905265    1.589265   -1.075301
      6          6           0       -1.576866   -0.502800   -0.571834
      7          6           0       -1.578928   -1.441532    0.383867
      8          1           0       -1.730974   -0.810099   -1.606551
      9          1           0       -1.689329   -2.495025    0.144061
     10          1           0       -1.485002   -1.185367    1.436128
     11          6           0        2.613906    0.393972   -0.289935
     12          6           0        2.287519   -0.839077    0.092655
     13          1           0        3.634201    0.765636   -0.223382
     14          1           0        1.869275    1.081066   -0.682739
     15          1           0        1.266974   -1.206163    0.021033
     16          1           0        3.028289   -1.530160    0.489334
 ---------------------------------------------------------------------
                    Distance matrix (angstroms):
                    1          2          3          4          5
     1  C    0.000000
     2  C    1.339296   0.000000
     3  H    1.086371   2.123748   0.000000
     4  H    1.086179   2.118471   1.849922   0.000000
     5  H    2.094498   1.090336   3.076491   2.429505   0.000000
     6  C    2.497852   1.469240   2.780580   3.480813   2.176709
     7  C    3.080449   2.498330   2.915983   4.144178   3.379556
     8  H    3.380744   2.177607   3.768320   4.268728   2.463647
     9  H    4.145159   3.481982   3.924686   5.216067   4.267892
    10  H    2.909869   2.778226   2.486859   3.917884   3.765964
    11  C    3.615784   4.063188   3.242430   4.058364   4.740088
    12  C    3.834448   4.129068   3.239299   4.550839   4.984015
    13  H    4.480727   5.050751   4.088494   4.747540   5.664787
    14  H    2.919679   3.300895   2.860557   3.257832   3.828776
    15  H    3.402820   3.452909   2.860560   4.302538   4.368005
    16  H    4.808039   5.150277   4.084430   5.517248   6.043084
                    6          7          8          9         10
     6  C    0.000000
     7  C    1.339621   0.000000
     8  H    1.090331   2.093702   0.000000
     9  H    2.119932   1.086068   2.430092   0.000000
    10  H    2.122792   1.087059   3.075585   1.851052   0.000000
    11  C    4.294909   4.626331   4.696940   5.201201   4.719603
    12  C    3.935493   3.923923   4.363075   4.308147   4.019546
    13  H    5.374529   5.693597   5.760312   6.253550   5.724213
    14  H    3.794315   4.403550   4.170339   5.112308   4.569189
    15  H    2.988919   2.878577   3.434179   3.227388   3.094559
    16  H    4.836218   4.609277   5.249934   4.827639   4.624402
                   11         12         13         14         15
    11  C    0.000000
    12  C    1.331658   0.000000
    13  H    1.087917   2.118616   0.000000
    14  H    1.086677   2.112608   1.850801   0.000000
    15  H    2.114559   1.086919   3.090548   2.467686   0.000000
    16  H    2.116899   1.087976   2.479067   3.087972   1.851084
                   16
    16  H    0.000000
 Stoichiometry    C6H10
 Framework group  C1[X(C6H10)]
 Deg. of freedom    42
 Full point group                 C1      NOp   1
 Largest Abelian subgroup         C1      NOp   1
 Largest concise Abelian subgroup C1      NOp   1
                         Standard orientation:                         
 ---------------------------------------------------------------------
 Center     Atomic      Atomic             Coordinates (Angstroms)
 Number     Number       Type             X           Y           Z
 ---------------------------------------------------------------------
      1          6           0       -0.701436    1.500477    0.636375
      2          6           0       -1.411909    0.940377   -0.351162
      3          1           0       -0.137911    0.903169    1.347616
      4          1           0       -0.643972    2.579167    0.750002
      5          1           0       -1.905265    1.589265   -1.075301
      6          6           0       -1.576866   -0.502800   -0.571834
      7          6           0       -1.578928   -1.441532    0.383867
      8          1           0       -1.730974   -0.810099   -1.606551
      9          1           0       -1.689329   -2.495025    0.144061
     10          1           0       -1.485002   -1.185367    1.436128
     11          6           0        2.613906    0.393972   -0.289935
     12          6           0        2.287519   -0.839077    0.092655
     13          1           0        3.634201    0.765636   -0.223382
     14          1           0        1.869275    1.081066   -0.682739
     15          1           0        1.266974   -1.206163    0.021033
     16          1           0        3.028289   -1.530160    0.489334
 ---------------------------------------------------------------------
 Rotational constants (GHZ):           4.1398513           1.7052251           1.3507173
 Leave Link  202 at Wed Apr 24 10:34:54 2024, MaxMem=   104857600 cpu:               0.0 elap:               0.3
 (Enter /mlatom/software/Gaussian/g16-avx2/l301.exe)
 Standard basis: STO-3G (5D, 7F)
 Ernie: Thresh=  0.10000D-02 Tol=  0.10000D-05 Strict=F.
 There are    40 symmetry adapted cartesian basis functions of A   symmetry.
 There are    40 symmetry adapted basis functions of A   symmetry.
    40 basis functions,   120 primitive gaussians,    40 cartesian basis functions
    23 alpha electrons       23 beta electrons
       nuclear repulsion energy       200.4795429245 Hartrees.
 IExCor=    0 DFT=F Ex=HF Corr=None ExCW=0 ScaHFX=  1.000000
 ScaDFX=  1.000000  1.000000  1.000000  1.000000 ScalE2=  1.000000  1.000000
 IRadAn=      5 IRanWt=     -1 IRanGd=            0 ICorTp=0 IEmpDi=  4
 NAtoms=   16 NActive=   16 NUniq=   16 SFac= 1.00D+00 NAtFMM=   60 NAOKFM=F Big=F
 Integral buffers will be    131072 words long.
 Raffenetti 1 integral format.
 Two-electron integral symmetry is turned on.
 Leave Link  301 at Wed Apr 24 10:34:55 2024, MaxMem=   104857600 cpu:               0.0 elap:               0.4
 (Enter /mlatom/software/Gaussian/g16-avx2/l402.exe)
 External calculation of energy, first and second derivatives.
 Running external command "/mlatom/software/miniconda3/bin/python /mlatom/software/mlatom/mlatom/interfaces/gaussian_interface.py model_predict_kwargs R"
         input file       "/mlatom/home/qhzhang/git/ts-analysis/calculations/C60/energy_barrier/da/da_opt_ub3lypd4_recalculate/da_react/Gau-187646.EIn"
         output file      "/mlatom/home/qhzhang/git/ts-analysis/calculations/C60/energy_barrier/da/da_opt_ub3lypd4_recalculate/da_react/Gau-187646.EOu"
         message file     "/mlatom/home/qhzhang/git/ts-analysis/calculations/C60/energy_barrier/da/da_opt_ub3lypd4_recalculate/da_react/Gau-187646.EMs"
         fchk file        "/mlatom/home/qhzhang/git/ts-analysis/calculations/C60/energy_barrier/da/da_opt_ub3lypd4_recalculate/da_react/Gau-187646.EFC"
         mat. el file     "/mlatom/home/qhzhang/git/ts-analysis/calculations/C60/energy_barrier/da/da_opt_ub3lypd4_recalculate/da_react/Gau-187646.EUF"
 Recovered energy= -234.591378031     dipole=     -0.347400000000      0.066500000000     -0.082100000000
 Energy=    -234.591378     NIter=   0.
 Dipole moment=      -0.347400       0.066500      -0.082100
 Leave Link  402 at Wed Apr 24 10:35:30 2024, MaxMem=   104857600 cpu:               0.1 elap:              35.1
 (Enter /mlatom/software/Gaussian/g16-avx2/l601.exe)
 Leave Link  601 at Wed Apr 24 10:35:31 2024, MaxMem=   104857600 cpu:               0.0 elap:               0.5
 (Enter /mlatom/software/Gaussian/g16-avx2/l716.exe)
 Dipole        =-3.47400000D-01 6.65000000D-02-8.21000000D-02
 Full mass-weighted force constant matrix:
 Low frequencies ---   -1.1817   -0.2059   -0.0624    0.1920    4.1837    7.3684
 Low frequencies ---   25.0839   33.1881   50.1662
 Diagonal vibrational polarizability:
        0.0000000       0.0000000       0.0000000
 Harmonic frequencies (cm**-1), IR intensities (KM/Mole), Raman scattering
 activities (A**4/AMU), depolarization ratios for plane and unpolarized
 incident light, reduced masses (AMU), force constants (mDyne/A),
 and normal coordinates:
                      1                      2                      3
                      A                      A                      A
 Frequencies --     25.0743                33.1506                50.1577
 Red. masses --      2.7011                 2.2670                 2.4993
 Frc consts  --      0.0010                 0.0015                 0.0037
 IR Inten    --      0.0000                 0.0000                 0.0000
  Atom  AN      X      Y      Z        X      Y      Z        X      Y      Z
     1   6    -0.08   0.08   0.03     0.03   0.04  -0.12     0.16  -0.11  -0.02
     2   6    -0.08   0.06   0.05    -0.15   0.02   0.02    -0.02  -0.01   0.05
     3   1     0.03   0.09  -0.04     0.20   0.05  -0.24     0.22  -0.18  -0.13
     4   1    -0.18   0.08   0.10     0.00   0.04  -0.11     0.25  -0.12   0.02
     5   1    -0.20   0.06   0.12    -0.33   0.01   0.14    -0.07   0.06   0.15
     6   6     0.06   0.06  -0.03    -0.13   0.02   0.02    -0.14   0.01  -0.01
     7   6     0.19   0.01  -0.08     0.15  -0.01  -0.00    -0.05  -0.05  -0.07
     8   1     0.05   0.10  -0.04    -0.37   0.04   0.05    -0.32   0.09  -0.01
     9   1     0.28   0.01  -0.13     0.14  -0.01  -0.01    -0.15  -0.02  -0.12
    10   1     0.20  -0.04  -0.07     0.40  -0.04  -0.02     0.13  -0.12  -0.07
    11   6    -0.14  -0.12  -0.12     0.07  -0.01   0.15     0.07   0.02  -0.11
    12   6     0.06  -0.09   0.14     0.00  -0.06  -0.07    -0.03   0.13   0.17
    13   1    -0.20   0.07  -0.19     0.06  -0.01   0.40     0.07  -0.00  -0.09
    14   1    -0.25  -0.32  -0.26     0.15   0.03   0.07     0.14  -0.06  -0.38
    15   1     0.12  -0.27   0.21     0.02  -0.05  -0.32    -0.03   0.15   0.14
    16   1     0.17   0.12   0.30    -0.08  -0.10   0.01    -0.10   0.21   0.45
                      4                      5                      6
                      A                      A                      A
 Frequencies --     81.5719                91.3581               134.8764
 Red. masses --      3.6501                 2.1190                 1.1850
 Frc consts  --      0.0143                 0.0104                 0.0127
 IR Inten    --      0.0000                 0.0000                 0.0000
  Atom  AN      X      Y      Z        X      Y      Z        X      Y      Z
     1   6    -0.14   0.02   0.01    -0.11   0.04   0.04     0.06  -0.01  -0.04
     2   6    -0.15   0.02   0.01    -0.05   0.00   0.02     0.00   0.00  -0.01
     3   1    -0.11   0.01  -0.02    -0.09   0.08   0.05     0.07  -0.02  -0.05
     4   1    -0.17   0.01   0.04    -0.20   0.05   0.06     0.09  -0.01  -0.05
     5   1    -0.19   0.02   0.04    -0.08  -0.03   0.01    -0.01   0.01   0.01
     6   6    -0.11   0.02  -0.01     0.07  -0.01  -0.00    -0.03   0.00  -0.01
     7   6    -0.16   0.02  -0.01     0.09  -0.02  -0.01     0.05  -0.01  -0.02
     8   1    -0.04   0.02  -0.02     0.14  -0.01  -0.02    -0.13   0.02   0.00
     9   1    -0.13   0.02  -0.02     0.18  -0.02  -0.03     0.02  -0.00  -0.03
    10   1    -0.24   0.02  -0.00     0.01  -0.02  -0.01     0.15  -0.03  -0.02
    11   6     0.23  -0.03  -0.04     0.18  -0.07  -0.06    -0.06   0.01   0.03
    12   6     0.32  -0.04   0.03    -0.16   0.05   0.02    -0.02   0.00   0.04
    13   1     0.25  -0.05  -0.31     0.30  -0.38  -0.20     0.02  -0.12  -0.42
    14   1     0.12  -0.02   0.18     0.34   0.14  -0.01    -0.17   0.15   0.48
    15   1     0.29  -0.02   0.30    -0.28   0.35   0.15    -0.09   0.13   0.48
    16   1     0.42  -0.06  -0.19    -0.33  -0.16  -0.03     0.10  -0.13  -0.42
                      7                      8                      9
                      A                      A                      A
 Frequencies --    171.3530               279.4538               479.1069
 Red. masses --      1.5725                 2.5080                 1.3392
 Frc consts  --      0.0272                 0.1154                 0.1811
 IR Inten    --      0.0000                 0.0000                 0.0000
  Atom  AN      X      Y      Z        X      Y      Z        X      Y      Z
     1   6     0.10  -0.00  -0.07     0.03   0.24  -0.04     0.02  -0.04  -0.04
     2   6    -0.10  -0.00   0.07     0.06  -0.01   0.08    -0.08   0.07  -0.02
     3   1     0.41  -0.01  -0.33     0.05   0.45   0.13    -0.31  -0.20   0.09
     4   1    -0.06  -0.00   0.05    -0.02   0.27  -0.34     0.46  -0.05  -0.15
     5   1    -0.42  -0.01   0.27     0.07  -0.12  -0.03     0.22   0.07  -0.23
     6   6     0.12  -0.01  -0.01     0.01  -0.02   0.10    -0.04   0.05   0.09
     7   6    -0.08   0.00  -0.00    -0.08  -0.21  -0.09     0.03  -0.05   0.00
     8   1     0.45  -0.03  -0.06    -0.04   0.11   0.06     0.33   0.01   0.04
     9   1     0.12  -0.02  -0.01    -0.23  -0.14  -0.34     0.44  -0.04  -0.20
    10   1    -0.43   0.05   0.02    -0.02  -0.48  -0.03    -0.32  -0.19   0.07
    11   6    -0.02   0.01   0.02    -0.00  -0.00   0.00     0.00  -0.00   0.00
    12   6    -0.02   0.00  -0.00     0.00  -0.00  -0.00     0.00  -0.00  -0.00
    13   1    -0.02  -0.00   0.00    -0.00   0.01   0.01    -0.00   0.00   0.01
    14   1    -0.02   0.02   0.05    -0.00  -0.00  -0.01    -0.00  -0.00  -0.01
    15   1    -0.02   0.01   0.02     0.01  -0.01  -0.01     0.00   0.00  -0.00
    16   1    -0.01  -0.01  -0.04     0.00   0.00   0.00     0.00   0.00   0.01
                     10                     11                     12
                      A                      A                      A
 Frequencies --    617.3499               757.5878               841.3443
 Red. masses --      1.7501                 1.6609                 1.0417
 Frc consts  --      0.3930                 0.5617                 0.4345
 IR Inten    --      0.0000                 0.0000                 0.0000
  Atom  AN      X      Y      Z        X      Y      Z        X      Y      Z
     1   6     0.04   0.04   0.03     0.01   0.02   0.02     0.00   0.00  -0.00
     2   6    -0.02  -0.10   0.13     0.15   0.00  -0.09    -0.00   0.00  -0.00
     3   1    -0.03   0.31   0.32     0.28   0.10  -0.13    -0.00  -0.00   0.00
     4   1     0.14   0.09  -0.43    -0.50   0.02   0.29     0.00   0.00   0.01
     5   1     0.23  -0.01   0.04    -0.07   0.07   0.11    -0.01   0.00   0.00
     6   6    -0.11  -0.05  -0.12    -0.17   0.01   0.03     0.00  -0.00  -0.00
     7   6     0.02   0.05  -0.04     0.01  -0.03   0.01    -0.00  -0.00   0.00
     8   1     0.14   0.03  -0.18     0.11  -0.09   0.01    -0.00  -0.00  -0.00
     9   1     0.38  -0.05   0.25     0.58  -0.06  -0.11     0.01  -0.00   0.00
    10   1    -0.18   0.40  -0.10    -0.31  -0.08   0.06     0.01  -0.00  -0.00
    11   6     0.00  -0.00   0.00    -0.00   0.00   0.00     0.04  -0.01   0.01
    12   6     0.00  -0.00  -0.00     0.00  -0.00  -0.00     0.04  -0.01   0.01
    13   1    -0.00   0.01   0.01    -0.00   0.00   0.00    -0.12   0.45  -0.18
    14   1    -0.00  -0.01  -0.00    -0.00  -0.00  -0.00    -0.33  -0.36   0.07
    15   1    -0.00   0.00  -0.00    -0.00   0.00   0.00    -0.11   0.44  -0.19
    16   1    -0.00  -0.00   0.01    -0.00  -0.00   0.00    -0.34  -0.37   0.07
                     13                     14                     15
                      A                      A                      A
 Frequencies --    894.5000               935.1430               938.9207
 Red. masses --      2.0504                 1.3859                 1.3685
 Frc consts  --      0.9666                 0.7141                 0.7108
 IR Inten    --      0.0000                 0.0000                 0.0000
  Atom  AN      X      Y      Z        X      Y      Z        X      Y      Z
     1   6     0.04   0.13   0.03     0.02  -0.01  -0.02    -0.13   0.01   0.10
     2   6    -0.01   0.17  -0.02    -0.01  -0.01   0.01     0.05   0.01  -0.04
     3   1    -0.19  -0.25  -0.08    -0.10   0.01   0.09     0.54   0.00  -0.43
     4   1     0.30   0.07   0.48    -0.09  -0.01   0.03     0.56   0.02  -0.37
     5   1    -0.08   0.14  -0.01     0.00  -0.02  -0.00    -0.04   0.01   0.02
     6   6    -0.03  -0.15  -0.08     0.07   0.00  -0.00     0.00  -0.01  -0.00
     7   6    -0.03  -0.14   0.01    -0.17   0.03   0.01    -0.03  -0.01   0.00
     8   1     0.04  -0.11  -0.10    -0.05   0.01   0.01    -0.01  -0.01  -0.00
     9   1     0.06  -0.26   0.50     0.67  -0.03  -0.09     0.14  -0.03   0.01
    10   1     0.12   0.28  -0.10     0.69  -0.08  -0.04     0.11  -0.00  -0.01
    11   6    -0.00  -0.00  -0.00    -0.00  -0.00  -0.01    -0.00   0.01   0.01
    12   6    -0.00   0.00   0.00    -0.00   0.00   0.01     0.00  -0.00  -0.00
    13   1     0.00  -0.01   0.01    -0.00  -0.01   0.02     0.01  -0.02  -0.06
    14   1     0.01   0.01   0.00     0.00   0.01   0.01     0.01  -0.02  -0.06
    15   1     0.00  -0.01  -0.00     0.01  -0.01  -0.02     0.00  -0.01  -0.01
    16   1     0.01   0.01  -0.00     0.01  -0.00  -0.02     0.00  -0.01  -0.02
                     16                     17                     18
                      A                      A                      A
 Frequencies --    963.1307               984.3451              1024.2588
 Red. masses --      1.4936                 1.1659                 1.1095
 Frc consts  --      0.8163                 0.6656                 0.6858
 IR Inten    --      0.0000                 0.0000                 0.0000
  Atom  AN      X      Y      Z        X      Y      Z        X      Y      Z
     1   6    -0.01   0.00   0.01    -0.01   0.00   0.01    -0.00  -0.02   0.01
     2   6     0.00  -0.00  -0.00     0.00  -0.00  -0.00     0.05   0.02  -0.04
     3   1     0.04  -0.00  -0.03     0.02  -0.00  -0.02    -0.23   0.06   0.26
     4   1     0.04   0.00  -0.03     0.04   0.00  -0.02     0.13  -0.00  -0.21
     5   1    -0.00  -0.00   0.00    -0.02   0.00   0.01    -0.48   0.10   0.39
     6   6    -0.00   0.00   0.00     0.00  -0.00  -0.00    -0.06  -0.01  -0.01
     7   6     0.00  -0.00  -0.00    -0.00   0.00   0.00     0.01   0.02   0.01
     8   1     0.01   0.00  -0.00    -0.00  -0.00   0.00     0.50  -0.17  -0.04
     9   1    -0.02   0.00  -0.00     0.01   0.00  -0.00    -0.19   0.06  -0.08
    10   1    -0.02   0.00   0.00     0.02  -0.00   0.00     0.27  -0.12   0.02
    11   6     0.03  -0.05  -0.15     0.01  -0.02  -0.05    -0.00   0.00   0.00
    12   6    -0.02   0.04   0.12     0.02  -0.03  -0.10    -0.00   0.00   0.00
    13   1    -0.11   0.20   0.56    -0.07   0.13   0.36     0.00  -0.01  -0.00
    14   1    -0.10   0.18   0.50    -0.08   0.15   0.41     0.00  -0.00  -0.01
    15   1     0.07  -0.12  -0.32    -0.10   0.18   0.51     0.00  -0.00  -0.01
    16   1     0.08  -0.13  -0.38    -0.11   0.19   0.53     0.00  -0.00  -0.01
                     19                     20                     21
                      A                      A                      A
 Frequencies --   1035.9371              1077.4707              1079.0747
 Red. masses --      1.0862                 1.3740                 1.0579
 Frc consts  --      0.6868                 0.9398                 0.7257
 IR Inten    --      0.0000                 0.0000                 0.0000
  Atom  AN      X      Y      Z        X      Y      Z        X      Y      Z
     1   6     0.00  -0.01  -0.00    -0.03   0.03  -0.04    -0.01   0.01  -0.01
     2   6    -0.05   0.01   0.03     0.06  -0.09   0.02     0.02  -0.03   0.01
     3   1     0.27   0.04  -0.18    -0.17  -0.24  -0.15    -0.06  -0.08  -0.05
     4   1    -0.20  -0.01   0.10     0.12  -0.01   0.17     0.04  -0.01   0.06
     5   1     0.43   0.04  -0.27    -0.24  -0.41  -0.06    -0.08  -0.15  -0.03
     6   6    -0.06   0.01   0.01    -0.03   0.07   0.08    -0.01   0.03   0.03
     7   6     0.00  -0.01   0.00    -0.00  -0.01  -0.06    -0.00  -0.01  -0.02
     8   1     0.60  -0.04  -0.07     0.20   0.43  -0.06     0.08   0.16  -0.02
     9   1    -0.25   0.01   0.04     0.01  -0.06   0.20     0.00  -0.03   0.08
    10   1     0.38  -0.02  -0.03     0.07   0.29  -0.14     0.04   0.11  -0.05
    11   6     0.00   0.00  -0.00     0.00  -0.00  -0.00    -0.00   0.00   0.00
    12   6     0.00  -0.00  -0.00    -0.00   0.00   0.00     0.00  -0.00  -0.01
    13   1    -0.00   0.00  -0.00     0.04  -0.08  -0.20    -0.08   0.16   0.42
    14   1    -0.00   0.00   0.01    -0.04   0.07   0.21     0.09  -0.16  -0.45
    15   1    -0.00   0.00   0.00     0.05  -0.08  -0.23    -0.10   0.17   0.47
    16   1    -0.00   0.00   0.01    -0.04   0.07   0.19     0.08  -0.15  -0.40
                     22                     23                     24
                      A                      A                      A
 Frequencies --   1115.2719              1253.2896              1324.2957
 Red. masses --      1.5798                 1.5146                 1.2807
 Frc consts  --      1.1578                 1.4017                 1.3233
 IR Inten    --      0.0000                 0.0000                 0.0000
  Atom  AN      X      Y      Z        X      Y      Z        X      Y      Z
     1   6    -0.00  -0.12  -0.01    -0.00  -0.00   0.00    -0.05   0.02  -0.07
     2   6    -0.01   0.09  -0.06    -0.00   0.00   0.00     0.04  -0.03   0.04
     3   1     0.13   0.26   0.19     0.00  -0.00  -0.00    -0.14  -0.21  -0.20
     4   1    -0.31  -0.06  -0.40     0.00   0.00  -0.00    -0.03   0.00  -0.03
     5   1     0.01   0.30   0.12     0.00   0.00   0.00     0.23   0.44   0.34
     6   6     0.04   0.06   0.07     0.00  -0.00   0.00     0.00  -0.01  -0.07
     7   6    -0.02  -0.11  -0.03     0.00  -0.00  -0.00     0.01  -0.01   0.09
     8   1    -0.03   0.31   0.01    -0.00  -0.00   0.00     0.02   0.57  -0.25
     9   1     0.00  -0.22   0.45    -0.01   0.00   0.00    -0.00  -0.01   0.05
    10   1     0.02   0.32  -0.13    -0.00   0.00  -0.00    -0.02  -0.30   0.17
    11   6     0.00  -0.00  -0.00    -0.14   0.03  -0.04    -0.00  -0.00   0.00
    12   6    -0.00  -0.00  -0.00     0.14  -0.03   0.04    -0.00   0.00  -0.00
    13   1    -0.00   0.00  -0.01     0.02  -0.46   0.17    -0.00   0.00  -0.00
    14   1    -0.00   0.00   0.02     0.24   0.41  -0.10     0.00  -0.00  -0.00
    15   1     0.00  -0.00  -0.01    -0.02   0.45  -0.16    -0.00   0.00   0.00
    16   1    -0.00   0.00   0.01    -0.26  -0.42   0.10    -0.00  -0.00  -0.00
                     25                     26                     27
                      A                      A                      A
 Frequencies --   1358.7369              1396.8315              1458.9564
 Red. masses --      1.3024                 1.2301                 1.1617
 Frc consts  --      1.4167                 1.4141                 1.4569
 IR Inten    --      0.0000                 0.0000                 0.0000
  Atom  AN      X      Y      Z        X      Y      Z        X      Y      Z
     1   6     0.05  -0.03   0.06     0.00  -0.00   0.00     0.01   0.00   0.02
     2   6    -0.04   0.05  -0.06     0.00   0.00   0.00     0.03   0.04   0.06
     3   1     0.15   0.24   0.22    -0.00  -0.00   0.00    -0.13  -0.36  -0.19
     4   1     0.02  -0.01   0.02    -0.00   0.00  -0.00    -0.27   0.04  -0.37
     5   1    -0.26  -0.43  -0.35    -0.01  -0.01  -0.00    -0.07  -0.23  -0.11
     6   6    -0.01  -0.02  -0.08    -0.00  -0.00  -0.00    -0.01   0.06  -0.05
     7   6     0.01  -0.00   0.08    -0.00   0.00   0.00    -0.00   0.01  -0.03
     8   1     0.03   0.53  -0.26    -0.00   0.00  -0.00    -0.01  -0.28   0.05
     9   1     0.00  -0.00   0.04     0.00  -0.00   0.00     0.03  -0.12   0.48
    10   1    -0.01  -0.31   0.16     0.00  -0.01   0.00    -0.03  -0.43   0.10
    11   6    -0.00  -0.00   0.00     0.02   0.09  -0.03    -0.00  -0.00   0.00
    12   6     0.00   0.00  -0.00    -0.03  -0.09   0.03     0.00   0.00  -0.00
    13   1     0.00  -0.01   0.00    -0.08   0.46  -0.18    -0.00   0.00   0.00
    14   1    -0.00  -0.00   0.00     0.30   0.40  -0.08     0.00  -0.00  -0.00
    15   1    -0.00   0.01  -0.00     0.07  -0.45   0.18    -0.00   0.01   0.00
    16   1     0.01   0.01  -0.00    -0.29  -0.38   0.08     0.01   0.01  -0.00
                     28                     29                     30
                      A                      A                      A
 Frequencies --   1486.9706              1492.3556              1694.6489
 Red. masses --      1.2722                 1.1132                 4.6979
 Frc consts  --      1.6574                 1.4607                 7.9490
 IR Inten    --      0.0000                 0.0000                 0.0000
  Atom  AN      X      Y      Z        X      Y      Z        X      Y      Z
     1   6    -0.02   0.01  -0.03     0.00  -0.00   0.00     0.13   0.12   0.18
     2   6    -0.03  -0.09  -0.04     0.00   0.01   0.00    -0.13  -0.21  -0.17
     3   1     0.12   0.37   0.18    -0.01  -0.03  -0.01    -0.09  -0.41  -0.05
     4   1     0.33  -0.05   0.43    -0.02   0.00  -0.03    -0.12   0.20  -0.22
     5   1     0.06   0.14   0.11    -0.00  -0.01  -0.01    -0.02   0.17   0.06
     6   6     0.01   0.10  -0.01    -0.00  -0.01   0.00     0.02   0.29  -0.15
     7   6    -0.00   0.01  -0.03     0.00  -0.00   0.00    -0.01  -0.20   0.18
     8   1     0.01  -0.16   0.07    -0.00   0.01  -0.01     0.03  -0.21  -0.03
     9   1     0.02  -0.13   0.50    -0.00   0.01  -0.05    -0.07  -0.11  -0.32
    10   1    -0.02  -0.39   0.08     0.00   0.04  -0.01     0.09   0.42   0.05
    11   6    -0.00  -0.01   0.00    -0.02  -0.07   0.02     0.00   0.01  -0.00
    12   6    -0.00  -0.01   0.00    -0.01  -0.06   0.02    -0.00  -0.01   0.00
    13   1    -0.02   0.04  -0.02    -0.17   0.42  -0.18     0.01  -0.01   0.01
    14   1     0.04   0.03  -0.00     0.36   0.33  -0.04    -0.02  -0.01  -0.00
    15   1    -0.01   0.04  -0.02    -0.17   0.44  -0.19    -0.02   0.02  -0.01
    16   1     0.03   0.03  -0.00     0.37   0.33  -0.04     0.02   0.01  -0.00
                     31                     32                     33
                      A                      A                      A
 Frequencies --   1716.5754              1718.4693              3143.7401
 Red. masses --      3.0975                 3.6785                 1.0842
 Frc consts  --      5.3776                 6.4004                 6.3132
 IR Inten    --      0.0000                 0.0000                 0.0000
  Atom  AN      X      Y      Z        X      Y      Z        X      Y      Z
     1   6     0.01   0.00   0.01    -0.13  -0.11  -0.18     0.00   0.01   0.00
     2   6    -0.01  -0.01  -0.01     0.13   0.12   0.20     0.03  -0.03   0.04
     3   1    -0.00  -0.01   0.00     0.02   0.36   0.05    -0.02   0.02  -0.02
     4   1    -0.00   0.01  -0.01     0.19  -0.19   0.21    -0.00  -0.12  -0.01
     5   1    -0.00   0.01   0.00    -0.04  -0.38  -0.09    -0.32   0.42  -0.47
     6   6     0.00   0.01  -0.00    -0.01   0.18  -0.17    -0.01  -0.01  -0.06
     7   6    -0.00  -0.00   0.00    -0.00  -0.16   0.16     0.00   0.01   0.00
     8   1     0.00  -0.00  -0.00    -0.02  -0.38  -0.03     0.10   0.19   0.65
     9   1    -0.00  -0.00  -0.01    -0.01  -0.08  -0.31    -0.01  -0.11  -0.03
    10   1     0.00   0.01   0.00     0.02   0.33   0.07     0.00   0.01   0.03
    11   6    -0.08  -0.28   0.09    -0.00  -0.00   0.00     0.00   0.00   0.00
    12   6     0.07   0.29  -0.09     0.00   0.00  -0.00     0.00  -0.00   0.00
    13   1    -0.30   0.29  -0.16    -0.00  -0.01   0.00    -0.00   0.00  -0.00
    14   1     0.42   0.16   0.03    -0.00  -0.00   0.01    -0.00   0.00  -0.00
    15   1     0.30  -0.30   0.17     0.01  -0.01   0.00    -0.00  -0.00  -0.00
    16   1    -0.42  -0.16  -0.03    -0.01  -0.01   0.00    -0.00   0.00  -0.00
                     34                     35                     36
                      A                      A                      A
 Frequencies --   3151.2288              3156.3216              3166.1251
 Red. masses --      1.0486                 1.0792                 1.0735
 Frc consts  --      6.1349                 6.3347                 6.3402
 IR Inten    --      0.0000                 0.0000                 0.0000
  Atom  AN      X      Y      Z        X      Y      Z        X      Y      Z
     1   6     0.00   0.00   0.00    -0.01  -0.01  -0.01     0.00   0.00   0.00
     2   6     0.00  -0.00   0.00    -0.02   0.03  -0.04    -0.00   0.00  -0.00
     3   1    -0.00   0.00  -0.00     0.07  -0.08   0.09    -0.02   0.02  -0.02
     4   1    -0.00  -0.01  -0.00     0.01   0.23   0.02    -0.00  -0.03  -0.00
     5   1    -0.00   0.00  -0.00     0.28  -0.38   0.41     0.01  -0.01   0.01
     6   6    -0.00   0.00   0.00    -0.01  -0.02  -0.05    -0.00  -0.00  -0.00
     7   6    -0.00   0.00  -0.00     0.00   0.02  -0.01     0.00  -0.00   0.00
     8   1    -0.00  -0.00  -0.01     0.09   0.18   0.61     0.00   0.00   0.01
     9   1    -0.00  -0.01  -0.00    -0.03  -0.27  -0.07     0.00   0.02   0.00
    10   1     0.00   0.00   0.01     0.02   0.05   0.20    -0.00  -0.01  -0.02
    11   6    -0.02  -0.04   0.01    -0.00  -0.00   0.00    -0.02  -0.05   0.01
    12   6    -0.00  -0.04   0.01     0.00   0.00   0.00     0.01   0.05  -0.02
    13   1     0.50   0.17   0.04     0.01   0.00   0.00     0.54   0.19   0.04
    14   1    -0.29   0.25  -0.15    -0.00   0.00  -0.00    -0.33   0.29  -0.17
    15   1     0.43   0.14   0.03     0.00  -0.00  -0.00    -0.40  -0.14  -0.03
    16   1    -0.40   0.36  -0.21    -0.00  -0.00  -0.00     0.35  -0.32   0.19
                     37                     38                     39
                      A                      A                      A
 Frequencies --   3167.4699              3173.2839              3226.8455
 Red. masses --      1.0646                 1.0677                 1.1141
 Frc consts  --      6.2929                 6.3344                 6.8347
 IR Inten    --      0.0000                 0.0000                 0.0000
  Atom  AN      X      Y      Z        X      Y      Z        X      Y      Z
     1   6     0.01   0.01   0.02    -0.03  -0.02  -0.04     0.00  -0.00  -0.00
     2   6     0.00  -0.01   0.00     0.01  -0.01   0.02     0.00  -0.00  -0.00
     3   1    -0.14   0.15  -0.18     0.33  -0.36   0.41    -0.00  -0.00  -0.00
     4   1    -0.01  -0.27  -0.02     0.03   0.61   0.05     0.00   0.00   0.00
     5   1    -0.03   0.04  -0.04    -0.13   0.17  -0.19    -0.00   0.00  -0.00
     6   6     0.00  -0.00   0.02     0.00   0.00   0.02    -0.00   0.00  -0.00
     7   6     0.00   0.04  -0.05     0.00   0.01  -0.02    -0.00  -0.00  -0.00
     8   1    -0.03  -0.07  -0.23    -0.03  -0.06  -0.20     0.00   0.00   0.00
     9   1    -0.06  -0.55  -0.14    -0.02  -0.18  -0.04     0.00   0.01   0.00
    10   1     0.06   0.17   0.66     0.02   0.06   0.23     0.00   0.00   0.00
    11   6     0.00  -0.00   0.00    -0.00  -0.00   0.00     0.06  -0.02   0.02
    12   6    -0.00   0.00  -0.00     0.00   0.00  -0.00    -0.07   0.01  -0.02
    13   1    -0.00  -0.00  -0.00     0.03   0.01   0.00    -0.40  -0.15  -0.02
    14   1    -0.00   0.00  -0.00    -0.02   0.01  -0.01    -0.38   0.35  -0.20
    15   1    -0.01  -0.00  -0.00    -0.02  -0.01  -0.00     0.53   0.19   0.04
    16   1     0.01  -0.01   0.01     0.02  -0.02   0.01     0.29  -0.28   0.16
                     40                     41                     42
                      A                      A                      A
 Frequencies --   3247.6766              3251.3540              3253.1052
 Red. masses --      1.1165                 1.1171                 1.1166
 Frc consts  --      6.9382                 6.9580                 6.9622
 IR Inten    --      0.0000                 0.0000                 0.0000
  Atom  AN      X      Y      Z        X      Y      Z        X      Y      Z
     1   6     0.01  -0.02   0.01    -0.01   0.05  -0.02     0.02  -0.07   0.03
     2   6     0.00  -0.00   0.00    -0.00   0.00  -0.00     0.00  -0.00   0.00
     3   1    -0.08   0.09  -0.11     0.19  -0.20   0.24    -0.30   0.32  -0.38
     4   1     0.01   0.17   0.02    -0.02  -0.36  -0.04     0.03   0.56   0.06
     5   1    -0.01   0.01  -0.01     0.02  -0.03   0.03    -0.04   0.05  -0.05
     6   6    -0.00  -0.00  -0.01    -0.00  -0.00  -0.00     0.00   0.00   0.00
     7   6    -0.01  -0.07  -0.06    -0.00  -0.01  -0.01     0.00   0.01   0.01
     8   1     0.01   0.03   0.09     0.00   0.00   0.01    -0.00  -0.01  -0.02
     9   1     0.07   0.70   0.16     0.01   0.09   0.02    -0.01  -0.14  -0.03
    10   1     0.05   0.14   0.61     0.01   0.02   0.09    -0.01  -0.03  -0.13
    11   6     0.00   0.00  -0.00    -0.06   0.01  -0.02    -0.04   0.01  -0.01
    12   6     0.00  -0.00   0.00    -0.06   0.01  -0.01    -0.04   0.00  -0.01
    13   1    -0.00  -0.00  -0.00     0.36   0.13   0.02     0.23   0.08   0.01
    14   1     0.00  -0.00   0.00     0.31  -0.29   0.17     0.20  -0.19   0.11
    15   1    -0.01  -0.00  -0.00     0.42   0.16   0.03     0.27   0.10   0.02
    16   1    -0.00   0.00  -0.00     0.25  -0.24   0.14     0.16  -0.15   0.09

 -------------------
 - Thermochemistry -
 -------------------
 Temperature   298.150 Kelvin.  Pressure   1.00000 Atm.
 Atom     1 has atomic number  6 and mass  12.00000
 Atom     2 has atomic number  6 and mass  12.00000
 Atom     3 has atomic number  1 and mass   1.00783
 Atom     4 has atomic number  1 and mass   1.00783
 Atom     5 has atomic number  1 and mass   1.00783
 Atom     6 has atomic number  6 and mass  12.00000
 Atom     7 has atomic number  6 and mass  12.00000
 Atom     8 has atomic number  1 and mass   1.00783
 Atom     9 has atomic number  1 and mass   1.00783
 Atom    10 has atomic number  1 and mass   1.00783
 Atom    11 has atomic number  6 and mass  12.00000
 Atom    12 has atomic number  6 and mass  12.00000
 Atom    13 has atomic number  1 and mass   1.00783
 Atom    14 has atomic number  1 and mass   1.00783
 Atom    15 has atomic number  1 and mass   1.00783
 Atom    16 has atomic number  1 and mass   1.00783
 Molecular mass:    82.07825 amu.
 Principal axes and moments of inertia in atomic units:
                           1         2         3
     Eigenvalues --   435.943481058.359511336.13540
           X            0.99996   0.00690   0.00475
           Y           -0.00684   0.99990  -0.01272
           Z           -0.00483   0.01269   0.99991
 This molecule is an asymmetric top.
 Rotational symmetry number  1.
 Warning -- assumption of classical behavior for rotation
           may cause significant error
 Rotational temperatures (Kelvin)      0.19868     0.08184     0.06482
 Rotational constants (GHZ):           4.13985     1.70523     1.35072
 Zero-point vibrational energy     361563.6 (Joules/Mol)
                                   86.41578 (Kcal/Mol)
 Warning -- explicit consideration of  10 degrees of freedom as
           vibrations may cause significant error
 Vibrational temperatures:     36.08    47.70    72.17   117.36   131.44
          (Kelvin)            194.06   246.54   402.07   689.33   888.23
                             1090.00  1210.51  1286.99  1345.46  1350.90
                             1385.73  1416.25  1473.68  1490.48  1550.24
                             1552.55  1604.63  1803.20  1905.37  1954.92
                             2009.73  2099.11  2139.42  2147.17  2438.22
                             2469.77  2472.49  4523.14  4533.92  4541.24
                             4555.35  4557.28  4565.65  4642.71  4672.68
                             4677.97  4680.49
 
 Zero-point correction=                           0.137712 (Hartree/Particle)
 Thermal correction to Energy=                    0.147369
 Thermal correction to Enthalpy=                  0.148313
 Thermal correction to Gibbs Free Energy=         0.100495
 Sum of electronic and zero-point Energies=           -234.453666
 Sum of electronic and thermal Energies=              -234.444009
 Sum of electronic and thermal Enthalpies=            -234.443065
 Sum of electronic and thermal Free Energies=         -234.490883
 
                     E (Thermal)             CV                S
                      KCal/Mol        Cal/Mol-Kelvin    Cal/Mol-Kelvin
 Total                   92.476             29.599            100.643
 Electronic               0.000              0.000              0.000
 Translational            0.889              2.981             39.129
 Rotational               0.889              2.981             27.913
 Vibrational             90.698             23.637             33.601
 Vibration     1          0.593              1.985              6.185
 Vibration     2          0.594              1.983              5.631
 Vibration     3          0.595              1.978              4.811
 Vibration     4          0.600              1.962              3.853
 Vibration     5          0.602              1.955              3.631
 Vibration     6          0.613              1.919              2.875
 Vibration     7          0.626              1.878              2.421
 Vibration     8          0.680              1.712              1.537
 Vibration     9          0.836              1.296              0.712
 Vibration    10          0.977              0.995              0.421
                       Q            Log10(Q)             Ln(Q)
 Total Bot       0.596702D-46        -46.224243       -106.435252
 Total V=0       0.131513D+18         17.118968         39.417881
 Vib (Bot)       0.726372D-59        -59.138841       -136.172214
 Vib (Bot)    1  0.825938D+01          0.916947          2.111349
 Vib (Bot)    2  0.624435D+01          0.795487          1.831677
 Vib (Bot)    3  0.412140D+01          0.615044          1.416192
 Vib (Bot)    4  0.252407D+01          0.402101          0.925871
 Vib (Bot)    5  0.225000D+01          0.352183          0.810931
 Vib (Bot)    6  0.150962D+01          0.178866          0.411855
 Vib (Bot)    7  0.117556D+01          0.070246          0.161748
 Vib (Bot)    8  0.688188D+00         -0.162293         -0.373693
 Vib (Bot)    9  0.349347D+00         -0.456743         -1.051691
 Vib (Bot)   10  0.237546D+00         -0.624252         -1.437393
 Vib (V=0)       0.160092D+05          4.204370          9.680919
 Vib (V=0)    1  0.877450D+01          0.943222          2.171850
 Vib (V=0)    2  0.676434D+01          0.830225          1.911664
 Vib (V=0)    3  0.465162D+01          0.667604          1.537215
 Vib (V=0)    4  0.307311D+01          0.487578          1.122691
 Vib (V=0)    5  0.280489D+01          0.447915          1.031363
 Vib (V=0)    6  0.209026D+01          0.320201          0.737291
 Vib (V=0)    7  0.177748D+01          0.249804          0.575196
 Vib (V=0)    8  0.135065D+01          0.130542          0.300585
 Vib (V=0)    9  0.110995D+01          0.045305          0.104318
 Vib (V=0)   10  0.105356D+01          0.022659          0.052175
 Electronic      0.100000D+01          0.000000          0.000000
 Translational   0.292278D+08          7.465796         17.190631
 Rotational      0.281062D+06          5.448803         12.546331
 ***** Axes restored to original set *****
 -------------------------------------------------------------------
 Center     Atomic                   Forces (Hartrees/Bohr)
 Number     Number              X              Y              Z
 -------------------------------------------------------------------
      1        6          -0.000002663   -0.000001550   -0.000001155
      2        6           0.000000576    0.000000502    0.000000760
      3        1          -0.000000552    0.000000701    0.000000063
      4        1           0.000001197    0.000000109   -0.000001087
      5        1          -0.000000325   -0.000000551   -0.000000024
      6        6           0.000000547   -0.000003485    0.000006678
      7        6           0.000000733    0.000001958   -0.000006331
      8        1           0.000000245   -0.000000813    0.000000651
      9        1          -0.000000408    0.000000008    0.000001440
     10        1           0.000000310    0.000000750    0.000000417
     11        6           0.000000879    0.000003134   -0.000001890
     12        6           0.000000473   -0.000000620   -0.000000706
     13        1          -0.000000243   -0.000000301   -0.000000448
     14        1           0.000000757   -0.000000603    0.000000119
     15        1          -0.000001451    0.000000554    0.000001137
     16        1          -0.000000075    0.000000208    0.000000375
 -------------------------------------------------------------------
 Cartesian Forces:  Max     0.000006678 RMS     0.000001720
 Z-matrix is all fixed cartesians, so copy forces.
 Leave Link  716 at Wed Apr 24 10:35:32 2024, MaxMem=   104857600 cpu:               0.1 elap:               0.5
 (Enter /mlatom/software/Gaussian/g16-avx2/l103.exe)

 GradGradGradGradGradGradGradGradGradGradGradGradGradGradGradGradGradGrad
 Berny optimization.
 Search for a local minimum.
 Step number   1 out of a maximum of    2
 All quantities printed in internal units (Hartrees-Bohrs-Radians)
 Second derivative matrix not updated -- analytic derivatives used.
 ITU=  0
     Eigenvalues ---    0.00007   0.00009   0.00026   0.00062   0.00084
     Eigenvalues ---    0.00134   0.00192   0.00724   0.01372   0.02906
     Eigenvalues ---    0.03138   0.03368   0.04435   0.05248   0.06031
     Eigenvalues ---    0.07529   0.07590   0.07970   0.07982   0.09568
     Eigenvalues ---    0.11600   0.13246   0.13888   0.14512   0.16089
     Eigenvalues ---    0.17306   0.17801   0.22826   0.24903   0.31510
     Eigenvalues ---    0.39965   0.51325   0.53681   0.70902   0.82114
     Eigenvalues ---    0.84541   0.92166   0.98606   0.99959   1.40597
     Eigenvalues ---    1.46028   1.51437
 Angle between quadratic step and forces=  84.84 degrees.
 Linear search not attempted -- first point.
 B after Tr=     0.000021   -0.000053    0.000004
         Rot=    1.000000    0.000001   -0.000010   -0.000026 Ang=   0.00 deg.
 Variable       Old X    -DE/DX   Delta X   Delta X   Delta X     New X
                                 (Linear)    (Quad)   (Total)
    X1       -1.32552  -0.00000   0.00000   0.00047   0.00037  -1.32515
    Y1        2.83549  -0.00000   0.00000  -0.00121  -0.00133   2.83416
    Z1        1.20257  -0.00000   0.00000   0.00032   0.00034   1.20291
    X2       -2.66812   0.00000   0.00000   0.00144   0.00135  -2.66677
    Y2        1.77706   0.00000   0.00000  -0.00107  -0.00126   1.77579
    Z2       -0.66360   0.00000   0.00000  -0.00045  -0.00040  -0.66400
    X3       -0.26061  -0.00000   0.00000  -0.00146  -0.00148  -0.26209
    Y3        1.70674   0.00000   0.00000  -0.00136  -0.00142   1.70532
    Z3        2.54663   0.00000   0.00000   0.00173   0.00173   2.54836
    X4       -1.21693   0.00000   0.00000   0.00164   0.00143  -1.21550
    Y4        4.87392   0.00000   0.00000  -0.00120  -0.00131   4.87261
    Z4        1.41730  -0.00000   0.00000  -0.00040  -0.00038   1.41692
    X5       -3.60043  -0.00000   0.00000   0.00343   0.00326  -3.59717
    Y5        3.00328  -0.00000   0.00000  -0.00099  -0.00124   3.00204
    Z5       -2.03202  -0.00000   0.00000  -0.00174  -0.00166  -2.03369
    X6       -2.97985   0.00000   0.00000   0.00006   0.00011  -2.97973
    Y6       -0.95015  -0.00000   0.00000  -0.00103  -0.00124  -0.95139
    Z6       -1.08061   0.00001   0.00000   0.00027   0.00034  -1.08027
    X7       -2.98374   0.00000   0.00000  -0.00238  -0.00220  -2.98594
    Y7       -2.72410   0.00000   0.00000  -0.00043  -0.00063  -2.72473
    Z7        0.72540  -0.00001   0.00000   0.00084   0.00091   0.72632
    X8       -3.27107   0.00000   0.00000   0.00122   0.00125  -3.26981
    Y8       -1.53087  -0.00000   0.00000  -0.00151  -0.00174  -1.53261
    Z8       -3.03594   0.00000   0.00000   0.00024   0.00032  -3.03562
    X9       -3.19237  -0.00000   0.00000  -0.00326  -0.00298  -3.19535
    Y9       -4.71491   0.00000   0.00000  -0.00045  -0.00067  -4.71558
    Z9        0.27224   0.00000   0.00000   0.00135   0.00144   0.27367
   X10       -2.80625   0.00000   0.00000  -0.00358  -0.00339  -2.80963
   Y10       -2.24002   0.00000   0.00000   0.00012  -0.00007  -2.24009
   Z10        2.71389   0.00000   0.00000   0.00082   0.00089   2.71478
   X11        4.93957   0.00000   0.00000   0.00141   0.00138   4.94095
   Y11        0.74450   0.00000   0.00000   0.00151   0.00172   0.74622
   Z11       -0.54790  -0.00000   0.00000   0.00001  -0.00009  -0.54799
   X12        4.32278   0.00000   0.00000  -0.00074  -0.00063   4.32215
   Y12       -1.58563  -0.00000   0.00000   0.00177   0.00194  -1.58368
   Z12        0.17509  -0.00000   0.00000  -0.00100  -0.00108   0.17402
   X13        6.86764  -0.00000   0.00000   0.00235   0.00229   6.86993
   Y13        1.44684  -0.00000   0.00000  -0.00086  -0.00056   1.44628
   Z13       -0.42213  -0.00000   0.00000  -0.00120  -0.00134  -0.42347
   X14        3.53242   0.00000   0.00000   0.00230   0.00219   3.53461
   Y14        2.04292  -0.00000   0.00000   0.00364   0.00377   2.04669
   Z14       -1.29019   0.00000   0.00000   0.00206   0.00198  -1.28821
   X15        2.39423  -0.00000   0.00000  -0.00166  -0.00152   2.39271
   Y15       -2.27932   0.00000   0.00000   0.00409   0.00416  -2.27515
   Z15        0.03975   0.00000   0.00000   0.00022   0.00018   0.03992
   X16        5.72264  -0.00000   0.00000  -0.00163  -0.00143   5.72120
   Y16       -2.89158   0.00000   0.00000  -0.00038  -0.00013  -2.89171
   Z16        0.92471   0.00000   0.00000  -0.00308  -0.00319   0.92152
         Item               Value     Threshold  Converged?
 Maximum Force            0.000007     0.000450     YES
 RMS     Force            0.000002     0.000300     YES
 Maximum Displacement     0.004164     0.001800     NO 
 RMS     Displacement     0.001709     0.001200     NO 
 Predicted change in Energy=-7.696248D-09
 GradGradGradGradGradGradGradGradGradGradGradGradGradGradGradGradGradGrad

 Leave Link  103 at Wed Apr 24 10:35:34 2024, MaxMem=   104857600 cpu:               0.0 elap:               0.7
 (Enter /mlatom/software/Gaussian/g16-avx2/l9999.exe)
 1\1\GINC-B001\Freq\RExternal='/mlatom/software/miniconda3/bin/python /
 mlatom/software/mlatom/mlatom/\ZDO\C6H10\UNKNOWN\24-Apr-2024\0\\#p fre
 q external='/mlatom/software/miniconda3/bin/python /mlatom/software/ml
 atom/mlatom/interfaces/gaussian_interface.py model_predict_kwargs'\\b3
 8713fe-6b90-459c-9f9a-bcabe47b7db2\\0,1\C,-0.701435861,1.5004771929,0.
 6363749035\C,-1.4119094416,0.9403773877,-0.3511623322\H,-0.1379113335,
 0.9031685788,1.3476160052\H,-0.6439722857,2.5791668803,0.7500020251\H,
 -1.9052651768,1.5892653841,-1.0753010764\C,-1.5768662652,-0.5027999854
 ,-0.5718335699\C,-1.5789278602,-1.4415315226,0.3838670142\H,-1.7309740
 533,-0.8100993309,-1.606550544\H,-1.6893291282,-2.4950250123,0.1440607
 735\H,-1.4850015483,-1.1853665494,1.4361283391\C,2.6139059822,0.393972
 215,-0.2899350132\C,2.2875190877,-0.8390766248,0.0926554365\H,3.634200
 615,0.7656355638,-0.2233822503\H,1.8692754681,1.0810655868,-0.68273911
 55\H,1.2669741328,-1.2061626739,0.0210328562\H,3.0282894587,-1.5301604
 043,0.4893343544\\Version=ES64L-G16RevA.03\HF=-234.591378\RMSD=0.000e+
 00\RMSF=1.720e-06\ZeroPoint=0.1377123\Thermal=0.1473693\Dipole=-0.3474
 ,0.0665,-0.0821\PG=C01 [X(C6H10)]\NImag=0\\0.35875322,0.03487451,0.687
 69845,0.33816315,0.06866467,0.55984877,-0.19448850,-0.09506668,-0.2002
 1387,0.35255032,-0.08954148,-0.18210092,-0.12108167,0.04467173,0.61646
 067,-0.20262629,-0.13200244,-0.32668636,0.31909707,0.05068447,0.604499
 40,-0.12002814,0.08165082,-0.10791414,-0.00366156,0.01345915,-0.011421
 42,0.11797393,0.08377846,-0.14910294,0.10364186,-0.00706323,0.01221832
 ,-0.00881151,-0.08903490,0.14936165,-0.10486115,0.10058504,-0.16755520
 ,-0.01361053,0.01260984,-0.01279323,0.12012538,-0.11119389,0.17522164,
 -0.04170791,-0.01005725,-0.01320429,0.00268346,-0.02013807,-0.00155589
 ,0.00357582,0.01426860,0.00197086,0.03459592,-0.01306041,-0.34103142,-
 0.02711097,0.00110776,-0.00932503,0.00106948,-0.00212406,-0.01148661,-
 0.00295925,0.01512274,0.35953590,-0.01354770,-0.02359068,-0.05183609,-
 0.00228686,-0.02469331,0.00085633,0.00139318,0.01912210,0.00475363,0.0
 1691483,0.03139078,0.04624177,-0.00543306,0.01031434,-0.01520783,-0.09
 739784,0.07530937,-0.08595507,0.00679718,-0.00142038,-0.00788197,-0.00
 484362,-0.00033541,0.00447559,0.09611207,-0.00772197,0.01114997,-0.010
 32823,0.07523618,-0.15506975,0.10695424,-0.00194417,-0.00038387,-0.002
 12704,0.00011777,0.00119329,-0.00007823,-0.07770472,0.16451044,-0.0128
 9545,0.01659015,-0.01286628,-0.08873136,0.10422247,-0.17224721,-0.0067
 4501,-0.00255513,0.00158430,0.00395757,-0.00012067,-0.00160176,0.10317
 252,-0.11465384,0.17790028,0.00308263,-0.01996140,-0.00366439,-0.07107
 509,-0.01750362,-0.01661878,-0.00433683,-0.00036914,0.00461839,0.00626
 047,-0.00068283,-0.00725967,0.00426430,0.01358638,0.00202526,0.1496597
 7,-0.01278801,-0.02279056,-0.02225471,-0.00820471,-0.23826107,-0.00845
 387,-0.00123423,0.00020551,0.00334552,0.00148790,0.00136608,-0.0008116
 0,-0.00611553,-0.01714406,-0.00253286,0.04133421,0.67869784,-0.0029133
 9,-0.02445648,0.00296273,-0.01453895,-0.03338716,-0.10453298,0.0046533
 7,-0.00000610,-0.00248459,-0.00899407,-0.00203812,0.00225758,0.0025600
 4,0.02290797,0.00492866,0.06644133,-0.12244474,0.74613586,-0.00063448,
 -0.00170949,-0.00089216,0.00652483,-0.00090027,0.00412991,-0.00040626,
 -0.00049959,0.00050188,0.00020133,0.00009787,0.00001548,0.00069680,-0.
 00017959,-0.00094485,-0.04950062,-0.00955228,-0.00454197,0.11164857,0.
 00301515,0.00163808,0.00767907,-0.00513703,-0.03807572,0.01789917,-0.0
 0051654,-0.00004621,-0.00016686,0.00088545,0.00023843,-0.00067433,0.00
 021284,-0.00464621,-0.00152402,-0.00546443,-0.31375300,0.21915445,0.04
 855456,0.74651877,-0.00216204,-0.00537261,-0.00429058,0.00267248,0.011
 50143,0.01492260,-0.00148516,-0.00010896,0.00109829,0.00088702,-0.0001
 0709,-0.00116033,-0.00096807,-0.00341660,0.00120738,-0.00694627,0.2076
 9823,-0.33827965,0.03903813,-0.10104417,0.74280491,0.00218822,-0.00003
 881,0.00077219,0.00124326,-0.00379508,-0.00527606,0.00041335,0.0001433
 4,-0.00011600,-0.00041249,-0.00031846,0.00017995,-0.00013420,-0.000498
 41,0.00072190,-0.04580924,-0.00780167,-0.04115056,0.00530258,-0.002309
 60,0.00143193,0.03282672,0.00091824,-0.00554281,0.00070704,-0.00620986
 ,-0.00683325,-0.03090831,0.00029853,0.00021794,-0.00027697,-0.00180263
 ,-0.00059055,-0.00027722,0.00009280,0.00099572,0.00070449,-0.01036011,
 -0.08064577,-0.07477598,0.00265719,0.00936138,0.02430300,0.01487214,0.
 08443801,0.00088184,-0.00100028,0.00067793,-0.00124903,0.00082768,-0.0
 0194938,0.00019156,0.00016079,-0.00003170,-0.00017213,0.00000853,-0.00
 014214,-0.00009920,-0.00047557,0.00070075,-0.03891600,-0.07300584,-0.2
 9894317,-0.00372675,-0.00729920,-0.02162554,0.04339705,0.07727533,0.32
 141496,-0.00057944,0.00151516,-0.00082679,0.01272259,0.00016223,0.0009
 5471,0.00028181,0.00022117,-0.00001143,-0.00043005,-0.00004789,0.00060
 094,-0.00045879,-0.00129904,-0.00013428,0.00343284,-0.00124642,-0.0014
 8959,-0.03542280,-0.03094105,-0.00930397,-0.00749073,0.00084761,0.0013
 5754,0.02600171,0.00031769,-0.00001736,0.00027252,-0.00036338,0.000107
 11,0.00341632,-0.00000961,0.00010735,-0.00003844,0.00002305,-0.0000589
 0,-0.00017307,-0.00029190,-0.00084488,-0.00005388,-0.00263486,-0.01762
 153,-0.00752549,-0.03082685,-0.32443751,-0.06358390,0.00076945,0.00102
 791,0.00010386,0.03353205,0.34465496,-0.00024742,0.00006397,-0.0000764
 9,-0.00138529,0.00127558,-0.00294536,0.00044721,0.00000683,0.00008922,
 0.00003501,-0.00002317,0.00031498,0.00002262,0.00113858,0.00021252,0.0
 0322683,0.02546488,0.00826692,-0.00969142,-0.06809258,-0.07458348,0.00
 074351,-0.00014853,0.00123988,0.00954907,0.06715190,0.06998012,0.00049
 104,-0.00106287,0.00169263,-0.00843957,-0.00188704,-0.00070102,-0.0001
 2157,-0.00057491,-0.00042394,0.00001844,0.00013173,-0.00035781,0.00025
 907,0.00049798,-0.00023909,0.00537238,0.00376555,-0.00017154,-0.037132
 65,-0.00845416,-0.02311751,0.01178036,-0.00130336,-0.00167089,0.001925
 58,-0.00044755,-0.00269925,0.02574976,-0.00029916,-0.00014353,0.000043
 97,0.00096121,0.00108519,0.00015119,-0.00073601,-0.00064201,0.00017270
 ,0.00013929,0.00015202,-0.00018584,0.00001275,0.00021315,-0.00013736,0
 .00189537,0.01004260,0.02265741,-0.00759057,-0.07693351,-0.06991241,-0
 .00102724,-0.00243180,0.00339555,-0.00265386,-0.00288363,-0.02681664,0
 .00930489,0.07155321,-0.00026840,0.00047529,0.00021597,0.00017955,-0.0
 0192883,0.00084928,0.00052206,-0.00003023,0.00030278,0.00014752,-0.000
 05623,0.00033433,-0.00006900,0.00005725,0.00013996,-0.00281901,-0.0070
 9663,-0.02025198,-0.02392448,-0.06589742,-0.32005609,-0.00062705,0.003
 41648,-0.00130798,-0.00068909,0.00043401,-0.00250224,0.02757534,0.0706
 5346,0.34232915,-0.00056882,0.00011291,0.00028433,0.00010665,-0.000055
 80,0.00010056,-0.00031469,0.00004879,0.00000807,-0.00010840,0.00016380
 ,0.00007706,-0.00005192,0.00006096,-0.00003190,-0.00020446,-0.00015156
 ,0.00010327,-0.00024303,0.00041390,-0.00017978,-0.00000466,0.00000127,
 0.00000733,0.00012287,0.00006203,-0.00000939,0.00008925,-0.00001323,-0
 .00006569,0.63882181,-0.00053239,0.00014269,-0.00072037,-0.00007390,0.
 00027895,0.00079728,-0.00025076,-0.00018064,0.00020502,0.00003811,-0.0
 0008280,0.00000919,0.00000453,0.00001456,0.00012485,0.00021527,-0.0002
 0582,-0.00000946,-0.00033095,0.00002913,-0.00017499,0.00006703,0.00000
 453,0.00000858,0.00002272,0.00000546,0.00002352,0.00000503,-0.00001090
 ,0.00004509,0.08456111,0.78373416,0.00099637,0.00050260,0.00005187,0.0
 0010390,-0.00049354,-0.00041235,0.00006110,-0.00030783,0.00013057,-0.0
 0019510,0.00009809,0.00008701,-0.00001285,0.00002189,0.00006341,-0.000
 12353,-0.00012704,-0.00015919,-0.00002520,0.00023818,-0.00001690,0.000
 03896,0.00008030,0.00007090,0.00000361,0.00005924,-0.00001646,0.000008
 63,-0.00001139,0.00001555,0.07346617,-0.22799603,0.20484243,-0.0002576
 5,-0.00038571,0.00021826,-0.00022338,0.00014761,-0.00016985,-0.0000058
 5,0.00037406,-0.00005246,0.00013289,-0.00010668,-0.00007451,0.00014616
 ,-0.00010452,-0.00006783,0.00021336,0.00028200,0.00009430,0.00023476,-
 0.00031996,0.00012166,-0.00011136,-0.00002102,-0.00005229,-0.00016806,
 -0.00013855,0.00001999,-0.00010997,0.00002901,0.00009404,-0.14131327,-
 0.11096382,0.02134947,0.63996944,-0.00001542,-0.00009513,0.00010521,-0
 .00016634,0.00027671,-0.00011756,0.00043667,0.00003330,-0.00010438,-0.
 00002507,0.00001926,0.00004329,0.00001345,-0.00004609,-0.00003000,0.00
 040954,0.00027134,-0.00028702,0.00048306,-0.00022701,0.00032830,-0.000
 01990,-0.00001523,0.00002504,0.00007542,0.00003421,0.00000132,-0.00009
 646,0.00001593,0.00004284,-0.11188612,-0.51115039,0.14697642,0.0878525
 4,0.78286021,-0.00007298,0.00026542,-0.00058228,0.00004149,-0.00014421
 ,0.00020115,-0.00011494,-0.00006424,0.00018840,0.00004833,-0.00010229,
 0.00008477,0.00003321,0.00000782,0.00011894,-0.00004904,-0.00002404,0.
 00005057,0.00006733,-0.00006506,0.00004937,0.00010870,0.00001401,0.000
 09444,0.00000920,0.00004754,0.00000332,-0.00019563,0.00004471,0.000163
 04,0.02134901,0.14674052,-0.09452510,0.07411928,-0.22651149,0.20506465
 ,-0.00040882,-0.00016833,-0.00001575,0.00000021,0.00015386,0.00026801,
 0.00001801,0.00002419,-0.00013766,0.00000860,0.00002562,-0.00003665,0.
 00001364,0.00000316,-0.00002113,0.00001696,0.00002128,0.00011464,-0.00
 013002,0.00001860,-0.00006916,0.00002917,-0.00000808,-0.00000556,0.000
 02963,-0.00001261,0.00000420,0.00002236,0.00000365,-0.00000186,-0.3069
 0081,-0.08787886,-0.02159987,-0.00378245,-0.00129031,-0.00131025,0.322
 37105,0.00032045,0.00015326,0.00007115,0.00011501,-0.00019408,-0.00019
 160,-0.00001401,-0.00006884,0.00005309,-0.00003120,0.00002198,0.000016
 68,-0.00003154,0.00003052,0.00000237,-0.00016074,-0.00018066,0.0000452
 7,-0.00016769,0.00020941,-0.00010077,0.00000271,0.00001044,0.00000146,
 0.00003652,0.00002275,-0.00000625,0.00005434,-0.00001369,-0.00003007,-
 0.08432909,-0.08571858,0.00140371,-0.03105487,-0.00643126,-0.00194569,
 0.09850458,0.08605332,-0.00020738,-0.00007836,-0.00002683,0.00002280,0
 .00009224,0.00010732,0.00006709,-0.00000839,0.00001441,0.00004203,-0.0
 0002302,-0.00002124,-0.00001122,-0.00000607,-0.00000237,0.00005414,0.0
 0002951,-0.00001054,0.00002929,-0.00003945,-0.00000852,-0.00000281,-0.
 00000634,-0.00001818,-0.00002165,-0.00002246,0.00000211,0.00001030,-0.
 00000337,-0.00001468,-0.02294166,0.00070655,-0.04089154,0.00954754,0.0
 0398297,0.00559274,0.02311479,-0.00304115,0.02984175,-0.00036995,0.000
 21649,0.00042397,-0.00054568,-0.00003905,-0.00016827,-0.00012619,0.000
 06066,0.00005402,0.00003537,-0.00002463,0.00003279,0.00000952,-0.00000
 532,0.00000845,0.00000558,-0.00026278,-0.00013262,-0.00010160,0.000086
 53,0.00002211,0.00002276,0.00002852,0.00002686,0.00000109,0.00002359,-
 0.00000436,0.00001425,-0.00001276,0.00001240,-0.19622213,0.12332483,-0
 .07642029,0.00989834,-0.00669664,0.00352468,-0.01433021,0.01716029,-0.
 00950025,0.19961772,0.00056495,0.00022951,0.00003931,0.00016733,-0.000
 20483,-0.00037408,0.00001163,-0.00006613,0.00013836,0.00008089,-0.0000
 8775,-0.00004824,-0.00000639,0.00001433,0.00002521,-0.00009583,-0.0001
 0242,-0.00005700,0.00008916,-0.00001144,0.00004638,-0.00005544,-0.0000
 1371,-0.00000396,0.00001984,0.00002530,-0.00000066,-0.00000991,-0.0000
 0579,-0.00001410,0.11857644,-0.16486850,0.06957782,0.02262601,-0.01572
 755,0.01197929,-0.00819350,0.00884813,-0.00397277,-0.13160566,0.174335
 22,-0.00030069,-0.00046394,-0.00011902,-0.00008976,0.00034232,0.000213
 25,0.00013352,0.00029649,-0.00035926,0.00014041,-0.00007097,-0.0000904
 5,-0.00003553,-0.00000168,-0.00007670,0.00007112,0.00023134,0.00015543
 ,0.00007959,-0.00022666,0.00000475,-0.00004938,-0.00009159,-0.00005407
 ,0.00001064,-0.00004296,0.00000720,-0.00002195,0.00002565,-0.00001134,
 -0.07425639,0.06997524,-0.07611705,-0.00722482,0.00609181,0.00132195,-
 0.00046843,0.00119478,0.00179274,0.08172639,-0.07935374,0.06952697,-0.
 00008553,-0.00023759,0.00026565,-0.00008233,0.00017046,-0.00005796,-0.
 00003762,0.00009399,-0.00004880,0.00002659,-0.00000849,-0.00010635,0.0
 0003188,-0.00008222,-0.00005159,-0.00105879,0.00063431,-0.00033542,-0.
 00067831,-0.00037020,0.00031850,0.00011776,-0.00002128,0.00002419,0.00
 000972,0.00001066,0.00000925,0.00001559,-0.00002647,-0.00004138,-0.002
 78318,-0.00134771,-0.00102562,-0.31084066,-0.08950806,-0.02275119,0.00
 196099,-0.00123696,-0.00183271,0.00095410,0.00059066,0.00166135,0.3260
 5392,0.00001333,-0.00025933,0.00027997,-0.00000038,-0.00024669,-0.0000
 4680,0.00003709,-0.00013018,-0.00028268,-0.00007147,0.00010860,-0.0000
 8014,-0.00002575,-0.00000795,-0.00006633,-0.00007384,0.00023749,0.0001
 7062,0.00000720,0.00000150,-0.00000281,0.00000460,0.00000821,-0.000023
 69,-0.00024722,-0.00012822,-0.00003052,0.00005048,0.00001208,-0.000059
 95,-0.03057827,-0.00624120,-0.00205165,-0.08492742,-0.08619886,0.00059
 198,-0.00162452,-0.00307207,0.00557011,0.00074840,0.00026353,-0.003104
 44,0.09855927,0.08701854,0.00013820,-0.00012071,0.00033859,-0.00002232
 ,0.00013820,-0.00014029,0.00007644,-0.00015134,-0.00019181,-0.00006279
 ,0.00006789,-0.00006922,-0.00001446,-0.00000618,-0.00006191,-0.0000284
 4,0.00008504,-0.00016687,0.00001794,0.00000501,-0.00003323,-0.00018595
 ,-0.00001448,-0.00011248,-0.00001288,-0.00003304,0.00000584,0.00028336
 ,-0.00006255,-0.00019464,0.00950221,0.00407346,0.00555757,-0.02439223,
 -0.00043132,-0.04179445,-0.00161342,0.00561932,0.01084210,0.00155425,-
 0.00312885,-0.00726080,0.02452092,-0.00230957,0.03153957,0.00004719,0.
 00000389,0.00011901,0.00008263,-0.00021402,0.00000033,-0.00002137,-0.0
 0005113,-0.00013468,-0.00003640,0.00005935,-0.00002028,-0.00001122,0.0
 0003750,-0.00002321,-0.00032328,-0.00016807,0.00030114,-0.00035908,0.0
 0032593,-0.00025987,0.00003851,0.00001004,0.00000545,0.00002204,-0.000
 01324,-0.00002057,0.00006569,0.00001313,-0.00002493,0.00957480,-0.0068
 6023,0.00337424,-0.19378230,0.12043365,-0.07480721,0.00108171,0.000832
 18,0.00162974,0.00113704,-0.00276018,-0.00137608,-0.01360413,0.0181284
 9,-0.00976080,0.19608818,0.00015604,0.00007205,-0.00000882,0.00002628,
 -0.00011561,-0.00006597,-0.00002959,-0.00003662,0.00003995,-0.00003812
 ,0.00002751,0.00003062,-0.00002849,0.00002082,0.00000457,-0.00013396,-
 0.00011595,0.00005184,-0.00013173,0.00013389,-0.00005303,0.00000530,0.
 00000899,0.00000172,0.00000275,0.00000697,-0.00000825,0.00002626,-0.00
 000933,-0.00001097,0.02301283,-0.01575068,0.01202922,0.11671133,-0.163
 61944,0.06916574,0.00042125,0.00032935,-0.00318003,-0.00300248,-0.0026
 2793,0.00519836,-0.00722039,0.00863456,-0.00373087,-0.12977730,0.17304
 142,-0.00007668,-0.00006165,-0.00005676,0.00001063,0.00003450,0.000057
 82,0.00000972,0.00000955,0.00003257,0.00004070,-0.00002300,-0.00000919
 ,-0.00000881,0.00000566,0.00000003,-0.00001196,-0.00010320,0.00007121,
 -0.00013271,0.00005388,-0.00003299,0.00001362,-0.00000123,-0.00001422,
 0.00000397,-0.00001214,0.00000191,0.00002837,-0.00001505,-0.00001111,-
 0.00741320,0.00619154,0.00131928,-0.07353056,0.06988457,-0.07603151,0.
 00177811,-0.00309226,-0.00719926,-0.00116012,0.00514703,0.01106643,-0.
 00054884,0.00144589,0.00174201,0.08099773,-0.07946411,0.06906380\\0.00
 000266,0.00000155,0.00000115,-0.00000058,-0.00000050,-0.00000076,0.000
 00055,-0.00000070,-0.00000006,-0.00000120,-0.00000011,0.00000109,0.000
 00033,0.00000055,0.00000002,-0.00000055,0.00000349,-0.00000668,-0.0000
 0073,-0.00000196,0.00000633,-0.00000025,0.00000081,-0.00000065,0.00000
 041,0.,-0.00000144,-0.00000031,-0.00000075,-0.00000042,-0.00000088,-0.
 00000313,0.00000189,-0.00000047,0.00000062,0.00000071,0.00000024,0.000
 00030,0.00000045,-0.00000076,0.00000060,-0.00000012,0.00000145,-0.0000
 0055,-0.00000114,0.00000007,-0.00000021,-0.00000038\\\@


 ... IT IS NO ONE DREAME THAT
     CAN PLEASE THESE ALL ...

                -- BEN JONSON
 Job cpu time:       0 days  0 hours  0 minutes  0.6 seconds.
 Elapsed time:       0 days  0 hours  0 minutes 39.2 seconds.
 File lengths (MBytes):  RWF=     22 Int=      0 D2E=      0 Chk=      2 Scr=      2
 Normal termination of Gaussian 16 at Wed Apr 24 10:35:36 2024.
