 Entering Gaussian System, Link 0=/mlatom/software/Gaussian/g16-avx2/g16
 Input=gaussian.com
 Output=gaussian.log
 Initial command:
 /mlatom/software/Gaussian/g16-avx2/l1.exe "/mlatom/home/qhzhang/git/ts-analysis/calculations/C60/energy_barrier/da/da_opt_ub3lypd4_recalculate/da_ts/Gau-263512.inp" -scrdir="/mlatom/home/qhzhang/git/ts-analysis/calculations/C60/energy_barrier/da/da_opt_ub3lypd4_recalculate/da_ts/"
 Entering Link 1 = /mlatom/software/Gaussian/g16-avx2/l1.exe PID=    263513.
  
 Copyright (c) 1988,1990,1992,1993,1995,1998,2003,2009,2016,
            Gaussian, Inc.  All Rights Reserved.
  
 This is part of the Gaussian(R) 16 program.  It is based on
 the Gaussian(R) 09 system (copyright 2009, Gaussian, Inc.),
 the Gaussian(R) 03 system (copyright 2003, Gaussian, Inc.),
 the Gaussian(R) 98 system (copyright 1998, Gaussian, Inc.),
 the Gaussian(R) 94 system (copyright 1995, Gaussian, Inc.),
 the Gaussian 92(TM) system (copyright 1992, Gaussian, Inc.),
 the Gaussian 90(TM) system (copyright 1990, Gaussian, Inc.),
 the Gaussian 88(TM) system (copyright 1988, Gaussian, Inc.),
 the Gaussian 86(TM) system (copyright 1986, Carnegie Mellon
 University), and the Gaussian 82(TM) system (copyright 1983,
 Carnegie Mellon University). Gaussian is a federally registered
 trademark of Gaussian, Inc.
  
 This software contains proprietary and confidential information,
 including trade secrets, belonging to Gaussian, Inc.
  
 This software is provided under written license and may be
 used, copied, transmitted, or stored only in accord with that
 written license.
  
 The following legend is applicable only to US Government
 contracts under FAR:
  
                    RESTRICTED RIGHTS LEGEND
  
 Use, reproduction and disclosure by the US Government is
 subject to restrictions as set forth in subparagraphs (a)
 and (c) of the Commercial Computer Software - Restricted
 Rights clause in FAR 52.227-19.
  
 Gaussian, Inc.
 340 Quinnipiac St., Bldg. 40, Wallingford CT 06492
  
  
 ---------------------------------------------------------------
 Warning -- This program may not be used in any manner that
 competes with the business of Gaussian, Inc. or will provide
 assistance to any competitor of Gaussian, Inc.  The licensee
 of this program is prohibited from giving any competitor of
 Gaussian, Inc. access to this program.  By using this program,
 the user acknowledges that Gaussian, Inc. is engaged in the
 business of creating and licensing software in the field of
 computational chemistry and represents and warrants to the
 licensee that it is not a competitor of Gaussian, Inc. and that
 it will not use this program in any manner prohibited above.
 ---------------------------------------------------------------
  

 Cite this work as:
 Gaussian 16, Revision A.03,
 M. J. Frisch, G. W. Trucks, H. B. Schlegel, G. E. Scuseria, 
 M. A. Robb, J. R. Cheeseman, G. Scalmani, V. Barone, 
 G. A. Petersson, H. Nakatsuji, X. Li, M. Caricato, A. V. Marenich, 
 J. Bloino, B. G. Janesko, R. Gomperts, B. Mennucci, H. P. Hratchian, 
 J. V. Ortiz, A. F. Izmaylov, J. L. Sonnenberg, D. Williams-Young, 
 F. Ding, F. Lipparini, F. Egidi, J. Goings, B. Peng, A. Petrone, 
 T. Henderson, D. Ranasinghe, V. G. Zakrzewski, J. Gao, N. Rega, 
 G. Zheng, W. Liang, M. Hada, M. Ehara, K. Toyota, R. Fukuda, 
 J. Hasegawa, M. Ishida, T. Nakajima, Y. Honda, O. Kitao, H. Nakai, 
 T. Vreven, K. Throssell, J. A. Montgomery, Jr., J. E. Peralta, 
 F. Ogliaro, M. J. Bearpark, J. J. Heyd, E. N. Brothers, K. N. Kudin, 
 V. N. Staroverov, T. A. Keith, R. Kobayashi, J. Normand, 
 K. Raghavachari, A. P. Rendell, J. C. Burant, S. S. Iyengar, 
 J. Tomasi, M. Cossi, J. M. Millam, M. Klene, C. Adamo, R. Cammi, 
 J. W. Ochterski, R. L. Martin, K. Morokuma, O. Farkas, 
 J. B. Foresman, and D. J. Fox, Gaussian, Inc., Wallingford CT, 2016.
 
 ******************************************
 Gaussian 16:  ES64L-G16RevA.03 25-Dec-2016
                24-Apr-2024 
 ******************************************
 %nproc=1
 Will use up to    1 processors via shared memory.
 ----------------------------------------------------------------------
 #p freq external='/mlatom/software/miniconda3/bin/python /mlatom/softw
 are/mlatom/mlatom/interfaces/gaussian_interface.py model_predict_kwarg
 s'
 ----------------------------------------------------------------------
 1/10=4,18=10,30=1,38=1/1,3;
 2/12=2,17=6,18=5,40=1/2;
 3/11=9,25=1,30=1,41=9900000,43=2,71=2,140=1/1;
 4/20=17,22=2,24=3,113=1,114=1/2;
 6/7=2,8=2,9=2,10=2/1;
 7/8=1,25=1,44=-1/16;
 1/10=4,18=10,30=1/3;
 99//99;
 Leave Link    1 at Wed Apr 24 10:22:42 2024, MaxMem=           0 cpu:               0.0 elap:               0.1
 (Enter /mlatom/software/Gaussian/g16-avx2/l101.exe)
 ------------------------------------
 3900b286-f101-4732-9319-0acbdfd3a2cd
 ------------------------------------
 Symbolic Z-matrix:
 Charge =  0 Multiplicity = 1
 C                    -0.4509    1.43491   0.494 
 C                    -1.3177    0.70379  -0.2938 
 H                    -0.12818   1.05967   1.45815 
 H                    -0.39479   2.5151    0.38686 
 H                    -1.85732   1.21402  -1.09001 
 C                    -1.31767  -0.70385  -0.29379 
 C                    -0.45082  -1.43491   0.49403 
 H                    -1.85726  -1.21413  -1.08999 
 H                    -0.39466  -2.5151    0.38692 
 H                    -0.1281   -1.05964   1.45817 
 C                     1.57608   0.69173  -0.22807 
 C                     1.57608  -0.69167  -0.22811 
 H                     2.07075   1.23614   0.57092 
 H                     1.46419   1.23615  -1.15863 
 H                     1.46418  -1.23603  -1.15871 
 H                     2.07078  -1.23613   0.57082 
 
 ITRead=  0  0  0  0  0  0  0  0  0  0  0  0  0  0  0  0
 MicOpt= -1 -1 -1 -1 -1 -1 -1 -1 -1 -1 -1 -1 -1 -1 -1 -1
 NAtoms=     16 NQM=       16 NQMF=       0 NMMI=      0 NMMIF=      0
                NMic=       0 NMicF=      0.
                    Isotopes and Nuclear Properties:
 (Nuclear quadrupole moments (NQMom) in fm**2, nuclear magnetic moments (NMagM)
  in nuclear magnetons)

  Atom         1           2           3           4           5           6           7           8           9          10
 IAtWgt=          12          12           1           1           1          12          12           1           1           1
 AtmWgt=  12.0000000  12.0000000   1.0078250   1.0078250   1.0078250  12.0000000  12.0000000   1.0078250   1.0078250   1.0078250
 NucSpn=           0           0           1           1           1           0           0           1           1           1
 AtZEff=  -0.0000000  -0.0000000  -0.0000000  -0.0000000  -0.0000000  -0.0000000  -0.0000000  -0.0000000  -0.0000000  -0.0000000
 NQMom=    0.0000000   0.0000000   0.0000000   0.0000000   0.0000000   0.0000000   0.0000000   0.0000000   0.0000000   0.0000000
 NMagM=    0.0000000   0.0000000   2.7928460   2.7928460   2.7928460   0.0000000   0.0000000   2.7928460   2.7928460   2.7928460
 AtZNuc=   6.0000000   6.0000000   1.0000000   1.0000000   1.0000000   6.0000000   6.0000000   1.0000000   1.0000000   1.0000000

  Atom        11          12          13          14          15          16
 IAtWgt=          12          12           1           1           1           1
 AtmWgt=  12.0000000  12.0000000   1.0078250   1.0078250   1.0078250   1.0078250
 NucSpn=           0           0           1           1           1           1
 AtZEff=  -0.0000000  -0.0000000  -0.0000000  -0.0000000  -0.0000000  -0.0000000
 NQMom=    0.0000000   0.0000000   0.0000000   0.0000000   0.0000000   0.0000000
 NMagM=    0.0000000   0.0000000   2.7928460   2.7928460   2.7928460   2.7928460
 AtZNuc=   6.0000000   6.0000000   1.0000000   1.0000000   1.0000000   1.0000000
 Leave Link  101 at Wed Apr 24 10:22:47 2024, MaxMem=   104857600 cpu:               0.1 elap:               0.6
 (Enter /mlatom/software/Gaussian/g16-avx2/l103.exe)

 GradGradGradGradGradGradGradGradGradGradGradGradGradGradGradGradGradGrad
 Berny optimization.
 Initialization pass.
 Trust Radius=3.00D-01 FncErr=1.00D-07 GrdErr=1.00D-07 EigMax=2.50D+02 EigMin=1.00D-04
 Number of steps in this run=      2 maximum allowed number of steps=      2.
 GradGradGradGradGradGradGradGradGradGradGradGradGradGradGradGradGradGrad

 Leave Link  103 at Wed Apr 24 10:22:48 2024, MaxMem=   104857600 cpu:               0.1 elap:               0.1
 (Enter /mlatom/software/Gaussian/g16-avx2/l202.exe)
                          Input orientation:                          
 ---------------------------------------------------------------------
 Center     Atomic      Atomic             Coordinates (Angstroms)
 Number     Number       Type             X           Y           Z
 ---------------------------------------------------------------------
      1          6           0       -0.450901    1.434915    0.494001
      2          6           0       -1.317705    0.703793   -0.293805
      3          1           0       -0.128178    1.059674    1.458151
      4          1           0       -0.394785    2.515097    0.386862
      5          1           0       -1.857320    1.214023   -1.090014
      6          6           0       -1.317668   -0.703854   -0.293791
      7          6           0       -0.450821   -1.434915    0.494027
      8          1           0       -1.857260   -1.214128   -1.089988
      9          1           0       -0.394655   -2.515098    0.386916
     10          1           0       -0.128101   -1.059644    1.458166
     11          6           0        1.576079    0.691728   -0.228068
     12          6           0        1.576083   -0.691674   -0.228113
     13          1           0        2.070753    1.236136    0.570916
     14          1           0        1.464186    1.236146   -1.158626
     15          1           0        1.464178   -1.236030   -1.158707
     16          1           0        2.070780   -1.236130    0.570821
 ---------------------------------------------------------------------
                    Distance matrix (angstroms):
                    1          2          3          4          5
     1  C    0.000000
     2  C    1.380769   0.000000
     3  H    1.083762   2.147317   0.000000
     4  H    1.086932   2.143807   1.826744   0.000000
     5  H    2.129768   1.088792   3.083326   2.452135   0.000000
     6  C    2.438490   1.407648   2.755761   3.417111   2.145565
     7  C    2.869830   2.438491   2.693809   3.951863   3.391798
     8  H    3.391798   2.145565   3.827912   4.269313   2.428150
     9  H    3.951864   3.417113   3.741329   5.030195   4.269315
    10  H    2.693814   2.755770   2.119317   3.741334   3.827921
    11  C    2.276480   2.894555   2.425533   2.754473   3.578264
    12  C    3.025309   3.213355   2.969042   3.813909   4.020300
    13  H    2.530646   3.537341   2.377735   2.783612   4.264850
    14  H    2.537370   2.961458   3.068271   2.734963   3.322289
    15  H    3.678711   3.499977   3.828028   4.462677   4.127933
    16  H    3.674133   3.999088   3.300528   4.492723   4.918495
                    6          7          8          9         10
     6  C    0.000000
     7  C    1.380772   0.000000
     8  H    1.088792   2.129770   0.000000
     9  H    2.143809   1.086932   2.452139   0.000000
    10  H    2.147326   1.083762   3.083334   1.826738   0.000000
    11  C    3.213369   3.025286   4.020325   3.813886   2.968993
    12  C    2.894522   2.276452   3.578217   2.754440   2.425527
    13  H    3.999085   3.674067   4.918505   4.492644   3.300421
    14  H    3.500036   3.678734   4.128021   4.462715   3.828006
    15  H    2.961411   2.537382   3.322221   2.735000   3.068304
    16  H    3.537294   2.530590   4.264771   2.783513   2.377731
                   11         12         13         14         15
    11  C    0.000000
    12  C    1.383403   0.000000
    13  H    1.086029   2.144668   0.000000
    14  H    1.083905   2.143564   1.832824   0.000000
    15  H    2.143563   1.083905   3.077521   2.472176   0.000000
    16  H    2.144666   1.086026   2.472267   3.077514   1.832820
                   16
    16  H    0.000000
 Stoichiometry    C6H10
 Framework group  C1[X(C6H10)]
 Deg. of freedom    42
 Full point group                 C1      NOp   1
 Largest Abelian subgroup         C1      NOp   1
 Largest concise Abelian subgroup C1      NOp   1
                         Standard orientation:                         
 ---------------------------------------------------------------------
 Center     Atomic      Atomic             Coordinates (Angstroms)
 Number     Number       Type             X           Y           Z
 ---------------------------------------------------------------------
      1          6           0       -0.450901    1.434915    0.494001
      2          6           0       -1.317705    0.703793   -0.293805
      3          1           0       -0.128178    1.059674    1.458151
      4          1           0       -0.394785    2.515097    0.386862
      5          1           0       -1.857320    1.214023   -1.090014
      6          6           0       -1.317668   -0.703854   -0.293791
      7          6           0       -0.450821   -1.434915    0.494027
      8          1           0       -1.857260   -1.214128   -1.089988
      9          1           0       -0.394655   -2.515098    0.386916
     10          1           0       -0.128101   -1.059644    1.458166
     11          6           0        1.576079    0.691728   -0.228068
     12          6           0        1.576083   -0.691674   -0.228113
     13          1           0        2.070753    1.236136    0.570916
     14          1           0        1.464186    1.236146   -1.158626
     15          1           0        1.464178   -1.236030   -1.158707
     16          1           0        2.070780   -1.236130    0.570821
 ---------------------------------------------------------------------
 Rotational constants (GHZ):           4.3416692           3.4641480           2.2627252
 Leave Link  202 at Wed Apr 24 10:22:49 2024, MaxMem=   104857600 cpu:               0.0 elap:               0.2
 (Enter /mlatom/software/Gaussian/g16-avx2/l301.exe)
 Standard basis: STO-3G (5D, 7F)
 Ernie: Thresh=  0.10000D-02 Tol=  0.10000D-05 Strict=F.
 There are    40 symmetry adapted cartesian basis functions of A   symmetry.
 There are    40 symmetry adapted basis functions of A   symmetry.
    40 basis functions,   120 primitive gaussians,    40 cartesian basis functions
    23 alpha electrons       23 beta electrons
       nuclear repulsion energy       224.1727902156 Hartrees.
 IExCor=    0 DFT=F Ex=HF Corr=None ExCW=0 ScaHFX=  1.000000
 ScaDFX=  1.000000  1.000000  1.000000  1.000000 ScalE2=  1.000000  1.000000
 IRadAn=      5 IRanWt=     -1 IRanGd=            0 ICorTp=0 IEmpDi=  4
 NAtoms=   16 NActive=   16 NUniq=   16 SFac= 1.00D+00 NAtFMM=   60 NAOKFM=F Big=F
 Integral buffers will be    131072 words long.
 Raffenetti 1 integral format.
 Two-electron integral symmetry is turned on.
 Leave Link  301 at Wed Apr 24 10:22:50 2024, MaxMem=   104857600 cpu:               0.1 elap:               0.6
 (Enter /mlatom/software/Gaussian/g16-avx2/l402.exe)
 External calculation of energy, first and second derivatives.
 Running external command "/mlatom/software/miniconda3/bin/python /mlatom/software/mlatom/mlatom/interfaces/gaussian_interface.py model_predict_kwargs R"
         input file       "/mlatom/home/qhzhang/git/ts-analysis/calculations/C60/energy_barrier/da/da_opt_ub3lypd4_recalculate/da_ts/Gau-263513.EIn"
         output file      "/mlatom/home/qhzhang/git/ts-analysis/calculations/C60/energy_barrier/da/da_opt_ub3lypd4_recalculate/da_ts/Gau-263513.EOu"
         message file     "/mlatom/home/qhzhang/git/ts-analysis/calculations/C60/energy_barrier/da/da_opt_ub3lypd4_recalculate/da_ts/Gau-263513.EMs"
         fchk file        "/mlatom/home/qhzhang/git/ts-analysis/calculations/C60/energy_barrier/da/da_opt_ub3lypd4_recalculate/da_ts/Gau-263513.EFC"
         mat. el file     "/mlatom/home/qhzhang/git/ts-analysis/calculations/C60/energy_barrier/da/da_opt_ub3lypd4_recalculate/da_ts/Gau-263513.EUF"
 Recovered energy= -234.566272733     dipole=      0.383200000000      0.000000000000      0.008400000000
 Energy=    -234.566273     NIter=   0.
 Dipole moment=       0.383200       0.000000       0.008400
 Leave Link  402 at Wed Apr 24 10:23:39 2024, MaxMem=   104857600 cpu:               0.1 elap:              47.9
 (Enter /mlatom/software/Gaussian/g16-avx2/l601.exe)
 Leave Link  601 at Wed Apr 24 10:23:40 2024, MaxMem=   104857600 cpu:               0.1 elap:               0.5
 (Enter /mlatom/software/Gaussian/g16-avx2/l716.exe)
 Dipole        = 3.83200000D-01 0.00000000D+00 8.40000000D-03
 Full mass-weighted force constant matrix:
 Low frequencies --- -514.6390  -10.6295   -0.1597   -0.1293    0.2262    0.7830
 Low frequencies ---    7.1907  134.8769  204.9179
 ******    1 imaginary frequencies (negative Signs) ****** 
 Diagonal vibrational polarizability:
        0.0000000       0.0000000       0.0000000
 Harmonic frequencies (cm**-1), IR intensities (KM/Mole), Raman scattering
 activities (A**4/AMU), depolarization ratios for plane and unpolarized
 incident light, reduced masses (AMU), force constants (mDyne/A),
 and normal coordinates:
                      1                      2                      3
                      A                      A                      A
 Frequencies --   -514.6390               134.8765               204.9169
 Red. masses --      8.2981                 2.1636                 3.9582
 Frc consts  --      1.2949                 0.0232                 0.0979
 IR Inten    --      0.0000                 0.0000                 0.0000
  Atom  AN      X      Y      Z        X      Y      Z        X      Y      Z
     1   6    -0.36   0.12   0.11    -0.09   0.06  -0.05     0.22  -0.12  -0.11
     2   6    -0.01   0.07   0.02    -0.02  -0.02  -0.04     0.10  -0.05  -0.06
     3   1     0.17  -0.03  -0.14    -0.10   0.13  -0.02     0.00  -0.07  -0.01
     4   1    -0.24   0.10   0.06    -0.10   0.05  -0.13     0.31  -0.13  -0.15
     5   1     0.09  -0.01  -0.09    -0.03  -0.09  -0.08     0.21  -0.04  -0.13
     6   6    -0.01  -0.07   0.02     0.02  -0.02   0.04    -0.10  -0.05   0.06
     7   6    -0.36  -0.12   0.11     0.09   0.06   0.05    -0.22  -0.12   0.11
     8   1     0.09   0.01  -0.09     0.03  -0.09   0.08    -0.21  -0.04   0.13
     9   1    -0.24  -0.10   0.06     0.10   0.05   0.13    -0.31  -0.13   0.15
    10   1     0.17   0.03  -0.14     0.10   0.13   0.02    -0.00  -0.07   0.01
    11   6     0.38  -0.10  -0.12     0.09  -0.04   0.16    -0.06   0.16   0.12
    12   6     0.38   0.10  -0.12    -0.09  -0.04  -0.16     0.06   0.16  -0.12
    13   1    -0.09   0.05   0.06     0.06  -0.29   0.35    -0.04   0.03   0.20
    14   1    -0.12   0.04   0.02     0.20   0.20   0.29     0.08   0.29   0.17
    15   1    -0.12  -0.04   0.02    -0.20   0.20  -0.29    -0.08   0.29  -0.17
    16   1    -0.09  -0.05   0.06    -0.06  -0.29  -0.35     0.04   0.03  -0.20
                      4                      5                      6
                      A                      A                      A
 Frequencies --    283.9845               378.8687               403.4257
 Red. masses --      2.7540                 2.5561                 2.8525
 Frc consts  --      0.1309                 0.2162                 0.2735
 IR Inten    --      0.0000                 0.0000                 0.0000
  Atom  AN      X      Y      Z        X      Y      Z        X      Y      Z
     1   6    -0.05  -0.04   0.16    -0.01   0.22  -0.04    -0.04   0.04   0.03
     2   6     0.16   0.00  -0.09     0.10   0.00   0.06     0.02   0.05  -0.05
     3   1    -0.15  -0.13   0.16     0.00   0.47   0.06    -0.29   0.09   0.13
     4   1    -0.04  -0.03   0.27    -0.05   0.20  -0.33     0.12   0.02  -0.07
     5   1     0.38   0.03  -0.22     0.14  -0.12  -0.06     0.16   0.02  -0.17
     6   6     0.16  -0.00  -0.09     0.10  -0.00   0.06    -0.02   0.05   0.05
     7   6    -0.05   0.04   0.16    -0.01  -0.22  -0.04     0.04   0.04  -0.03
     8   1     0.38  -0.03  -0.22     0.14   0.12  -0.06    -0.16   0.02   0.17
     9   1    -0.04   0.03   0.27    -0.05  -0.20  -0.33    -0.12   0.02   0.07
    10   1    -0.15   0.13   0.16     0.00  -0.47   0.06     0.29   0.09  -0.13
    11   6    -0.11  -0.00  -0.07    -0.08  -0.00   0.01    -0.24  -0.10   0.07
    12   6    -0.11   0.00  -0.07    -0.08   0.00   0.01     0.24  -0.10  -0.07
    13   1     0.00   0.00  -0.14    -0.04  -0.01  -0.01    -0.31  -0.03   0.06
    14   1    -0.27   0.00  -0.05    -0.10  -0.01   0.01    -0.35  -0.08   0.09
    15   1    -0.27  -0.00  -0.05    -0.10   0.01   0.01     0.35  -0.08  -0.09
    16   1     0.00  -0.00  -0.14    -0.04   0.01  -0.01     0.31  -0.03  -0.06
                      7                      8                      9
                      A                      A                      A
 Frequencies --    488.3902               590.1268               623.7877
 Red. masses --      2.5212                 2.0002                 1.0898
 Frc consts  --      0.3543                 0.4104                 0.2499
 IR Inten    --      0.0000                 0.0000                 0.0000
  Atom  AN      X      Y      Z        X      Y      Z        X      Y      Z
     1   6     0.08   0.02  -0.09     0.03   0.07   0.06     0.00   0.00   0.02
     2   6    -0.15   0.01   0.14     0.10  -0.11   0.11     0.02   0.00   0.01
     3   1     0.31   0.08  -0.15     0.08   0.48   0.21     0.02  -0.02  -0.00
     4   1    -0.06   0.03  -0.08    -0.13   0.04  -0.33    -0.02   0.01   0.05
     5   1    -0.40   0.04   0.34     0.20  -0.01   0.10     0.04  -0.00  -0.00
     6   6     0.15   0.01  -0.14    -0.10  -0.11  -0.11     0.02  -0.00   0.01
     7   6    -0.08   0.02   0.09    -0.03   0.07  -0.06     0.00  -0.00   0.02
     8   1     0.40   0.04  -0.34    -0.20  -0.01  -0.10     0.04   0.00  -0.00
     9   1     0.06   0.03   0.08     0.13   0.04   0.33    -0.02  -0.01   0.05
    10   1    -0.31   0.08   0.15    -0.08   0.48  -0.21     0.02   0.02  -0.00
    11   6    -0.10  -0.03   0.05    -0.00   0.00   0.00    -0.02  -0.00  -0.05
    12   6     0.10  -0.03  -0.05     0.00   0.00  -0.00    -0.02   0.00  -0.05
    13   1    -0.09  -0.06   0.07     0.02   0.01  -0.02    -0.45  -0.05   0.24
    14   1    -0.04  -0.00   0.06    -0.03  -0.00   0.00     0.46   0.06  -0.08
    15   1     0.04  -0.00  -0.06     0.03  -0.00  -0.00     0.46  -0.06  -0.08
    16   1     0.09  -0.06  -0.07    -0.02   0.01   0.02    -0.45   0.05   0.24
                     10                     11                     12
                      A                      A                      A
 Frequencies --    693.5818               781.1238               816.7517
 Red. masses --      1.2094                 1.5109                 1.1104
 Frc consts  --      0.3428                 0.5431                 0.4364
 IR Inten    --      0.0000                 0.0000                 0.0000
  Atom  AN      X      Y      Z        X      Y      Z        X      Y      Z
     1   6     0.00  -0.04   0.01     0.01   0.04  -0.02    -0.00   0.01   0.02
     2   6    -0.07   0.00   0.04     0.12  -0.03  -0.06    -0.02  -0.03  -0.01
     3   1    -0.20   0.11   0.14     0.30  -0.13  -0.18    -0.31   0.14   0.19
     4   1     0.33  -0.09  -0.28    -0.43   0.10   0.31    -0.28   0.04   0.07
     5   1     0.37  -0.05  -0.29    -0.12   0.02   0.14    -0.03  -0.02  -0.01
     6   6    -0.07  -0.00   0.04    -0.12  -0.03   0.06    -0.02   0.03  -0.01
     7   6     0.00   0.04   0.01    -0.01   0.04   0.02    -0.00  -0.01   0.02
     8   1     0.37   0.05  -0.29     0.12   0.02  -0.14    -0.03   0.02  -0.01
     9   1     0.33   0.09  -0.28     0.43   0.10  -0.31    -0.28  -0.04   0.07
    10   1    -0.20  -0.11   0.14    -0.30  -0.13   0.18    -0.31  -0.14   0.19
    11   6     0.02  -0.00  -0.02    -0.04  -0.01   0.01     0.02   0.04  -0.02
    12   6     0.02   0.00  -0.02     0.04  -0.01  -0.01     0.02  -0.04  -0.02
    13   1    -0.02   0.01   0.00    -0.10  -0.01   0.05     0.34  -0.14  -0.09
    14   1     0.02   0.00  -0.01    -0.02   0.01   0.03     0.34   0.06  -0.06
    15   1     0.02  -0.00  -0.01     0.02   0.01  -0.03     0.34  -0.06  -0.06
    16   1    -0.02  -0.01   0.00     0.10  -0.01  -0.05     0.34   0.14  -0.09
                     13                     14                     15
                      A                      A                      A
 Frequencies --    855.1148               909.5585               951.5014
 Red. masses --      1.0303                 1.1538                 1.3812
 Frc consts  --      0.4439                 0.5624                 0.7368
 IR Inten    --      0.0000                 0.0000                 0.0000
  Atom  AN      X      Y      Z        X      Y      Z        X      Y      Z
     1   6     0.00   0.00   0.00     0.03  -0.00  -0.01     0.02   0.09  -0.03
     2   6    -0.00  -0.01   0.00    -0.02   0.00   0.01    -0.06   0.06   0.03
     3   1    -0.07   0.03   0.04    -0.26   0.05   0.12     0.03  -0.28  -0.18
     4   1    -0.08   0.01   0.03    -0.27   0.04   0.16     0.09   0.13   0.43
     5   1     0.00  -0.01  -0.00     0.03  -0.03  -0.05     0.22  -0.10  -0.27
     6   6    -0.00   0.01   0.00     0.02   0.00  -0.01    -0.06  -0.06   0.03
     7   6     0.00  -0.00   0.00    -0.03  -0.00   0.01     0.02  -0.09  -0.03
     8   1     0.00   0.01  -0.00    -0.03  -0.03   0.05     0.22   0.10  -0.27
     9   1    -0.08  -0.01   0.03     0.27   0.04  -0.16     0.09  -0.13   0.43
    10   1    -0.07  -0.03   0.04     0.26   0.05  -0.12     0.03   0.28  -0.18
    11   6     0.01   0.01   0.03    -0.07   0.01   0.02    -0.02   0.01   0.01
    12   6     0.01  -0.01   0.03     0.07   0.01  -0.02    -0.02  -0.01   0.01
    13   1    -0.12   0.43  -0.18     0.35  -0.11  -0.14     0.14  -0.03  -0.05
    14   1     0.08  -0.43  -0.25     0.35  -0.12  -0.11     0.10  -0.04  -0.03
    15   1     0.08   0.43  -0.25    -0.35  -0.12   0.11     0.10   0.04  -0.03
    16   1    -0.12  -0.43  -0.18    -0.35  -0.11   0.14     0.14   0.03  -0.05
                     16                     17                     18
                      A                      A                      A
 Frequencies --    971.9583               982.6034               997.5001
 Red. masses --      1.2761                 1.3315                 1.1234
 Frc consts  --      0.7103                 0.7574                 0.6586
 IR Inten    --      0.0000                 0.0000                 0.0000
  Atom  AN      X      Y      Z        X      Y      Z        X      Y      Z
     1   6    -0.02   0.06   0.05    -0.06   0.01   0.04    -0.03   0.01   0.02
     2   6     0.00   0.05  -0.06     0.04  -0.01  -0.05    -0.01  -0.00   0.02
     3   1    -0.19  -0.06   0.07     0.23  -0.03  -0.08     0.18  -0.05  -0.08
     4   1     0.54   0.02  -0.02     0.34  -0.04  -0.19     0.11  -0.01  -0.03
     5   1    -0.31   0.07   0.17    -0.24   0.04   0.18     0.15  -0.00  -0.09
     6   6     0.00  -0.05  -0.06    -0.04  -0.01   0.05     0.01  -0.00  -0.02
     7   6    -0.02  -0.06   0.05     0.06   0.01  -0.04     0.03   0.01  -0.02
     8   1    -0.31  -0.07   0.17     0.24   0.04  -0.18    -0.15  -0.00   0.09
     9   1     0.54  -0.02  -0.02    -0.34  -0.04   0.19    -0.11  -0.01   0.03
    10   1    -0.19   0.06   0.07    -0.23  -0.03   0.08    -0.18  -0.05   0.08
    11   6    -0.00   0.00  -0.01    -0.05   0.02   0.04    -0.04   0.00  -0.04
    12   6    -0.00  -0.00  -0.01     0.05   0.02  -0.04     0.04   0.00   0.04
    13   1     0.06  -0.01  -0.04     0.37  -0.07  -0.16    -0.30  -0.06   0.16
    14   1     0.12  -0.04  -0.05     0.10  -0.07  -0.04     0.53   0.00  -0.12
    15   1     0.12   0.04  -0.05    -0.10  -0.07   0.04    -0.53   0.00   0.12
    16   1     0.06   0.01  -0.04    -0.37  -0.07   0.16     0.30  -0.06  -0.16
                     19                     20                     21
                      A                      A                      A
 Frequencies --   1010.9801              1017.0081              1111.2261
 Red. masses --      1.1855                 1.1205                 1.6460
 Frc consts  --      0.7139                 0.6828                 1.1976
 IR Inten    --      0.0000                 0.0000                 0.0000
  Atom  AN      X      Y      Z        X      Y      Z        X      Y      Z
     1   6    -0.06  -0.02   0.03     0.02  -0.02   0.00     0.07   0.03   0.05
     2   6     0.01  -0.01  -0.01     0.04   0.01  -0.04    -0.08   0.10  -0.07
     3   1     0.45   0.01  -0.14    -0.33   0.10   0.18     0.18   0.25   0.10
     4   1     0.07  -0.06  -0.19     0.01  -0.03  -0.08    -0.15   0.05   0.01
     5   1     0.09   0.06  -0.01    -0.39   0.08   0.30     0.16   0.55   0.04
     6   6     0.01   0.01  -0.01    -0.04   0.01   0.04    -0.08  -0.10  -0.07
     7   6    -0.06   0.02   0.03    -0.02  -0.02  -0.00     0.07  -0.03   0.05
     8   1     0.09  -0.06  -0.01     0.39   0.08  -0.30     0.16  -0.55   0.04
     9   1     0.07   0.06  -0.19    -0.01  -0.03   0.08    -0.15  -0.05   0.01
    10   1     0.45  -0.01  -0.14     0.33   0.10  -0.18     0.18  -0.25   0.10
    11   6    -0.05  -0.00   0.02     0.02  -0.00  -0.03     0.01   0.01  -0.00
    12   6    -0.05   0.00   0.02    -0.02  -0.00   0.03     0.01  -0.01  -0.00
    13   1     0.27  -0.09  -0.11    -0.23   0.02   0.10    -0.07   0.03   0.03
    14   1     0.30  -0.13  -0.10     0.16   0.02  -0.04    -0.05   0.03   0.02
    15   1     0.30   0.13  -0.10    -0.16   0.02   0.04    -0.05  -0.03   0.02
    16   1     0.27   0.09  -0.11     0.23   0.02  -0.10    -0.07  -0.03   0.03
                     22                     23                     24
                      A                      A                      A
 Frequencies --   1115.0120              1256.1239              1265.9289
 Red. masses --      1.5318                 1.4106                 1.7814
 Frc consts  --      1.1221                 1.3113                 1.6820
 IR Inten    --      0.0000                 0.0000                 0.0000
  Atom  AN      X      Y      Z        X      Y      Z        X      Y      Z
     1   6     0.03   0.12  -0.00    -0.01   0.00  -0.02     0.01   0.02   0.06
     2   6     0.02  -0.08   0.05     0.01  -0.00   0.02    -0.04  -0.04  -0.04
     3   1    -0.23  -0.21  -0.03    -0.04  -0.06  -0.04     0.26   0.09  -0.00
     4   1     0.38   0.13   0.32     0.01  -0.00  -0.01     0.07   0.02   0.02
     5   1    -0.12  -0.32  -0.01     0.05   0.09   0.05    -0.09  -0.26  -0.15
     6   6    -0.02  -0.08  -0.05    -0.01  -0.00  -0.02    -0.04   0.04  -0.04
     7   6    -0.03   0.12   0.00     0.01   0.00   0.02     0.01  -0.02   0.06
     8   1     0.12  -0.32   0.01    -0.05   0.09  -0.05    -0.09   0.26  -0.15
     9   1    -0.38   0.13  -0.32    -0.01  -0.00   0.01     0.07  -0.02   0.02
    10   1     0.23  -0.21   0.03     0.04  -0.06   0.04     0.26  -0.09  -0.00
    11   6     0.00  -0.00  -0.00     0.04  -0.00   0.13     0.02   0.16  -0.00
    12   6    -0.00  -0.00   0.00    -0.04  -0.00  -0.13     0.02  -0.16  -0.00
    13   1    -0.01   0.01   0.00    -0.15   0.45  -0.08    -0.07   0.36  -0.06
    14   1    -0.01  -0.00  -0.00     0.09  -0.44  -0.15    -0.00   0.37   0.10
    15   1     0.01  -0.00   0.00    -0.09  -0.44   0.15    -0.00  -0.37   0.10
    16   1     0.01   0.01  -0.00     0.15   0.45   0.08    -0.07  -0.36  -0.06
                     25                     26                     27
                      A                      A                      A
 Frequencies --   1283.4343              1329.9707              1454.5256
 Red. masses --      1.4577                 1.4999                 1.2131
 Frc consts  --      1.4147                 1.5631                 1.5121
 IR Inten    --      0.0000                 0.0000                 0.0000
  Atom  AN      X      Y      Z        X      Y      Z        X      Y      Z
     1   6    -0.06   0.00  -0.09    -0.06  -0.00  -0.06    -0.01  -0.00  -0.02
     2   6     0.05  -0.02   0.08     0.05   0.01   0.06    -0.05  -0.06  -0.06
     3   1    -0.25  -0.27  -0.14    -0.19  -0.23  -0.12     0.10   0.37   0.10
     4   1     0.04  -0.01  -0.04     0.03  -0.02  -0.08     0.21   0.04   0.40
     5   1     0.23   0.43   0.24     0.21   0.41   0.22     0.11   0.33   0.08
     6   6    -0.05  -0.02  -0.08     0.05  -0.01   0.06     0.05  -0.06   0.06
     7   6     0.06   0.00   0.09    -0.06   0.00  -0.06     0.01  -0.00   0.02
     8   1    -0.23   0.43  -0.24     0.21  -0.41   0.22    -0.11   0.33  -0.08
     9   1    -0.04  -0.01   0.04     0.03   0.02  -0.08    -0.21   0.04  -0.40
    10   1     0.25  -0.27   0.14    -0.19   0.23  -0.12    -0.10   0.37  -0.10
    11   6    -0.01   0.00  -0.02    -0.01   0.09   0.00     0.00  -0.00   0.00
    12   6     0.01   0.00   0.02    -0.01  -0.09   0.00    -0.00  -0.00  -0.00
    13   1     0.08  -0.11   0.00     0.04   0.21  -0.09    -0.01   0.00   0.00
    14   1    -0.02   0.08   0.03     0.08   0.21   0.05    -0.01  -0.01  -0.00
    15   1     0.02   0.08  -0.03     0.08  -0.21   0.05     0.01  -0.01   0.00
    16   1    -0.08  -0.11  -0.00     0.04  -0.21  -0.09     0.01   0.00  -0.00
                     28                     29                     30
                      A                      A                      A
 Frequencies --   1492.6551              1514.1080              1570.0845
 Red. masses --      1.1085                 1.6231                 1.4583
 Frc consts  --      1.4551                 2.1923                 2.1180
 IR Inten    --      0.0000                 0.0000                 0.0000
  Atom  AN      X      Y      Z        X      Y      Z        X      Y      Z
     1   6    -0.00   0.00  -0.00    -0.03   0.01  -0.04     0.03   0.05   0.05
     2   6    -0.00  -0.00   0.00    -0.02  -0.16  -0.01    -0.02  -0.05  -0.02
     3   1    -0.01  -0.00   0.00     0.08   0.30   0.05    -0.03  -0.32  -0.09
     4   1     0.00   0.00   0.00     0.27   0.05   0.41    -0.09   0.02  -0.25
     5   1     0.00   0.01   0.00     0.15   0.22   0.13     0.04   0.06   0.01
     6   6     0.00  -0.00  -0.00    -0.02   0.16  -0.01    -0.02   0.05  -0.02
     7   6     0.00   0.00   0.00    -0.03  -0.01  -0.04     0.03  -0.05   0.05
     8   1    -0.00   0.01  -0.00     0.15  -0.22   0.13     0.04  -0.06   0.01
     9   1    -0.00   0.00  -0.00     0.27  -0.05   0.41    -0.09  -0.02  -0.25
    10   1     0.01  -0.00  -0.00     0.08  -0.30   0.05    -0.03   0.32  -0.09
    11   6    -0.01  -0.07   0.00     0.02   0.01  -0.00     0.02   0.10  -0.01
    12   6     0.01  -0.07  -0.00     0.02  -0.01  -0.00     0.02  -0.10  -0.01
    13   1     0.02   0.38  -0.30    -0.02  -0.10   0.09    -0.03  -0.27   0.27
    14   1     0.19   0.40   0.24    -0.08  -0.10  -0.06    -0.18  -0.27  -0.20
    15   1    -0.19   0.40  -0.24    -0.08   0.10  -0.06    -0.18   0.27  -0.20
    16   1    -0.02   0.38   0.30    -0.02   0.10   0.09    -0.03   0.27   0.27
                     31                     32                     33
                      A                      A                      A
 Frequencies --   1617.2081              1621.5655              3155.1375
 Red. masses --      2.5193                 2.4282                 1.0816
 Frc consts  --      3.8821                 3.7618                 6.3440
 IR Inten    --      0.0000                 0.0000                 0.0000
  Atom  AN      X      Y      Z        X      Y      Z        X      Y      Z
     1   6     0.06   0.09   0.06    -0.10  -0.10  -0.10    -0.00  -0.01  -0.00
     2   6    -0.06  -0.16  -0.04     0.11   0.10   0.11    -0.03   0.03  -0.04
     3   1    -0.06  -0.35  -0.07     0.05   0.38   0.03     0.02  -0.03   0.06
     4   1    -0.07   0.07  -0.21     0.16  -0.08   0.33     0.01   0.19  -0.02
     5   1     0.09   0.14   0.05    -0.09  -0.37  -0.04     0.34  -0.31   0.49
     6   6    -0.06   0.16  -0.04    -0.11   0.10  -0.11     0.03   0.03   0.04
     7   6     0.06  -0.09   0.06     0.10  -0.10   0.10     0.00  -0.01   0.00
     8   1     0.09  -0.14   0.05     0.09  -0.37   0.04    -0.34  -0.31  -0.49
     9   1    -0.07  -0.07  -0.21    -0.16  -0.08  -0.33    -0.01   0.19   0.02
    10   1    -0.06   0.35  -0.07    -0.05   0.38  -0.03    -0.02  -0.03  -0.06
    11   6    -0.00  -0.15   0.00    -0.00   0.00   0.00     0.00   0.00   0.00
    12   6    -0.00   0.15   0.00     0.00   0.00  -0.00    -0.00   0.00  -0.00
    13   1    -0.04   0.22  -0.24     0.01  -0.00  -0.01    -0.02  -0.02  -0.03
    14   1     0.12   0.22   0.21     0.01   0.00  -0.00     0.00  -0.01   0.02
    15   1     0.12  -0.22   0.21    -0.01   0.00   0.00    -0.00  -0.01  -0.02
    16   1    -0.04  -0.22  -0.24    -0.01  -0.00   0.01     0.02  -0.02   0.03
                     34                     35                     36
                      A                      A                      A
 Frequencies --   3164.4529              3165.8045              3173.0412
 Red. masses --      1.0532                 1.0651                 1.0618
 Frc consts  --      6.2140                 6.2897                 6.2984
 IR Inten    --      0.0000                 0.0000                 0.0000
  Atom  AN      X      Y      Z        X      Y      Z        X      Y      Z
     1   6     0.01   0.01   0.01     0.01   0.03   0.02    -0.02  -0.03  -0.03
     2   6    -0.01   0.00  -0.01     0.02  -0.02   0.02     0.01  -0.00   0.01
     3   1    -0.04   0.05  -0.12    -0.10   0.12  -0.29     0.13  -0.15   0.35
     4   1    -0.01  -0.14   0.02    -0.02  -0.47   0.06     0.03   0.51  -0.06
     5   1     0.05  -0.05   0.07    -0.20   0.19  -0.29    -0.08   0.07  -0.12
     6   6     0.01   0.00   0.01     0.02   0.02   0.02    -0.01  -0.00  -0.01
     7   6    -0.01   0.01  -0.01     0.01  -0.03   0.02     0.02  -0.03   0.03
     8   1    -0.05  -0.05  -0.07    -0.20  -0.19  -0.29     0.08   0.07   0.12
     9   1     0.01  -0.14  -0.02    -0.02   0.47   0.06    -0.03   0.51   0.06
    10   1     0.04   0.05   0.12    -0.10  -0.12  -0.29    -0.13  -0.15  -0.35
    11   6    -0.02  -0.04  -0.01    -0.00  -0.01  -0.00    -0.00  -0.01  -0.00
    12   6     0.02  -0.04   0.01    -0.00   0.01  -0.00     0.00  -0.01   0.00
    13   1     0.24   0.27   0.41     0.03   0.04   0.06     0.08   0.08   0.13
    14   1    -0.05   0.19  -0.34    -0.01   0.03  -0.05    -0.02   0.07  -0.12
    15   1     0.05   0.19   0.34    -0.01  -0.03  -0.05     0.02   0.07   0.12
    16   1    -0.24   0.27  -0.41     0.03  -0.04   0.06    -0.08   0.08  -0.13
                     37                     38                     39
                      A                      A                      A
 Frequencies --   3176.7679              3179.9063              3241.5320
 Red. masses --      1.0664                 1.0828                 1.1144
 Frc consts  --      6.3410                 6.4512                 6.8989
 IR Inten    --      0.0000                 0.0000                 0.0000
  Atom  AN      X      Y      Z        X      Y      Z        X      Y      Z
     1   6     0.00  -0.00   0.00     0.01   0.02   0.02     0.00  -0.02   0.02
     2   6    -0.01   0.01  -0.01    -0.03   0.02  -0.04     0.00  -0.00   0.00
     3   1    -0.01   0.01  -0.03    -0.09   0.11  -0.26    -0.06   0.07  -0.16
     4   1    -0.00   0.01  -0.00    -0.02  -0.29   0.03     0.01   0.15  -0.01
     5   1     0.09  -0.09   0.13     0.27  -0.26   0.40    -0.01   0.01  -0.02
     6   6    -0.01  -0.01  -0.01    -0.03  -0.02  -0.04    -0.00  -0.00  -0.00
     7   6     0.00   0.00   0.00     0.01  -0.02   0.02    -0.00  -0.02  -0.02
     8   1     0.09   0.09   0.13     0.27   0.26   0.40     0.01   0.01   0.02
     9   1    -0.00  -0.01  -0.00    -0.02   0.29   0.03    -0.01   0.15   0.01
    10   1    -0.01  -0.01  -0.03    -0.09  -0.11  -0.26     0.06   0.07   0.16
    11   6    -0.02  -0.05  -0.00     0.00   0.01   0.00    -0.02   0.01  -0.06
    12   6    -0.02   0.05  -0.00     0.00  -0.01   0.00     0.02   0.01   0.06
    13   1     0.24   0.26   0.40    -0.06  -0.06  -0.09     0.17   0.19   0.27
    14   1    -0.05   0.20  -0.36     0.01  -0.05   0.09     0.06  -0.28   0.46
    15   1    -0.05  -0.20  -0.36     0.01   0.05   0.09    -0.06  -0.28  -0.46
    16   1     0.24  -0.27   0.40    -0.06   0.06  -0.09    -0.17   0.19  -0.27
                     40                     41                     42
                      A                      A                      A
 Frequencies --   3247.7323              3249.7705              3265.8085
 Red. masses --      1.1144                 1.1142                 1.1168
 Frc consts  --      6.9258                 6.9330                 7.0182
 IR Inten    --      0.0000                 0.0000                 0.0000
  Atom  AN      X      Y      Z        X      Y      Z        X      Y      Z
     1   6    -0.01   0.05  -0.04    -0.01   0.05  -0.04    -0.00   0.01  -0.01
     2   6    -0.00   0.00  -0.01    -0.00   0.00  -0.00    -0.00   0.00  -0.00
     3   1     0.17  -0.19   0.48     0.17  -0.19   0.47     0.02  -0.02   0.06
     4   1    -0.03  -0.43   0.04    -0.02  -0.39   0.03    -0.00  -0.05   0.00
     5   1     0.04  -0.04   0.06     0.03  -0.03   0.05     0.00  -0.00   0.01
     6   6    -0.00  -0.00  -0.01     0.00   0.00   0.00    -0.00  -0.00  -0.00
     7   6    -0.01  -0.05  -0.04     0.01   0.05   0.04    -0.00  -0.01  -0.01
     8   1     0.04   0.04   0.06    -0.03  -0.03  -0.05     0.00   0.00   0.01
     9   1    -0.03   0.43   0.04     0.02  -0.39  -0.03    -0.00   0.05   0.00
    10   1     0.17   0.19   0.48    -0.17  -0.19  -0.47     0.02   0.02   0.06
    11   6     0.00  -0.00   0.01    -0.01   0.00  -0.02    -0.02   0.01  -0.07
    12   6     0.00   0.00   0.01     0.01   0.00   0.02    -0.02  -0.01  -0.07
    13   1    -0.02  -0.02  -0.03     0.07   0.08   0.11     0.19   0.22   0.31
    14   1    -0.01   0.04  -0.07     0.02  -0.09   0.16     0.06  -0.28   0.47
    15   1    -0.01  -0.04  -0.07    -0.02  -0.09  -0.16     0.06   0.28   0.47
    16   1    -0.02   0.02  -0.03    -0.07   0.08  -0.11     0.19  -0.22   0.31

 -------------------
 - Thermochemistry -
 -------------------
 Temperature   298.150 Kelvin.  Pressure   1.00000 Atm.
 Atom     1 has atomic number  6 and mass  12.00000
 Atom     2 has atomic number  6 and mass  12.00000
 Atom     3 has atomic number  1 and mass   1.00783
 Atom     4 has atomic number  1 and mass   1.00783
 Atom     5 has atomic number  1 and mass   1.00783
 Atom     6 has atomic number  6 and mass  12.00000
 Atom     7 has atomic number  6 and mass  12.00000
 Atom     8 has atomic number  1 and mass   1.00783
 Atom     9 has atomic number  1 and mass   1.00783
 Atom    10 has atomic number  1 and mass   1.00783
 Atom    11 has atomic number  6 and mass  12.00000
 Atom    12 has atomic number  6 and mass  12.00000
 Atom    13 has atomic number  1 and mass   1.00783
 Atom    14 has atomic number  1 and mass   1.00783
 Atom    15 has atomic number  1 and mass   1.00783
 Atom    16 has atomic number  1 and mass   1.00783
 Molecular mass:    82.07825 amu.
 Principal axes and moments of inertia in atomic units:
                           1         2         3
     Eigenvalues --   415.67911 520.97694 797.59629
           X            0.99976  -0.00000   0.02181
           Y            0.00000   1.00000   0.00000
           Z           -0.02181  -0.00000   0.99976
 This molecule is an asymmetric top.
 Rotational symmetry number  1.
 Rotational temperatures (Kelvin)      0.20837     0.16625     0.10859
 Rotational constants (GHZ):           4.34167     3.46415     2.26273
    1 imaginary frequencies ignored.
 Zero-point vibrational energy     369334.2 (Joules/Mol)
                                   88.27299 (Kcal/Mol)
 Warning -- explicit consideration of   7 degrees of freedom as
           vibrations may cause significant error
 Vibrational temperatures:    194.06   294.83   408.59   545.11   580.44
          (Kelvin)            702.68   849.06   897.49   997.91  1123.86
                             1175.12  1230.32  1308.65  1369.00  1398.43
                             1413.75  1435.18  1454.57  1463.25  1598.81
                             1604.25  1807.28  1821.39  1846.58  1913.53
                             2092.74  2147.60  2178.46  2259.00  2326.80
                             2333.07  4539.54  4552.94  4554.89  4565.30
                             4570.66  4575.18  4663.84  4672.76  4675.69
                             4698.77
 
 Zero-point correction=                           0.140672 (Hartree/Particle)
 Thermal correction to Energy=                    0.147092
 Thermal correction to Enthalpy=                  0.148036
 Thermal correction to Gibbs Free Energy=         0.111104
 Sum of electronic and zero-point Energies=           -234.425601
 Sum of electronic and thermal Energies=              -234.419181
 Sum of electronic and thermal Enthalpies=            -234.418237
 Sum of electronic and thermal Free Energies=         -234.455168
 
                     E (Thermal)             CV                S
                      KCal/Mol        Cal/Mol-Kelvin    Cal/Mol-Kelvin
 Total                   92.302             24.805             77.729
 Electronic               0.000              0.000              0.000
 Translational            0.889              2.981             39.129
 Rotational               0.889              2.981             26.649
 Vibrational             90.524             18.843             11.951
 Vibration     1          0.613              1.919              2.875
 Vibration     2          0.640              1.833              2.088
 Vibration     3          0.682              1.703              1.510
 Vibration     4          0.749              1.515              1.044
 Vibration     5          0.769              1.463              0.950
 Vibration     6          0.844              1.276              0.688
 Vibration     7          0.947              1.053              0.467
                       Q            Log10(Q)             Ln(Q)
 Total Bot       0.786218D-51        -51.104457       -117.672360
 Total V=0       0.398198D+14         13.600099         31.315384
 Vib (Bot)       0.180810D-63        -63.742778       -146.773171
 Vib (Bot)    1  0.150961D+01          0.178866          0.411854
 Vib (Bot)    2  0.971204D+00         -0.012689         -0.029218
 Vib (Bot)    3  0.675583D+00         -0.170321         -0.392179
 Vib (Bot)    4  0.477601D+00         -0.320934         -0.738979
 Vib (Bot)    5  0.440696D+00         -0.355861         -0.819400
 Vib (Bot)    6  0.339971D+00         -0.468558         -1.078895
 Vib (Bot)    7  0.255595D+00         -0.592447         -1.364160
 Vib (V=0)       0.915750D+01          0.961777          2.214574
 Vib (V=0)    1  0.209026D+01          0.320201          0.737290
 Vib (V=0)    2  0.159235D+01          0.202040          0.465214
 Vib (V=0)    3  0.134048D+01          0.127261          0.293030
 Vib (V=0)    4  0.119145D+01          0.076076          0.175171
 Vib (V=0)    5  0.116649D+01          0.066882          0.154002
 Vib (V=0)    6  0.110463D+01          0.043218          0.099513
 Vib (V=0)    7  0.106154D+01          0.025937          0.059722
 Electronic      0.100000D+01          0.000000          0.000000
 Translational   0.292278D+08          7.465796         17.190631
 Rotational      0.148773D+06          5.172526         11.910180
 ***** Axes restored to original set *****
 -------------------------------------------------------------------
 Center     Atomic                   Forces (Hartrees/Bohr)
 Number     Number              X              Y              Z
 -------------------------------------------------------------------
      1        6           0.000021964    0.000016059    0.000002783
      2        6          -0.000009854   -0.000015058   -0.000010875
      3        1          -0.000001844    0.000004728    0.000001718
      4        1           0.000002731    0.000001369    0.000000516
      5        1          -0.000002658    0.000000505    0.000002391
      6        6          -0.000009734    0.000014755   -0.000008655
      7        6           0.000021863   -0.000016640    0.000001025
      8        1          -0.000002644   -0.000000702    0.000002468
      9        1           0.000002340   -0.000001402   -0.000000064
     10        1          -0.000002700   -0.000003753    0.000001566
     11        6          -0.000009167    0.000025225    0.000004508
     12        6          -0.000009681   -0.000024091    0.000004345
     13        1          -0.000001743    0.000000814   -0.000000309
     14        1           0.000000765    0.000000202   -0.000001344
     15        1           0.000000699   -0.000000237   -0.000001214
     16        1          -0.000000336   -0.000001777    0.000001140
 -------------------------------------------------------------------
 Cartesian Forces:  Max     0.000025225 RMS     0.000008986
 Z-matrix is all fixed cartesians, so copy forces.
 Leave Link  716 at Wed Apr 24 10:23:41 2024, MaxMem=   104857600 cpu:               0.1 elap:               0.6
 (Enter /mlatom/software/Gaussian/g16-avx2/l103.exe)

 GradGradGradGradGradGradGradGradGradGradGradGradGradGradGradGradGradGrad
 Berny optimization.
 Search for a local minimum.
 Step number   1 out of a maximum of    2
 All quantities printed in internal units (Hartrees-Bohrs-Radians)
 Second derivative matrix not updated -- analytic derivatives used.
 ITU=  0
     Eigenvalues ---   -0.10495   0.00146   0.00629   0.00731   0.01171
     Eigenvalues ---    0.01388   0.01991   0.02016   0.02648   0.02856
     Eigenvalues ---    0.03120   0.03299   0.03437   0.04105   0.05350
     Eigenvalues ---    0.06026   0.06796   0.07438   0.08561   0.08751
     Eigenvalues ---    0.11566   0.12952   0.14099   0.14273   0.14673
     Eigenvalues ---    0.15563   0.16978   0.22489   0.25679   0.30521
     Eigenvalues ---    0.40142   0.52917   0.57639   0.72464   0.78288
     Eigenvalues ---    0.89262   0.91380   1.00544   1.06692   1.07408
     Eigenvalues ---    1.24445   1.26957
 Eigenvalue     1 is  -1.05D-01 should be greater than     0.000000 Eigenvector:
                          X12       X11       X7        X1        Z12
   1                    0.46915   0.46915  -0.41554  -0.41554  -0.15145
                          Z11       Z7        Z1        Y7        Y1
   1                   -0.15143   0.14080   0.14078  -0.12097   0.12095
 Angle between quadratic step and forces=  68.36 degrees.
 Linear search not attempted -- first point.
 B after Tr=     0.000005   -0.000000    0.000002
         Rot=    1.000000   -0.000000    0.000001    0.000000 Ang=  -0.00 deg.
 Variable       Old X    -DE/DX   Delta X   Delta X   Delta X     New X
                                 (Linear)    (Quad)   (Total)
    X1       -0.85208   0.00002   0.00000   0.00020   0.00021  -0.85187
    Y1        2.71160   0.00002   0.00000   0.00013   0.00013   2.71173
    Z1        0.93353   0.00000   0.00000  -0.00014  -0.00013   0.93339
    X2       -2.49010  -0.00001   0.00000  -0.00004  -0.00003  -2.49014
    Y2        1.32998  -0.00002   0.00000  -0.00003  -0.00003   1.32995
    Z2       -0.55521  -0.00001   0.00000   0.00008   0.00008  -0.55513
    X3       -0.24222  -0.00000   0.00000   0.00010   0.00010  -0.24212
    Y3        2.00249   0.00000   0.00000   0.00038   0.00038   2.00287
    Z3        2.75551   0.00000   0.00000  -0.00001  -0.00000   2.75550
    X4       -0.74604   0.00000   0.00000   0.00001   0.00001  -0.74603
    Y4        4.75284   0.00000   0.00000   0.00015   0.00014   4.75299
    Z4        0.73106   0.00000   0.00000  -0.00026  -0.00026   0.73081
    X5       -3.50983  -0.00000   0.00000  -0.00024  -0.00024  -3.51006
    Y5        2.29417   0.00000   0.00000  -0.00004  -0.00004   2.29413
    Z5       -2.05983   0.00000   0.00000   0.00020   0.00020  -2.05963
    X6       -2.49003  -0.00001   0.00000  -0.00006  -0.00005  -2.49008
    Y6       -1.33009   0.00001   0.00000   0.00004   0.00004  -1.33005
    Z6       -0.55519  -0.00001   0.00000   0.00005   0.00005  -0.55513
    X7       -0.85193   0.00002   0.00000   0.00016   0.00016  -0.85177
    Y7       -2.71160  -0.00002   0.00000  -0.00016  -0.00016  -2.71176
    Z7        0.93358   0.00000   0.00000  -0.00019  -0.00019   0.93339
    X8       -3.50971  -0.00000   0.00000  -0.00026  -0.00026  -3.50997
    Y8       -2.29437  -0.00000   0.00000   0.00010   0.00010  -2.29427
    Z8       -2.05978   0.00000   0.00000   0.00015   0.00015  -2.05963
    X9       -0.74579   0.00000   0.00000  -0.00005  -0.00004  -0.74583
    Y9       -4.75285  -0.00000   0.00000  -0.00017  -0.00017  -4.75302
    Z9        0.73117  -0.00000   0.00000  -0.00036  -0.00037   0.73080
   X10       -0.24208  -0.00000   0.00000   0.00003   0.00003  -0.24204
   Y10       -2.00244  -0.00000   0.00000  -0.00045  -0.00045  -2.00289
   Z10        2.75553   0.00000   0.00000  -0.00003  -0.00003   2.75550
   X11        2.97836  -0.00001   0.00000  -0.00013  -0.00012   2.97824
   Y11        1.30718   0.00003   0.00000   0.00008   0.00008   1.30726
   Z11       -0.43099   0.00000   0.00000   0.00007   0.00007  -0.43091
   X12        2.97837  -0.00001   0.00000  -0.00008  -0.00008   2.97829
   Y12       -1.30708  -0.00002   0.00000  -0.00006  -0.00006  -1.30714
   Z12       -0.43107   0.00000   0.00000   0.00015   0.00016  -0.43092
   X13        3.91316  -0.00000   0.00000  -0.00007  -0.00007   3.91309
   Y13        2.33596   0.00000   0.00000   0.00011   0.00011   2.33607
   Z13        1.07888  -0.00000   0.00000   0.00001   0.00002   1.07890
   X14        2.76691   0.00000   0.00000   0.00014   0.00014   2.76705
   Y14        2.33598   0.00000   0.00000  -0.00006  -0.00006   2.33592
   Z14       -2.18949  -0.00000   0.00000  -0.00006  -0.00005  -2.18953
   X15        2.76690   0.00000   0.00000   0.00025   0.00025   2.76715
   Y15       -2.33576  -0.00000   0.00000  -0.00005  -0.00005  -2.33581
   Z15       -2.18964  -0.00000   0.00000   0.00010   0.00010  -2.18954
   X16        3.91321  -0.00000   0.00000  -0.00002  -0.00002   3.91319
   Y16       -2.33595  -0.00000   0.00000   0.00004   0.00003  -2.33591
   Z16        1.07869   0.00000   0.00000   0.00019   0.00020   1.07889
         Item               Value     Threshold  Converged?
 Maximum Force            0.000025     0.000450     YES
 RMS     Force            0.000009     0.000300     YES
 Maximum Displacement     0.000450     0.001800     YES
 RMS     Displacement     0.000159     0.001200     YES
 Predicted change in Energy=-2.327281D-08
 Optimization completed.
    -- Stationary point found.
 GradGradGradGradGradGradGradGradGradGradGradGradGradGradGradGradGradGrad

 Leave Link  103 at Wed Apr 24 10:23:43 2024, MaxMem=   104857600 cpu:               0.0 elap:               1.4
 (Enter /mlatom/software/Gaussian/g16-avx2/l9999.exe)
 1\1\GINC-B006\Freq\RExternal='/mlatom/software/miniconda3/bin/python /
 mlatom/software/mlatom/mlatom/\ZDO\C6H10\UNKNOWN\24-Apr-2024\0\\#p fre
 q external='/mlatom/software/miniconda3/bin/python /mlatom/software/ml
 atom/mlatom/interfaces/gaussian_interface.py model_predict_kwargs'\\39
 00b286-f101-4732-9319-0acbdfd3a2cd\\0,1\C,-0.4509012449,1.4349146281,0
 .4940009921\C,-1.3177045,0.7037932999,-0.2938047034\H,-0.1281781267,1.
 0596735441,1.4581505499\H,-0.3947853812,2.5150969294,0.3868622885\H,-1
 .8573202827,1.2140225476,-1.0900144656\C,-1.3176677693,-0.7038542534,-
 0.2937914766\C,-0.450821481,-1.4349149195,0.4940270023\H,-1.8572603728
 ,-1.2141276387,-1.0899882955\H,-0.3946550271,-2.5150976076,0.386916423
 4\H,-0.1281013247,-1.0596436926,1.458165984\C,1.5760790748,0.691728110
 9,-0.2280681604\C,1.5760831858,-0.6916744726,-0.2281130883\H,2.0707534
 757,1.2361362836,0.5709163043\H,1.464185984,1.2361459834,-1.1586263793
 \H,1.4641779104,-1.236030348,-1.1587065993\H,2.0707795522,-1.236130361
 1,0.5708207955\\Version=ES64L-G16RevA.03\HF=-234.5662727\RMSD=0.000e+0
 0\RMSF=8.986e-06\ZeroPoint=0.140672\Thermal=0.1470919\Dipole=0.3832,0.
 ,0.0084\PG=C01 [X(C6H10)]\NImag=1\\0.23294251,0.12450781,0.66725585,0.
 25057522,-0.02119370,0.55373468,-0.16717264,-0.11668493,-0.14429309,0.
 38761237,-0.05628373,-0.18898636,-0.07990625,0.03192404,0.66777349,-0.
 12431722,-0.09381353,-0.20064422,0.28604891,-0.02044178,0.48025917,-0.
 04671678,0.02537022,-0.08161491,-0.01007155,0.00091536,-0.02323793,0.0
 6723716,0.02160433,-0.09375494,0.09296831,-0.00176147,0.01439676,-0.01
 315758,-0.02992816,0.09403628,-0.09592407,0.09364583,-0.27933957,-0.00
 297106,0.01155937,-0.00988088,0.09512287,-0.10091081,0.29033168,-0.038
 41875,-0.01139246,-0.00899864,0.00291390,-0.02381379,0.00350725,0.0012
 2958,0.00870219,-0.00079725,0.03598021,-0.01928812,-0.33742672,0.03310
 221,0.00208563,-0.01199723,0.00389239,-0.00082552,-0.00732136,-0.00036
 764,0.02010793,0.35621821,-0.01116138,0.03296184,-0.05455715,0.0006797
 5,-0.01876036,0.00393551,0.00138362,0.02654140,0.00038053,0.01060199,-
 0.03423686,0.05011131,-0.00302954,0.01032969,-0.01614519,-0.11282252,0
 .05706073,-0.10867811,0.00248938,-0.00320103,-0.00325154,-0.00272063,0
 .00062731,0.00271339,0.11163690,-0.00847055,0.01012140,-0.01548174,0.0
 5950358,-0.11773807,0.09587805,-0.00337293,-0.00096918,-0.00177700,0.0
 0082784,0.00096246,-0.00021559,-0.06552379,0.12500374,-0.01060504,0.00
 898425,-0.01249374,-0.11104762,0.09939991,-0.19424144,-0.00615023,-0.0
 0080680,0.00121306,0.00332226,-0.00092851,-0.00100452,0.12388347,-0.10
 243053,0.20303399,0.01667209,-0.01735501,0.00346709,-0.07629902,-0.016
 99851,-0.03184690,-0.00467175,0.00162180,0.00190891,0.00068302,-0.0029
 3591,-0.00461695,0.00262579,0.01780395,-0.00012089,0.38761657,-0.06719
 622,-0.03529780,-0.02111343,0.01701012,-0.31074723,0.03437863,0.007555
 88,-0.00324470,-0.00149527,-0.00011465,0.00042973,-0.00196401,0.001758
 64,-0.01243649,-0.00421414,-0.03193058,0.66776985,0.02045035,-0.016688
 77,0.01284335,-0.03184555,-0.03437620,-0.10484434,0.00024091,0.0010796
 3,0.00091690,-0.00732424,-0.00113681,0.00166781,0.00083466,0.02505577,
 0.00157889,0.28604699,0.02045560,0.48025422,-0.05181149,-0.00586815,-0
 .00682448,0.01666775,0.06719974,0.02044848,0.00646933,-0.00238329,-0.0
 0319319,-0.00055049,0.00013365,-0.00101048,0.00580442,-0.00163042,-0.0
 0274526,-0.16718010,0.05628003,-0.12432126,0.23295759,0.00586581,-0.00
 409658,0.00535363,0.01735781,-0.03529264,0.01669058,-0.00088607,-0.000
 83041,0.00077219,0.00157700,0.00013362,-0.00020873,-0.00078168,-0.0055
 4535,0.00036559,0.11668141,-0.18897234,0.09380453,-0.12452040,0.667241
 86,-0.00682272,-0.00535396,-0.00393536,0.00346535,0.02111266,0.0128419
 1,0.00052061,-0.00289848,0.00029833,0.00051946,-0.00036214,-0.00135671
 ,-0.00236026,-0.00174333,0.00265757,-0.14429885,0.07989775,-0.20064525
 ,0.25058111,0.02120411,0.55372928,0.00580421,0.00078225,-0.00236028,0.
 00262685,-0.00175773,0.00083603,-0.00058337,-0.00010557,0.00031935,0.0
 0024644,0.00003383,-0.00016539,-0.00208573,0.00000802,0.00213342,-0.11
 281721,-0.05706359,-0.10867271,-0.00302985,-0.01033061,-0.01614577,0.1
 1163112,0.00163090,-0.00554520,0.00174344,-0.01780322,-0.01243786,-0.0
 2505538,0.00016831,0.00012982,-0.00015994,-0.00145400,-0.00073184,-0.0
 0072012,-0.00000812,0.00111205,0.00031308,-0.05950626,-0.11774824,-0.0
 9588529,0.00846976,0.01012143,0.01548046,0.06552629,0.12501483,-0.0027
 4525,-0.00036560,0.00265750,-0.00012079,0.00421437,0.00157933,0.000456
 94,0.00041942,-0.00015071,-0.00020717,0.00010032,0.00014161,0.00213346
 ,-0.00031302,-0.00029533,-0.11104211,-0.09940718,-0.19423689,-0.010604
 55,-0.00898528,-0.01249372,0.12387747,0.10243859,0.20302894,-0.0005502
 7,-0.00157703,0.00051951,0.00068270,0.00011431,-0.00732441,-0.00049348
 ,0.00005096,0.00041934,0.00064984,-0.00010864,0.00000984,0.00024634,0.
 00145407,-0.00020718,0.00291272,0.02381500,0.00350687,-0.03842040,0.01
 140633,-0.00899730,-0.00272050,-0.00082798,0.00332220,0.03598271,-0.00
 013368,0.00013355,0.00036215,0.00293576,0.00042990,0.00113646,-0.00011
 425,0.00028855,0.00010989,0.00010868,-0.00007788,0.00003112,-0.0000337
 7,-0.00073175,-0.00010032,-0.00208498,-0.01199569,-0.00389182,0.019301
 61,-0.33742619,-0.03309536,-0.00062740,0.00096240,0.00092862,-0.020122
 31,0.35621747,-0.00101055,0.00020865,-0.00135678,-0.00461706,0.0019639
 3,0.00166788,0.00044284,0.00015288,0.00050586,0.00000984,-0.00003111,0
 .00031981,-0.00016543,0.00072010,0.00014160,0.00067905,0.01876032,0.00
 393514,-0.01116046,-0.03295490,-0.05455541,0.00271341,0.00021568,-0.00
 100456,0.01060098,0.03422969,0.05010963,0.00646878,0.00088644,0.000520
 45,-0.00467103,-0.00755555,0.00024127,0.00072036,0.00033627,-0.0000684
 3,-0.00049347,0.00011421,0.00044287,-0.00058334,-0.00016833,0.00045695
 ,-0.01007164,-0.00091777,-0.02323804,-0.04671804,-0.02537097,-0.081614
 20,0.00248900,0.00337301,-0.00615025,0.00123006,0.00082595,0.00138464,
 0.06723747,0.00238329,-0.00083016,0.00289849,-0.00162179,-0.00324485,-
 0.00107953,-0.00033605,-0.00191089,-0.00078281,-0.00005098,0.00028854,
 -0.00015285,0.00010554,0.00012981,-0.00041941,0.00176033,0.01439660,0.
 01315588,-0.02160518,-0.09376006,-0.09297480,0.00320107,-0.00096883,0.
 00080658,-0.00870209,-0.00732258,-0.02654138,0.02993019,0.09404273,-0.
 00319328,-0.00077243,0.00029823,0.00190883,0.00149547,0.00091682,-0.00
 006855,0.00078285,0.00048073,0.00041938,-0.00010987,0.00050584,0.00031
 936,0.00015996,-0.00015072,-0.00297024,-0.01155969,-0.00988026,-0.0959
 2244,-0.09365294,-0.27933344,-0.00325168,0.00177681,0.00121311,-0.0007
 9716,0.00036761,0.00038099,0.09512015,0.10091819,0.29032529,0.05582558
 ,-0.01183553,-0.00015275,-0.03217364,-0.03893818,-0.01442614,-0.012987
 77,0.00449038,0.00697669,0.00083400,-0.00038133,0.00071529,-0.00148517
 ,-0.00030875,0.00106921,-0.01396623,0.03129897,-0.01109754,0.02875352,
 -0.00502038,0.00185800,-0.00094976,0.00042292,0.00071771,-0.00105354,0
 .00011916,0.00113381,-0.00363545,-0.00144126,0.00267461,0.15616805,-0.
 06799945,-0.00844111,0.00130687,0.02448570,0.04294220,0.01991636,0.008
 05388,-0.00238458,-0.00536073,0.00533716,-0.00026641,-0.00399887,0.001
 97074,0.00029083,-0.00157031,0.01603774,-0.04491637,0.01803360,-0.0603
 6492,-0.00371457,-0.00183943,0.00233088,-0.00026534,-0.00132079,0.0002
 1159,-0.00021327,-0.00090297,0.00684533,0.00161319,-0.00437411,0.11737
 932,0.67606876,-0.01809692,0.00404181,-0.01306137,0.00509201,0.0104705
 0,0.00399338,0.01060270,-0.00288314,-0.00560839,-0.00125613,0.00057363
 ,0.00028036,0.00043751,0.00013710,-0.00066676,0.00078703,-0.01154107,0
 .00621799,-0.01133231,0.00281986,-0.00298964,0.00046212,-0.00004707,-0
 .00019150,0.00046165,0.00009234,-0.00047130,0.00219520,0.00115980,-0.0
 0079171,0.17076147,-0.04212543,0.59470560,0.02875271,0.00502177,0.0018
 5908,-0.01396455,-0.03129908,-0.01109669,-0.00363568,0.00144121,0.0026
 7447,-0.00105348,-0.00011925,0.00113379,-0.00094970,-0.00042298,0.0007
 1769,-0.03217682,0.03893623,-0.01442657,0.05582528,0.01183817,-0.00015
 532,-0.00148500,0.00030868,0.00106911,0.00083380,0.00038142,0.00071539
 ,-0.01298696,-0.00449064,0.00697689,-0.07237710,0.04272594,-0.01229967
 ,0.15617923,0.06036498,-0.00371126,0.00184181,-0.01603554,-0.04491893,
 -0.01803324,-0.00684590,0.00161330,0.00437415,-0.00021144,-0.00021328,
 0.00090294,-0.00233098,-0.00026545,0.00132087,-0.02449022,0.04294262,-
 0.01991779,0.06800362,-0.00843825,-0.00130982,-0.00197079,0.00029075,0
 .00157033,-0.00533772,-0.00026666,0.00399916,-0.00805347,-0.00238473,0
 .00536096,-0.04272317,-0.38674663,0.01500889,-0.11739675,0.67606048,-0
 .01133077,-0.00281947,-0.00299007,0.00078605,0.01154084,0.00621749,0.0
 0219507,-0.00115950,-0.00079164,0.00046127,-0.00009230,-0.00047108,0.0
 0046210,0.00004709,-0.00019153,0.00509285,-0.01046970,0.00399326,-0.01
 809727,-0.00404385,-0.01306147,0.00043745,-0.00013716,-0.00066667,-0.0
 0125610,-0.00057353,0.00028042,0.01060306,0.00288368,-0.00560880,-0.01
 230109,-0.01503118,-0.10496660,0.17076706,0.04213432,0.59470635,-0.013
 58732,-0.00113880,-0.00350707,0.00162175,0.00395373,0.00265825,0.00007
 526,-0.00076687,-0.00046552,0.00006817,0.00035397,-0.00022204,0.000311
 64,0.00015955,-0.00018082,0.00048982,-0.00490286,0.00195242,-0.0052426
 7,0.00033574,-0.00041125,0.00029071,0.00004890,-0.00014556,0.00002770,
 -0.00003504,0.00000727,0.00037423,-0.00002853,-0.00020929,-0.08591632,
 -0.08030355,-0.11042826,0.00555881,0.00914850,-0.00025788,0.09448978,0
 .00250955,0.00099370,0.00017141,-0.00041019,-0.00085633,-0.00016570,-0
 .00002511,0.00013557,0.00036191,0.00002494,-0.00009804,0.00011822,-0.0
 0006604,0.00003263,0.00007546,0.00027838,0.00085029,-0.00025880,0.0009
 4329,-0.00070723,-0.00026982,-0.00004803,-0.00003234,0.00005132,-0.000
 15361,0.00005789,0.00013164,-0.00015461,-0.00002922,0.00008799,-0.0696
 0950,-0.12174256,-0.09876891,-0.01395200,-0.01412587,-0.02606011,0.072
 41200,0.13008253,0.00711365,0.00107664,0.00068508,-0.00065508,-0.00246
 265,-0.00099745,0.00072232,-0.00008207,0.00108119,-0.00046359,0.000063
 99,0.00005179,-0.00017756,-0.00003055,0.00030807,-0.00063761,0.0027378
 3,-0.00109647,0.00332946,0.00038525,0.00020092,-0.00012418,0.00005026,
 0.00008781,0.00004598,0.00005639,-0.00004143,-0.00033203,-0.00008666,0
 .00012602,-0.10776774,-0.09802549,-0.21090726,-0.00078415,-0.00211210,
 0.00359121,0.11068532,0.11256096,0.21970079,-0.01427958,-0.00130063,0.
 00783602,0.00259733,0.00574530,0.00394803,-0.00020924,0.00003148,-0.00
 009312,0.00074467,0.00007382,-0.00044695,0.00010309,0.00011030,-0.0002
 6919,0.00196295,-0.00483032,0.00128696,-0.00565701,-0.00059067,-0.0004
 6934,0.00016834,-0.00007930,-0.00011120,-0.00014065,-0.00009338,-0.000
 06462,0.00077425,0.00016071,-0.00044813,-0.02826314,-0.00034624,-0.036
 53630,0.00566801,0.00721581,-0.00059200,-0.00033686,0.00847718,-0.0113
 2733,0.03542948,0.00236805,0.00090242,-0.00228663,-0.00084271,-0.00077
 666,-0.00061339,0.00019270,-0.00013823,0.00009644,0.00003773,0.0000038
 2,-0.00002103,-0.00004235,0.00008834,0.00006109,-0.00013549,0.00060303
 ,-0.00020874,0.00091928,-0.00060948,0.00003631,-0.00008701,-0.00002261
 ,-0.00000109,-0.00016024,0.00003849,0.00014547,0.00007698,-0.00001677,
 -0.00002241,0.00822720,-0.12407955,0.12359881,0.00563216,-0.01401832,0
 .02859417,-0.00013415,0.00893749,-0.01411114,-0.01497754,0.13252867,0.
 00282156,0.00002333,-0.00233003,-0.00152014,-0.00150836,0.00068462,-0.
 00003059,-0.00022544,0.00029644,0.00016782,-0.00041845,-0.00005372,0.0
 0016724,0.00001561,0.00000243,-0.00027291,0.00156330,-0.00039130,0.000
 91668,-0.00045049,0.00028844,-0.00004891,-0.00002834,0.00002057,-0.000
 00834,-0.00000759,0.00009010,-0.00025362,-0.00009270,0.00014042,-0.038
 59388,0.12949143,-0.27334440,-0.00078389,-0.00369081,0.00421039,-0.000
 58524,0.01097117,-0.01506120,0.03768113,-0.13496862,0.28260697,-0.0056
 5586,0.00059028,-0.00046956,0.00196250,0.00482962,0.00128637,0.0007742
 1,-0.00016074,-0.00044798,-0.00014063,0.00009335,-0.00006462,0.0001682
 6,0.00007933,-0.00011115,0.00259739,-0.00574449,0.00394805,-0.01427799
 ,0.00129998,0.00783684,0.00010304,-0.00011030,-0.00026917,0.00074469,-
 0.00007376,-0.00044698,-0.00020960,-0.00003157,-0.00009291,0.00566748,
 -0.00721438,-0.00059162,-0.02826657,0.00034608,-0.03653978,0.00596439,
 -0.00116392,-0.00207318,-0.00452571,0.00076064,0.00167908,0.03543135,-
 0.00091914,-0.00060941,-0.00003637,0.00013551,0.00060307,0.00020871,-0
 .00007698,-0.00001679,0.00002242,0.00016020,0.00003848,-0.00014545,0.0
 0008701,-0.00002260,0.00000109,0.00084291,-0.00077663,0.00061340,-0.00
 236805,0.00090238,0.00228718,0.00004234,0.00008834,-0.00006112,-0.0000
 3763,0.00000377,0.00002103,-0.00019286,-0.00013828,-0.00009642,-0.0056
 3254,-0.01401664,-0.02859554,-0.00822658,-0.12406274,-0.12358837,0.001
 83536,-0.00518843,-0.00011729,-0.00076076,0.00174768,0.00041619,0.0149
 7684,0.13251064,0.00091650,0.00045040,0.00028847,-0.00027290,-0.001563
 25,-0.00039118,-0.00025363,0.00009270,0.00014038,-0.00000831,0.0000075
 9,0.00009006,-0.00004888,0.00002832,0.00002056,-0.00152016,0.00150823,
 0.00068472,0.00282127,-0.00002318,-0.00233035,0.00016729,-0.00001559,0
 .00000243,0.00016776,0.00041841,-0.00005378,-0.00003046,0.00022550,0.0
 0029641,-0.00078413,0.00368941,0.00420863,-0.03859724,-0.12948073,-0.2
 7335928,-0.00133609,0.00108979,0.00192179,0.00167919,-0.00041615,0.000
 91865,0.03768508,0.13495796,0.28262328,-0.00524363,-0.00033592,-0.0004
 1138,0.00048982,0.00490374,0.00195278,0.00037436,0.00002851,-0.0002094
 6,0.00002764,0.00003507,0.00000725,0.00029079,-0.00004891,-0.00014563,
 0.00162244,-0.00395439,0.00265871,-0.01358985,0.00113856,-0.00350636,0
 .00031171,-0.00015956,-0.00018084,0.00006829,-0.00035400,-0.00022214,0
 .00007543,0.00076693,-0.00046554,0.00555951,-0.00914971,-0.00025847,-0
 .08592195,0.08031699,-0.11043000,-0.00418906,0.00093767,0.00244571,0.0
 0596409,-0.00183524,-0.00133596,-0.00033694,0.00013436,-0.00058529,0.0
 9449735,-0.00094383,-0.00070739,0.00026981,-0.00027830,0.00085073,0.00
 025896,0.00015461,-0.00002921,-0.00008800,0.00015365,0.00005791,-0.000
 13165,0.00004808,-0.00003234,-0.00005134,0.00041045,-0.00085666,0.0001
 6580,-0.00251057,0.00099379,-0.00017134,0.00006607,0.00003263,-0.00007
 547,-0.00002498,-0.00009802,-0.00011819,0.00002518,0.00013551,-0.00036
 195,0.01395272,-0.01412796,0.02605841,0.06962170,-0.12175502,0.0987750
 6,-0.00093796,0.00168992,0.00009665,0.00116426,-0.00518831,-0.00109024
 ,-0.00847695,0.00893718,-0.01096941,-0.07242411,0.13009724,0.00332994,
 -0.00038530,0.00020099,-0.00063762,-0.00273821,-0.00109658,-0.00033207
 ,0.00008663,0.00012610,0.00004605,-0.00005641,-0.00004146,-0.00012422,
 -0.00005026,0.00008785,-0.00065530,0.00246285,-0.00099774,0.00711472,-
 0.00107638,0.00068491,-0.00017761,0.00003057,0.00030808,-0.00046366,-0
 .00006408,0.00005183,0.00072243,0.00008202,0.00108107,-0.00078354,0.00
 211163,0.00359297,-0.10776997,0.09803107,-0.21089199,0.00244578,-0.000
 09652,0.00034915,-0.00207315,0.00011688,0.00192162,-0.01132845,0.01411
 260,-0.01506079,0.11068665,-0.11256710,0.21968399\\-0.00002196,-0.0000
 1606,-0.00000278,0.00000985,0.00001506,0.00001087,0.00000184,-0.000004
 73,-0.00000172,-0.00000273,-0.00000137,-0.00000052,0.00000266,-0.00000
 051,-0.00000239,0.00000973,-0.00001475,0.00000866,-0.00002186,0.000016
 64,-0.00000102,0.00000264,0.00000070,-0.00000247,-0.00000234,0.0000014
 0,0.00000006,0.00000270,0.00000375,-0.00000157,0.00000917,-0.00002523,
 -0.00000451,0.00000968,0.00002409,-0.00000435,0.00000174,-0.00000081,0
 .00000031,-0.00000076,-0.00000020,0.00000134,-0.00000070,0.00000024,0.
 00000121,0.00000034,0.00000178,-0.00000114\\\@


 THE SOLUTION TO A PROBLEM CHANGES THE PROBLEM.

                                 -- JOHN PEERS
           PAUL DICKSON'S "THE OFFICIAL RULES"
 Job cpu time:       0 days  0 hours  0 minutes  0.8 seconds.
 Elapsed time:       0 days  0 hours  0 minutes 52.9 seconds.
 File lengths (MBytes):  RWF=     22 Int=      0 D2E=      0 Chk=      2 Scr=      2
 Normal termination of Gaussian 16 at Wed Apr 24 10:23:45 2024.
