 Entering Gaussian System, Link 0=g16
 Input=gaussian.com
 Output=gaussian.log
 Initial command:
 /mlatom/software/Gaussian/g16-avx2/l1.exe "/mlatom/home/qhzhang/git/ts-analysis/calculations/C60/irc/pro_opt/da_ani_opt_1/Gau-212675.inp" -scrdir="/mlatom/home/qhzhang/git/ts-analysis/calculations/C60/irc/pro_opt/da_ani_opt_1/"
 Entering Link 1 = /mlatom/software/Gaussian/g16-avx2/l1.exe PID=    212676.
  
 Copyright (c) 1988,1990,1992,1993,1995,1998,2003,2009,2016,
            Gaussian, Inc.  All Rights Reserved.
  
 This is part of the Gaussian(R) 16 program.  It is based on
 the Gaussian(R) 09 system (copyright 2009, Gaussian, Inc.),
 the Gaussian(R) 03 system (copyright 2003, Gaussian, Inc.),
 the Gaussian(R) 98 system (copyright 1998, Gaussian, Inc.),
 the Gaussian(R) 94 system (copyright 1995, Gaussian, Inc.),
 the Gaussian 92(TM) system (copyright 1992, Gaussian, Inc.),
 the Gaussian 90(TM) system (copyright 1990, Gaussian, Inc.),
 the Gaussian 88(TM) system (copyright 1988, Gaussian, Inc.),
 the Gaussian 86(TM) system (copyright 1986, Carnegie Mellon
 University), and the Gaussian 82(TM) system (copyright 1983,
 Carnegie Mellon University). Gaussian is a federally registered
 trademark of Gaussian, Inc.
  
 This software contains proprietary and confidential information,
 including trade secrets, belonging to Gaussian, Inc.
  
 This software is provided under written license and may be
 used, copied, transmitted, or stored only in accord with that
 written license.
  
 The following legend is applicable only to US Government
 contracts under FAR:
  
                    RESTRICTED RIGHTS LEGEND
  
 Use, reproduction and disclosure by the US Government is
 subject to restrictions as set forth in subparagraphs (a)
 and (c) of the Commercial Computer Software - Restricted
 Rights clause in FAR 52.227-19.
  
 Gaussian, Inc.
 340 Quinnipiac St., Bldg. 40, Wallingford CT 06492
  
  
 ---------------------------------------------------------------
 Warning -- This program may not be used in any manner that
 competes with the business of Gaussian, Inc. or will provide
 assistance to any competitor of Gaussian, Inc.  The licensee
 of this program is prohibited from giving any competitor of
 Gaussian, Inc. access to this program.  By using this program,
 the user acknowledges that Gaussian, Inc. is engaged in the
 business of creating and licensing software in the field of
 computational chemistry and represents and warrants to the
 licensee that it is not a competitor of Gaussian, Inc. and that
 it will not use this program in any manner prohibited above.
 ---------------------------------------------------------------
  

 Cite this work as:
 Gaussian 16, Revision A.03,
 M. J. Frisch, G. W. Trucks, H. B. Schlegel, G. E. Scuseria, 
 M. A. Robb, J. R. Cheeseman, G. Scalmani, V. Barone, 
 G. A. Petersson, H. Nakatsuji, X. Li, M. Caricato, A. V. Marenich, 
 J. Bloino, B. G. Janesko, R. Gomperts, B. Mennucci, H. P. Hratchian, 
 J. V. Ortiz, A. F. Izmaylov, J. L. Sonnenberg, D. Williams-Young, 
 F. Ding, F. Lipparini, F. Egidi, J. Goings, B. Peng, A. Petrone, 
 T. Henderson, D. Ranasinghe, V. G. Zakrzewski, J. Gao, N. Rega, 
 G. Zheng, W. Liang, M. Hada, M. Ehara, K. Toyota, R. Fukuda, 
 J. Hasegawa, M. Ishida, T. Nakajima, Y. Honda, O. Kitao, H. Nakai, 
 T. Vreven, K. Throssell, J. A. Montgomery, Jr., J. E. Peralta, 
 F. Ogliaro, M. J. Bearpark, J. J. Heyd, E. N. Brothers, K. N. Kudin, 
 V. N. Staroverov, T. A. Keith, R. Kobayashi, J. Normand, 
 K. Raghavachari, A. P. Rendell, J. C. Burant, S. S. Iyengar, 
 J. Tomasi, M. Cossi, J. M. Millam, M. Klene, C. Adamo, R. Cammi, 
 J. W. Ochterski, R. L. Martin, K. Morokuma, O. Farkas, 
 J. B. Foresman, and D. J. Fox, Gaussian, Inc., Wallingford CT, 2016.
 
 ******************************************
 Gaussian 16:  ES64L-G16RevA.03 25-Dec-2016
                15-Jun-2024 
 ******************************************
 %nproc=4
 Will use up to    4 processors via shared memory.
 ----------------------------------------------------------------------
 #p opt(nomicro,Newton) external='/mlatom/software/miniconda3/bin/pytho
 n /mlatom/software/mlatom/mlatom/interfaces/gaussian_interface.py mode
 l_predict_kwargs'
 ----------------------------------------------------------------------
 1/18=20,19=8,26=1,38=1/1,3;
 2/9=110,12=2,17=6,18=5,40=1/2;
 3/11=9,25=1,30=1,41=9900000,43=2,71=1/1;
 4/20=17,22=1,24=3,113=1,114=1/2;
 6/7=2,8=2,9=2,10=2/1;
 7/44=-1/16;
 1/18=20,19=8,26=1/3(2);
 2/9=110/2;
 99//99;
 2/9=110/2;
 3/11=9,25=1,30=1,41=9900000,43=2,71=1/1;
 4/16=2,20=17,22=1,24=3,113=1,114=1/2;
 7/44=-1/16;
 1/18=20,19=8,26=1/3(-4);
 2/9=110/2;
 6/7=2,8=2,9=2,10=2/1;
 99//99;
 Leave Link    1 at Sat Jun 15 16:37:25 2024, MaxMem=           0 cpu:               0.1 elap:               0.0
 (Enter /mlatom/software/Gaussian/g16-avx2/l101.exe)
 ------------------------------------
 31133ed6-568b-4343-9df3-05f4ea298ab7
 ------------------------------------
 Symbolic Z-matrix:
 Charge =  0 Multiplicity = 1
 C                     0.5281   -0.36822   0. 
 C                    -0.63036  -1.08946  -0.63465 
 H                     0.43462  -0.43649   1.094 
 H                     0.51676   0.70211  -0.23589 
 H                    -1.4506   -0.51438  -1.05028 
 C                    -0.63201  -2.43232  -0.63623 
 C                     0.52711  -3.15569  -0.00601 
 H                    -1.45694  -3.00351  -1.04656 
 H                     0.5135   -4.22454  -0.24476 
 H                     0.43129  -3.09339   1.08899 
 C                     1.87683  -0.99009  -0.4203 
 C                     1.88319  -2.53513  -0.4113 
 H                     2.66916  -0.59135   0.22365 
 H                     2.10352  -0.64252  -1.43003 
 H                     2.12758  -2.89717  -1.41588 
 H                     2.66834  -2.91697   0.24633 
 
 ITRead=  0  0  0  0  0  0  0  0  0  0  0  0  0  0  0  0
 MicOpt= -1 -1 -1 -1 -1 -1 -1 -1 -1 -1 -1 -1 -1 -1 -1 -1
 NAtoms=     16 NQM=       16 NQMF=       0 NMMI=      0 NMMIF=      0
                NMic=       0 NMicF=      0.
                    Isotopes and Nuclear Properties:
 (Nuclear quadrupole moments (NQMom) in fm**2, nuclear magnetic moments (NMagM)
  in nuclear magnetons)

  Atom         1           2           3           4           5           6           7           8           9          10
 IAtWgt=          12          12           1           1           1          12          12           1           1           1
 AtmWgt=  12.0000000  12.0000000   1.0078250   1.0078250   1.0078250  12.0000000  12.0000000   1.0078250   1.0078250   1.0078250
 NucSpn=           0           0           1           1           1           0           0           1           1           1
 AtZEff=  -0.0000000  -0.0000000  -0.0000000  -0.0000000  -0.0000000  -0.0000000  -0.0000000  -0.0000000  -0.0000000  -0.0000000
 NQMom=    0.0000000   0.0000000   0.0000000   0.0000000   0.0000000   0.0000000   0.0000000   0.0000000   0.0000000   0.0000000
 NMagM=    0.0000000   0.0000000   2.7928460   2.7928460   2.7928460   0.0000000   0.0000000   2.7928460   2.7928460   2.7928460
 AtZNuc=   6.0000000   6.0000000   1.0000000   1.0000000   1.0000000   6.0000000   6.0000000   1.0000000   1.0000000   1.0000000

  Atom        11          12          13          14          15          16
 IAtWgt=          12          12           1           1           1           1
 AtmWgt=  12.0000000  12.0000000   1.0078250   1.0078250   1.0078250   1.0078250
 NucSpn=           0           0           1           1           1           1
 AtZEff=  -0.0000000  -0.0000000  -0.0000000  -0.0000000  -0.0000000  -0.0000000
 NQMom=    0.0000000   0.0000000   0.0000000   0.0000000   0.0000000   0.0000000
 NMagM=    0.0000000   0.0000000   2.7928460   2.7928460   2.7928460   2.7928460
 AtZNuc=   6.0000000   6.0000000   1.0000000   1.0000000   1.0000000   1.0000000
 Leave Link  101 at Sat Jun 15 16:37:27 2024, MaxMem=   104857600 cpu:               0.4 elap:               0.5
 (Enter /mlatom/software/Gaussian/g16-avx2/l103.exe)

 GradGradGradGradGradGradGradGradGradGradGradGradGradGradGradGradGradGrad
 Berny optimization.
 Initialization pass.
                           ----------------------------
                           !    Initial Parameters    !
                           ! (Angstroms and Degrees)  !
 --------------------------                            --------------------------
 ! Name  Definition              Value          Derivative Info.                !
 --------------------------------------------------------------------------------
 ! R1    R(1,2)                  1.505          estimate D2E/DX2                !
 ! R2    R(1,3)                  1.1001         estimate D2E/DX2                !
 ! R3    R(1,4)                  1.0961         estimate D2E/DX2                !
 ! R4    R(1,11)                 1.5435         estimate D2E/DX2                !
 ! R5    R(2,5)                  1.0846         estimate D2E/DX2                !
 ! R6    R(2,6)                  1.3429         estimate D2E/DX2                !
 ! R7    R(6,7)                  1.5047         estimate D2E/DX2                !
 ! R8    R(6,8)                  1.084          estimate D2E/DX2                !
 ! R9    R(7,9)                  1.0953         estimate D2E/DX2                !
 ! R10   R(7,10)                 1.1009         estimate D2E/DX2                !
 ! R11   R(7,12)                 1.5454         estimate D2E/DX2                !
 ! R12   R(11,12)                1.5451         estimate D2E/DX2                !
 ! R13   R(11,13)                1.0961         estimate D2E/DX2                !
 ! R14   R(11,14)                1.0917         estimate D2E/DX2                !
 ! R15   R(12,15)                1.0954         estimate D2E/DX2                !
 ! R16   R(12,16)                1.093          estimate D2E/DX2                !
 ! A1    A(2,1,3)              108.9176         estimate D2E/DX2                !
 ! A2    A(2,1,4)              111.6696         estimate D2E/DX2                !
 ! A3    A(2,1,11)             111.3893         estimate D2E/DX2                !
 ! A4    A(3,1,4)              105.8872         estimate D2E/DX2                !
 ! A5    A(3,1,11)             108.6648         estimate D2E/DX2                !
 ! A6    A(4,1,11)             110.1127         estimate D2E/DX2                !
 ! A7    A(1,2,5)              119.3174         estimate D2E/DX2                !
 ! A8    A(1,2,6)              118.7289         estimate D2E/DX2                !
 ! A9    A(5,2,6)              121.9293         estimate D2E/DX2                !
 ! A10   A(2,6,7)              118.6408         estimate D2E/DX2                !
 ! A11   A(2,6,8)              121.8889         estimate D2E/DX2                !
 ! A12   A(7,6,8)              119.4367         estimate D2E/DX2                !
 ! A13   A(6,7,9)              111.6092         estimate D2E/DX2                !
 ! A14   A(6,7,10)             108.8037         estimate D2E/DX2                !
 ! A15   A(6,7,12)             111.906          estimate D2E/DX2                !
 ! A16   A(9,7,10)             105.7205         estimate D2E/DX2                !
 ! A17   A(9,7,12)             110.2184         estimate D2E/DX2                !
 ! A18   A(10,7,12)            108.3303         estimate D2E/DX2                !
 ! A19   A(1,11,12)            113.8843         estimate D2E/DX2                !
 ! A20   A(1,11,13)            108.9719         estimate D2E/DX2                !
 ! A21   A(1,11,14)            107.7601         estimate D2E/DX2                !
 ! A22   A(12,11,13)           110.9387         estimate D2E/DX2                !
 ! A23   A(12,11,14)           108.8382         estimate D2E/DX2                !
 ! A24   A(13,11,14)           106.1098         estimate D2E/DX2                !
 ! A25   A(7,12,11)            113.5439         estimate D2E/DX2                !
 ! A26   A(7,12,15)            107.6714         estimate D2E/DX2                !
 ! A27   A(7,12,16)            109.4053         estimate D2E/DX2                !
 ! A28   A(11,12,15)           109.0306         estimate D2E/DX2                !
 ! A29   A(11,12,16)           110.8416         estimate D2E/DX2                !
 ! A30   A(15,12,16)           106.0241         estimate D2E/DX2                !
 ! D1    D(3,1,2,5)            103.3889         estimate D2E/DX2                !
 ! D2    D(3,1,2,6)            -74.8474         estimate D2E/DX2                !
 ! D3    D(4,1,2,5)            -13.198          estimate D2E/DX2                !
 ! D4    D(4,1,2,6)            168.5658         estimate D2E/DX2                !
 ! D5    D(11,1,2,5)          -136.7721         estimate D2E/DX2                !
 ! D6    D(11,1,2,6)            44.9916         estimate D2E/DX2                !
 ! D7    D(2,1,11,12)          -43.1383         estimate D2E/DX2                !
 ! D8    D(2,1,11,13)         -167.5766         estimate D2E/DX2                !
 ! D9    D(2,1,11,14)           77.7016         estimate D2E/DX2                !
 ! D10   D(3,1,11,12)           76.8502         estimate D2E/DX2                !
 ! D11   D(3,1,11,13)          -47.5881         estimate D2E/DX2                !
 ! D12   D(3,1,11,14)         -162.3099         estimate D2E/DX2                !
 ! D13   D(4,1,11,12)         -167.593          estimate D2E/DX2                !
 ! D14   D(4,1,11,13)           67.9687         estimate D2E/DX2                !
 ! D15   D(4,1,11,14)          -46.7531         estimate D2E/DX2                !
 ! D16   D(1,2,6,7)             -0.1546         estimate D2E/DX2                !
 ! D17   D(1,2,6,8)            177.7265         estimate D2E/DX2                !
 ! D18   D(5,2,6,7)           -178.3426         estimate D2E/DX2                !
 ! D19   D(5,2,6,8)             -0.4615         estimate D2E/DX2                !
 ! D20   D(2,6,7,9)           -168.5158         estimate D2E/DX2                !
 ! D21   D(2,6,7,10)            75.2057         estimate D2E/DX2                !
 ! D22   D(2,6,7,12)           -44.4642         estimate D2E/DX2                !
 ! D23   D(8,6,7,9)             13.5501         estimate D2E/DX2                !
 ! D24   D(8,6,7,10)          -102.7285         estimate D2E/DX2                !
 ! D25   D(8,6,7,12)           137.6017         estimate D2E/DX2                !
 ! D26   D(6,7,12,11)           41.6681         estimate D2E/DX2                !
 ! D27   D(6,7,12,15)          -79.1367         estimate D2E/DX2                !
 ! D28   D(6,7,12,16)          166.0673         estimate D2E/DX2                !
 ! D29   D(9,7,12,11)          166.4948         estimate D2E/DX2                !
 ! D30   D(9,7,12,15)           45.69           estimate D2E/DX2                !
 ! D31   D(9,7,12,16)          -69.106          estimate D2E/DX2                !
 ! D32   D(10,7,12,11)         -78.2793         estimate D2E/DX2                !
 ! D33   D(10,7,12,15)         160.9159         estimate D2E/DX2                !
 ! D34   D(10,7,12,16)          46.1199         estimate D2E/DX2                !
 ! D35   D(1,11,12,7)            1.0089         estimate D2E/DX2                !
 ! D36   D(1,11,12,15)         121.0459         estimate D2E/DX2                !
 ! D37   D(1,11,12,16)        -122.6103         estimate D2E/DX2                !
 ! D38   D(13,11,12,7)         124.3847         estimate D2E/DX2                !
 ! D39   D(13,11,12,15)       -115.5783         estimate D2E/DX2                !
 ! D40   D(13,11,12,16)          0.7655         estimate D2E/DX2                !
 ! D41   D(14,11,12,7)        -119.2266         estimate D2E/DX2                !
 ! D42   D(14,11,12,15)          0.8104         estimate D2E/DX2                !
 ! D43   D(14,11,12,16)        117.1542         estimate D2E/DX2                !
 --------------------------------------------------------------------------------
 Trust Radius=3.00D-01 FncErr=1.00D-07 GrdErr=1.00D-07 EigMax=2.50D+02 EigMin=1.00D-04
 Number of steps in this run=     99 maximum allowed number of steps=    100.
 GradGradGradGradGradGradGradGradGradGradGradGradGradGradGradGradGradGrad

 Leave Link  103 at Sat Jun 15 16:37:27 2024, MaxMem=   104857600 cpu:               0.0 elap:               0.0
 (Enter /mlatom/software/Gaussian/g16-avx2/l202.exe)
                          Input orientation:                          
 ---------------------------------------------------------------------
 Center     Atomic      Atomic             Coordinates (Angstroms)
 Number     Number       Type             X           Y           Z
 ---------------------------------------------------------------------
      1          6           0        0.528101   -0.368217    0.000000
      2          6           0       -0.630364   -1.089458   -0.634653
      3          1           0        0.434623   -0.436491    1.094001
      4          1           0        0.516759    0.702108   -0.235890
      5          1           0       -1.450603   -0.514377   -1.050283
      6          6           0       -0.632005   -2.432323   -0.636228
      7          6           0        0.527113   -3.155687   -0.006007
      8          1           0       -1.456942   -3.003505   -1.046562
      9          1           0        0.513498   -4.224536   -0.244758
     10          1           0        0.431286   -3.093387    1.088989
     11          6           0        1.876832   -0.990085   -0.420295
     12          6           0        1.883191   -2.535130   -0.411302
     13          1           0        2.669157   -0.591354    0.223654
     14          1           0        2.103516   -0.642522   -1.430033
     15          1           0        2.127580   -2.897172   -1.415880
     16          1           0        2.668343   -2.916970    0.246333
 ---------------------------------------------------------------------
                    Distance matrix (angstroms):
                    1          2          3          4          5
     1  C    0.000000
     2  C    1.504996   0.000000
     3  H    1.100108   2.132793   0.000000
     4  H    1.096069   2.164396   1.752645   0.000000
     5  H    2.244934   1.084555   2.856238   2.452261   0.000000
     6  C    2.451768   1.342867   2.848637   3.362229   2.126044
     7  C    2.787477   2.450357   2.934723   3.864652   3.460981
     8  H    3.461276   2.125200   3.840519   4.276009   2.489139
     9  H    3.864106   3.359933   4.018430   4.926653   4.274558
    10  H    2.936294   2.848469   2.656903   4.020994   3.843083
    11  C    1.543516   2.518304   2.163221   2.178835   3.419796
    12  C    2.588619   2.908232   2.961177   3.518184   3.950433
    13  H    2.164239   3.445524   2.403046   2.552850   4.312918
    14  H    2.145267   2.882097   3.032886   2.398292   3.576646
    15  H    3.310387   3.388864   3.901353   4.116058   4.314483
    16  H    3.337283   3.872648   3.443954   4.237874   4.941597
                    6          7          8          9         10
     6  C    0.000000
     7  C    1.504656   0.000000
     8  H    1.084041   2.245526   0.000000
     9  H    2.162742   1.095274   2.452843   0.000000
    10  H    2.131658   1.100945   2.852028   1.750754   0.000000
    11  C    2.901886   2.585190   3.944632   3.514423   2.965033
    12  C    2.527325   1.545413   3.432116   2.181258   2.161146
    13  H    3.876369   3.349164   4.945363   4.250446   3.466560
    14  H    3.364014   3.290729   4.289307   4.094369   3.892116
    15  H    2.905039   2.148503   3.605066   2.395555   3.031548
    16  H    3.450521   2.169223   4.324008   2.567928   2.397001
                   11         12         13         14         15
    11  C    0.000000
    12  C    1.545084   0.000000
    13  H    1.096100   2.190702   0.000000
    14  H    1.091676   2.160630   1.748499   0.000000
    15  H    2.165882   1.095435   2.880655   2.254823   0.000000
    16  H    2.187183   1.093046   2.325727   2.881379   1.748076
                   16
    16  H    0.000000
 Stoichiometry    C6H10
 Framework group  C1[X(C6H10)]
 Deg. of freedom    42
 Full point group                 C1      NOp   1
 Largest Abelian subgroup         C1      NOp   1
 Largest concise Abelian subgroup C1      NOp   1
                         Standard orientation:                         
 ---------------------------------------------------------------------
 Center     Atomic      Atomic             Coordinates (Angstroms)
 Number     Number       Type             X           Y           Z
 ---------------------------------------------------------------------
      1          6           0        1.192036   -0.727778    0.344421
      2          6           0        1.298846    0.677253   -0.184253
      3          1           0        1.133851   -0.692250    1.442414
      4          1           0        2.085858   -1.317364    0.110244
      5          1           0        2.260615    1.044676   -0.525221
      6          6           0        0.201741    1.451625   -0.185377
      7          6           0       -1.086539    0.877866    0.339145
      8          1           0        0.228578    2.482249   -0.520397
      9          1           0       -1.940574    1.521597    0.102796
     10          1           0       -1.036653    0.840079    1.438310
     11          6           0       -0.068229   -1.437662   -0.194318
     12          6           0       -1.335792   -0.554207   -0.185584
     13          1           0       -0.229337   -2.359528    0.376332
     14          1           0        0.137669   -1.748589   -1.220323
     15          1           0       -1.720587   -0.471501   -1.207871
     16          1           0       -2.131799   -1.021953    0.399510
 ---------------------------------------------------------------------
 Rotational constants (GHZ):           4.6589736           4.5627208           2.6023394
 Leave Link  202 at Sat Jun 15 16:37:28 2024, MaxMem=   104857600 cpu:               0.2 elap:               0.2
 (Enter /mlatom/software/Gaussian/g16-avx2/l301.exe)
 Standard basis: STO-3G (5D, 7F)
 Ernie: Thresh=  0.10000D-02 Tol=  0.10000D-05 Strict=F.
 There are    40 symmetry adapted cartesian basis functions of A   symmetry.
 There are    40 symmetry adapted basis functions of A   symmetry.
    40 basis functions,   120 primitive gaussians,    40 cartesian basis functions
    23 alpha electrons       23 beta electrons
       nuclear repulsion energy       236.5906735990 Hartrees.
 IExCor=    0 DFT=F Ex=HF Corr=None ExCW=0 ScaHFX=  1.000000
 ScaDFX=  1.000000  1.000000  1.000000  1.000000 ScalE2=  1.000000  1.000000
 IRadAn=      5 IRanWt=     -1 IRanGd=            0 ICorTp=0 IEmpDi=  4
 NAtoms=   16 NActive=   16 NUniq=   16 SFac= 1.00D+00 NAtFMM=   60 NAOKFM=F Big=F
 Integral buffers will be    131072 words long.
 Raffenetti 1 integral format.
 Two-electron integral symmetry is turned on.
 Leave Link  301 at Sat Jun 15 16:37:28 2024, MaxMem=   104857600 cpu:               0.4 elap:               0.3
 (Enter /mlatom/software/Gaussian/g16-avx2/l402.exe)
 External calculation of energy and first derivatives.
 Running external command "/mlatom/software/miniconda3/bin/python /mlatom/software/mlatom/mlatom/interfaces/gaussian_interface.py model_predict_kwargs R"
         input file       "/mlatom/home/qhzhang/git/ts-analysis/calculations/C60/irc/pro_opt/da_ani_opt_1/Gau-212676.EIn"
         output file      "/mlatom/home/qhzhang/git/ts-analysis/calculations/C60/irc/pro_opt/da_ani_opt_1/Gau-212676.EOu"
         message file     "/mlatom/home/qhzhang/git/ts-analysis/calculations/C60/irc/pro_opt/da_ani_opt_1/Gau-212676.EMs"
         fchk file        "/mlatom/home/qhzhang/git/ts-analysis/calculations/C60/irc/pro_opt/da_ani_opt_1/Gau-212676.EFC"
         mat. el file     "/mlatom/home/qhzhang/git/ts-analysis/calculations/C60/irc/pro_opt/da_ani_opt_1/Gau-212676.EUF"
model loaded from /mlatom/home/qhzhang/git/ts-analysis/calculations/C60/irc/pro_opt/da_ani_opt_1/da_energy_iteration27.npz
 Recovered energy= -234.657631808     dipole=      0.000000000000      0.000000000000      0.000000000000
 Energy=    -234.657632     NIter=   0.
 Dipole moment=       0.000000       0.000000       0.000000
 Leave Link  402 at Sat Jun 15 16:37:36 2024, MaxMem=   104857600 cpu:              21.6 elap:               7.6
 (Enter /mlatom/software/Gaussian/g16-avx2/l601.exe)
 Leave Link  601 at Sat Jun 15 16:37:36 2024, MaxMem=   104857600 cpu:               0.1 elap:               0.0
 (Enter /mlatom/software/Gaussian/g16-avx2/l716.exe)
 Dipole        = 0.00000000D+00 0.00000000D+00 0.00000000D+00
 ***** Axes restored to original set *****
 -------------------------------------------------------------------
 Center     Atomic                   Forces (Hartrees/Bohr)
 Number     Number              X              Y              Z
 -------------------------------------------------------------------
      1        6          -0.000299113   -0.000693750   -0.000626129
      2        6           0.000133788    0.000127119   -0.000232092
      3        1           0.000005493   -0.000077383    0.000474079
      4        1          -0.000087793   -0.000017836    0.000112856
      5        1          -0.000178057    0.000002717    0.000141516
      6        6           0.001022542    0.000831654   -0.000181064
      7        6           0.000457705    0.000238476    0.001021232
      8        1          -0.000196007   -0.000394883   -0.000140242
      9        1           0.000056535   -0.000525139   -0.000115358
     10        1          -0.000319743    0.000042810    0.000175455
     11        6           0.000576326    0.000117105    0.001073583
     12        6          -0.001752012    0.000249943   -0.002323013
     13        1          -0.000003592   -0.000344095   -0.000506077
     14        1           0.000083210    0.000440428   -0.000819152
     15        1          -0.000060025    0.000702229    0.001114390
     16        1           0.000560740   -0.000699395    0.000830013
 -------------------------------------------------------------------
 Cartesian Forces:  Max     0.002323013 RMS     0.000638664
 Leave Link  716 at Sat Jun 15 16:37:37 2024, MaxMem=   104857600 cpu:               0.3 elap:               0.5
 (Enter /mlatom/software/Gaussian/g16-avx2/l103.exe)

 GradGradGradGradGradGradGradGradGradGradGradGradGradGradGradGradGradGrad
 Berny optimization.
 FormGI is forming the generalized inverse of G from B-inverse, IUseBI=4.
 Internal  Forces:  Max     0.001267440 RMS     0.000310712
 Search for a local minimum.
 Step number   1 out of a maximum of   99
 All quantities printed in internal units (Hartrees-Bohrs-Radians)
 Second derivative matrix not updated -- first step.
 ITU=  0
     Eigenvalues ---    0.00285   0.00720   0.01259   0.01303   0.01773
     Eigenvalues ---    0.02764   0.02963   0.03646   0.04411   0.04761
     Eigenvalues ---    0.05110   0.05837   0.05871   0.07731   0.08449
     Eigenvalues ---    0.08505   0.09194   0.09281   0.09995   0.11752
     Eigenvalues ---    0.12444   0.15984   0.15993   0.19232   0.20465
     Eigenvalues ---    0.21862   0.26711   0.26831   0.28117   0.29994
     Eigenvalues ---    0.31477   0.33578   0.33670   0.34117   0.34121
     Eigenvalues ---    0.34192   0.34210   0.34463   0.34620   0.35450
     Eigenvalues ---    0.35511   0.54014
 Angle between quadratic step and forces=  67.06 degrees.
 Linear search not attempted -- first point.
 Iteration  1 RMS(Cart)=  0.00720340 RMS(Int)=  0.00002972
 Iteration  2 RMS(Cart)=  0.00003743 RMS(Int)=  0.00000880
 Iteration  3 RMS(Cart)=  0.00000000 RMS(Int)=  0.00000880
 ITry= 1 IFail=0 DXMaxC= 2.76D-02 DCOld= 1.00D+10 DXMaxT= 3.00D-01 DXLimC= 3.00D+00 Rises=F
 Variable       Old X    -DE/DX   Delta X   Delta X   Delta X     New X
                                 (Linear)    (Quad)   (Total)
    R1        2.84403  -0.00036   0.00000  -0.00089  -0.00088   2.84315
    R2        2.07890   0.00048   0.00000   0.00141   0.00141   2.08032
    R3        2.07127  -0.00004   0.00000  -0.00012  -0.00012   2.07115
    R4        2.91682   0.00007   0.00000   0.00012   0.00012   2.91695
    R5        2.04951   0.00008   0.00000   0.00023   0.00023   2.04974
    R6        2.53765  -0.00030   0.00000  -0.00053  -0.00053   2.53712
    R7        2.84339  -0.00021   0.00000  -0.00090  -0.00090   2.84249
    R8        2.04854   0.00041   0.00000   0.00116   0.00116   2.04970
    R9        2.06977   0.00054   0.00000   0.00157   0.00157   2.07134
   R10        2.08048   0.00020   0.00000   0.00061   0.00061   2.08109
   R11        2.92041  -0.00053   0.00000  -0.00177  -0.00177   2.91864
   R12        2.91979  -0.00015   0.00000  -0.00052  -0.00052   2.91926
   R13        2.07133  -0.00043   0.00000  -0.00125  -0.00125   2.07008
   R14        2.06297   0.00092   0.00000   0.00264   0.00264   2.06561
   R15        2.07007  -0.00127   0.00000  -0.00371  -0.00371   2.06636
   R16        2.06556   0.00115   0.00000   0.00333   0.00333   2.06888
    A1        1.90097   0.00003   0.00000   0.00056   0.00057   1.90154
    A2        1.94900  -0.00009   0.00000   0.00009   0.00010   1.94910
    A3        1.94411   0.00007   0.00000  -0.00169  -0.00171   1.94240
    A4        1.84808  -0.00001   0.00000  -0.00001  -0.00002   1.84806
    A5        1.89656   0.00001   0.00000  -0.00009  -0.00009   1.89647
    A6        1.92183  -0.00001   0.00000   0.00122   0.00123   1.92306
    A7        2.08248   0.00017   0.00000   0.00197   0.00198   2.08446
    A8        2.07221  -0.00024   0.00000  -0.00348  -0.00350   2.06871
    A9        2.12807   0.00007   0.00000   0.00135   0.00136   2.12942
   A10        2.07067   0.00037   0.00000  -0.00143  -0.00147   2.06921
   A11        2.12736   0.00003   0.00000   0.00190   0.00191   2.12927
   A12        2.08456  -0.00041   0.00000  -0.00077  -0.00077   2.08380
   A13        1.94795   0.00015   0.00000   0.00094   0.00095   1.94890
   A14        1.89898   0.00009   0.00000  -0.00018  -0.00017   1.89881
   A15        1.95313  -0.00062   0.00000  -0.00577  -0.00579   1.94734
   A16        1.84517  -0.00009   0.00000   0.00122   0.00122   1.84639
   A17        1.92367   0.00006   0.00000  -0.00013  -0.00013   1.92354
   A18        1.89072   0.00045   0.00000   0.00447   0.00447   1.89519
   A19        1.98766  -0.00054   0.00000  -0.00505  -0.00508   1.98258
   A20        1.90192   0.00048   0.00000   0.00520   0.00521   1.90713
   A21        1.88077  -0.00000   0.00000  -0.00114  -0.00114   1.87963
   A22        1.93625  -0.00011   0.00000  -0.00011  -0.00009   1.93616
   A23        1.89958   0.00034   0.00000   0.00169   0.00169   1.90127
   A24        1.85197  -0.00014   0.00000  -0.00034  -0.00035   1.85162
   A25        1.98172   0.00056   0.00000   0.00038   0.00036   1.98207
   A26        1.87922   0.00011   0.00000   0.00341   0.00342   1.88265
   A27        1.90948  -0.00050   0.00000  -0.00403  -0.00402   1.90546
   A28        1.90294  -0.00031   0.00000  -0.00152  -0.00152   1.90143
   A29        1.93455   0.00001   0.00000   0.00156   0.00157   1.93612
   A30        1.85047   0.00010   0.00000   0.00026   0.00026   1.85073
    D1        1.80448   0.00002   0.00000   0.00275   0.00275   1.80723
    D2       -1.30633   0.00012   0.00000   0.00817   0.00817  -1.29816
    D3       -0.23035   0.00007   0.00000   0.00236   0.00236  -0.22799
    D4        2.94203   0.00017   0.00000   0.00779   0.00778   2.94981
    D5       -2.38712   0.00010   0.00000   0.00195   0.00195  -2.38517
    D6        0.78525   0.00020   0.00000   0.00738   0.00737   0.79262
    D7       -0.75291  -0.00018   0.00000  -0.01029  -0.01029  -0.76319
    D8       -2.92476  -0.00002   0.00000  -0.01053  -0.01052  -2.93528
    D9        1.35615  -0.00009   0.00000  -0.01218  -0.01218   1.34397
   D10        1.34129  -0.00008   0.00000  -0.01069  -0.01069   1.33060
   D11       -0.83057   0.00008   0.00000  -0.01093  -0.01093  -0.84149
   D12       -2.83284   0.00000   0.00000  -0.01258  -0.01258  -2.84543
   D13       -2.92505  -0.00010   0.00000  -0.01008  -0.01008  -2.93513
   D14        1.18628   0.00006   0.00000  -0.01032  -0.01032   1.17596
   D15       -0.81600  -0.00001   0.00000  -0.01198  -0.01198  -0.82797
   D16       -0.00270   0.00026   0.00000   0.00634   0.00635   0.00365
   D17        3.10191   0.00008   0.00000  -0.00284  -0.00284   3.09907
   D18       -3.11266   0.00037   0.00000   0.01190   0.01191  -3.10076
   D19       -0.00805   0.00018   0.00000   0.00273   0.00272  -0.00533
   D20       -2.94115  -0.00001   0.00000  -0.01055  -0.01054  -2.95170
   D21        1.31259  -0.00004   0.00000  -0.01247  -0.01247   1.30012
   D22       -0.77605  -0.00027   0.00000  -0.01433  -0.01433  -0.79037
   D23        0.23649   0.00016   0.00000  -0.00166  -0.00166   0.23483
   D24       -1.79295   0.00013   0.00000  -0.00358  -0.00359  -1.79654
   D25        2.40160  -0.00011   0.00000  -0.00544  -0.00544   2.39616
   D26        0.72725   0.00020   0.00000   0.01027   0.01026   0.73750
   D27       -1.38120   0.00015   0.00000   0.00956   0.00955  -1.37164
   D28        2.89842   0.00023   0.00000   0.00949   0.00948   2.90790
   D29        2.90588  -0.00001   0.00000   0.00720   0.00720   2.91308
   D30        0.79744  -0.00006   0.00000   0.00649   0.00649   0.80393
   D31       -1.20613   0.00002   0.00000   0.00642   0.00642  -1.19970
   D32       -1.36623   0.00017   0.00000   0.01111   0.01111  -1.35512
   D33        2.80851   0.00013   0.00000   0.01040   0.01040   2.81892
   D34        0.80494   0.00021   0.00000   0.01033   0.01034   0.81528
   D35        0.01761  -0.00020   0.00000   0.00049   0.00048   0.01809
   D36        2.11265   0.00009   0.00000   0.00400   0.00400   2.11665
   D37       -2.13995   0.00003   0.00000   0.00431   0.00431  -2.13564
   D38        2.17092  -0.00006   0.00000   0.00351   0.00351   2.17443
   D39       -2.01722   0.00023   0.00000   0.00703   0.00702  -2.01020
   D40        0.01336   0.00017   0.00000   0.00734   0.00734   0.02070
   D41       -2.08090  -0.00009   0.00000   0.00404   0.00404  -2.07685
   D42        0.01414   0.00020   0.00000   0.00756   0.00756   0.02170
   D43        2.04473   0.00014   0.00000   0.00787   0.00787   2.05260
         Item               Value     Threshold  Converged?
 Maximum Force            0.001267     0.000450     NO 
 RMS     Force            0.000311     0.000300     NO 
 Maximum Displacement     0.027591     0.001800     NO 
 RMS     Displacement     0.007219     0.001200     NO 
 Predicted change in Energy=-3.263223D-05
 GradGradGradGradGradGradGradGradGradGradGradGradGradGradGradGradGradGrad

 Leave Link  103 at Sat Jun 15 16:37:38 2024, MaxMem=   104857600 cpu:               1.6 elap:               0.9
 (Enter /mlatom/software/Gaussian/g16-avx2/l202.exe)
                          Input orientation:                          
 ---------------------------------------------------------------------
 Center     Atomic      Atomic             Coordinates (Angstroms)
 Number     Number       Type             X           Y           Z
 ---------------------------------------------------------------------
      1          6           0        0.528342   -0.372029    0.003303
      2          6           0       -0.628014   -1.089089   -0.638779
      3          1           0        0.435028   -0.451091    1.097343
      4          1           0        0.515191    0.700449   -0.222192
      5          1           0       -1.449129   -0.513258   -1.051953
      6          6           0       -0.627405   -2.431669   -0.642996
      7          6           0        0.526679   -3.152208   -0.001538
      8          1           0       -1.450259   -3.005498   -1.055430
      9          1           0        0.513611   -4.223591   -0.232653
     10          1           0        0.425686   -3.080442    1.092738
     11          6           0        1.877257   -0.989418   -0.423202
     12          6           0        1.881142   -2.534184   -0.412490
     13          1           0        2.674524   -0.591599    0.214055
     14          1           0        2.096648   -0.641185   -1.435829
     15          1           0        2.124264   -2.895521   -1.415492
     16          1           0        2.666518   -2.918774    0.246203
 ---------------------------------------------------------------------
                    Distance matrix (angstroms):
                    1          2          3          4          5
     1  C    0.000000
     2  C    1.504528   0.000000
     3  H    1.100856   2.133359   0.000000
     4  H    1.096006   2.164003   1.753182   0.000000
     5  H    2.245864   1.084677   2.858914   2.453597   0.000000
     6  C    2.448586   1.342587   2.842576   3.360472   2.126683
     7  C    2.780184   2.448643   2.917529   3.858988   3.459949
     8  H    3.459905   2.126572   3.835849   4.276836   2.492243
     9  H    3.858811   3.360558   4.000852   4.924051   4.276701
    10  H    2.921115   2.841465   2.629371   4.004022   3.834719
    11  C    1.543582   2.516504   2.163765   2.179743   3.418611
    12  C    2.584157   2.904372   2.951292   3.516375   3.947628
    13  H    2.167654   3.446967   2.411490   2.553903   4.314328
    14  H    2.145490   2.873968   3.035470   2.402894   3.568790
    15  H    3.305746   3.382531   3.891413   4.116319   4.310043
    16  H    3.334172   3.871031   3.434158   4.236316   4.940675
                    6          7          8          9         10
     6  C    0.000000
     7  C    1.504179   0.000000
     8  H    1.084652   2.245105   0.000000
     9  H    2.163627   1.096105   2.453059   0.000000
    10  H    2.131356   1.101268   2.852966   1.752479   0.000000
    11  C    2.898574   2.584477   3.941656   3.515069   2.962687
    12  C    2.521201   1.544476   3.425456   2.180958   2.163900
    13  H    3.875968   3.349095   4.944930   4.249759   3.467520
    14  H    3.354830   3.290476   4.279630   4.097228   3.890468
    15  H    2.895443   2.148820   3.594295   2.399391   3.034894
    16  H    3.446429   2.166743   4.318521   2.562588   2.400851
                   11         12         13         14         15
    11  C    0.000000
    12  C    1.544808   0.000000
    13  H    1.095441   2.189897   0.000000
    14  H    1.093075   2.162663   1.748861   0.000000
    15  H    2.163072   1.093473   2.875111   2.254597   0.000000
    16  H    2.189395   1.094806   2.327410   2.888148   1.748088
                   16
    16  H    0.000000
 Stoichiometry    C6H10
 Framework group  C1[X(C6H10)]
 Deg. of freedom    42
 Full point group                 C1      NOp   1
 RotChk:  IX=0 Diff= 2.02D-01
 Largest Abelian subgroup         C1      NOp   1
 Largest concise Abelian subgroup C1      NOp   1
                         Standard orientation:                         
 ---------------------------------------------------------------------
 Center     Atomic      Atomic             Coordinates (Angstroms)
 Number     Number       Type             X           Y           Z
 ---------------------------------------------------------------------
      1          6           0        1.072910   -0.887485    0.349286
      2          6           0        1.381306    0.484328   -0.186089
      3          1           0        1.011258   -0.837204    1.447263
      4          1           0        1.876079   -1.599083    0.126176
      5          1           0        2.386942    0.711163   -0.523382
      6          6           0        0.404475    1.405371   -0.190695
      7          6           0       -0.948128    1.021651    0.343887
      8          1           0        0.574920    2.422255   -0.527395
      9          1           0       -1.704244    1.781366    0.114612
     10          1           0       -0.894825    0.973989    1.442831
     11          6           0       -0.271507   -1.413269   -0.197286
     12          6           0       -1.398586   -0.356847   -0.187373
     13          1           0       -0.566461   -2.305554    0.365582
     14          1           0       -0.105249   -1.744912   -1.225481
     15          1           0       -1.765326   -0.219442   -1.208306
     16          1           0       -2.255917   -0.705071    0.397713
 ---------------------------------------------------------------------
 Rotational constants (GHZ):           4.6654397           4.5675284           2.6106811
 Leave Link  202 at Sat Jun 15 16:37:38 2024, MaxMem=   104857600 cpu:               0.2 elap:               0.4
 (Enter /mlatom/software/Gaussian/g16-avx2/l301.exe)
 Standard basis: STO-3G (5D, 7F)
 Ernie: Thresh=  0.10000D-02 Tol=  0.10000D-05 Strict=F.
 There are    40 symmetry adapted cartesian basis functions of A   symmetry.
 There are    40 symmetry adapted basis functions of A   symmetry.
    40 basis functions,   120 primitive gaussians,    40 cartesian basis functions
    23 alpha electrons       23 beta electrons
       nuclear repulsion energy       236.7298091356 Hartrees.
 IExCor=    0 DFT=F Ex=HF Corr=None ExCW=0 ScaHFX=  1.000000
 ScaDFX=  1.000000  1.000000  1.000000  1.000000 ScalE2=  1.000000  1.000000
 IRadAn=      5 IRanWt=     -1 IRanGd=            0 ICorTp=0 IEmpDi=  4
 NAtoms=   16 NActive=   16 NUniq=   16 SFac= 1.00D+00 NAtFMM=   60 NAOKFM=F Big=F
 Integral buffers will be    131072 words long.
 Raffenetti 1 integral format.
 Two-electron integral symmetry is turned on.
 Leave Link  301 at Sat Jun 15 16:37:39 2024, MaxMem=   104857600 cpu:               0.4 elap:               0.5
 (Enter /mlatom/software/Gaussian/g16-avx2/l402.exe)
 External calculation of energy and first derivatives.
 Running external command "/mlatom/software/miniconda3/bin/python /mlatom/software/mlatom/mlatom/interfaces/gaussian_interface.py model_predict_kwargs R"
         input file       "/mlatom/home/qhzhang/git/ts-analysis/calculations/C60/irc/pro_opt/da_ani_opt_1/Gau-212676.EIn"
         output file      "/mlatom/home/qhzhang/git/ts-analysis/calculations/C60/irc/pro_opt/da_ani_opt_1/Gau-212676.EOu"
         message file     "/mlatom/home/qhzhang/git/ts-analysis/calculations/C60/irc/pro_opt/da_ani_opt_1/Gau-212676.EMs"
         fchk file        "/mlatom/home/qhzhang/git/ts-analysis/calculations/C60/irc/pro_opt/da_ani_opt_1/Gau-212676.EFC"
         mat. el file     "/mlatom/home/qhzhang/git/ts-analysis/calculations/C60/irc/pro_opt/da_ani_opt_1/Gau-212676.EUF"
model loaded from /mlatom/home/qhzhang/git/ts-analysis/calculations/C60/irc/pro_opt/da_ani_opt_1/da_energy_iteration27.npz
 Recovered energy= -234.657665872     dipole=      0.000000000000      0.000000000000      0.000000000000
 Energy=    -234.657666     NIter=   0.
 Dipole moment=       0.000000       0.000000       0.000000
 Leave Link  402 at Sat Jun 15 16:37:43 2024, MaxMem=   104857600 cpu:              11.4 elap:               4.4
 (Enter /mlatom/software/Gaussian/g16-avx2/l716.exe)
 Dipole        = 0.00000000D+00 0.00000000D+00 0.00000000D+00
 ***** Axes restored to original set *****
 -------------------------------------------------------------------
 Center     Atomic                   Forces (Hartrees/Bohr)
 Number     Number              X              Y              Z
 -------------------------------------------------------------------
      1        6           0.000099761   -0.000029467   -0.000193077
      2        6          -0.000122436    0.000222327   -0.000045277
      3        1          -0.000022470    0.000084674    0.000158144
      4        1          -0.000026209    0.000020884    0.000086258
      5        1           0.000073319   -0.000024510   -0.000009948
      6        6          -0.000354397   -0.000010389    0.000146608
      7        6           0.000230209   -0.000180932    0.000060164
      8        1           0.000110198   -0.000053002   -0.000187063
      9        1           0.000049222    0.000017241    0.000005985
     10        1           0.000022278   -0.000016014   -0.000028341
     11        6           0.000128840    0.000165084    0.000059757
     12        6          -0.000278118   -0.000018927   -0.000188345
     13        1          -0.000029817   -0.000098205   -0.000134297
     14        1          -0.000054041    0.000068300   -0.000021776
     15        1          -0.000032823   -0.000036841    0.000092658
     16        1           0.000206488   -0.000110224    0.000198548
 -------------------------------------------------------------------
 Cartesian Forces:  Max     0.000354397 RMS     0.000125429
 Leave Link  716 at Sat Jun 15 16:37:44 2024, MaxMem=   104857600 cpu:               0.3 elap:               0.5
 (Enter /mlatom/software/Gaussian/g16-avx2/l103.exe)

 GradGradGradGradGradGradGradGradGradGradGradGradGradGradGradGradGradGrad
 Berny optimization.
 FormGI is forming the generalized inverse of G from B-inverse, IUseBI=4.
 Internal  Forces:  Max     0.000306304 RMS     0.000072704
 Search for a local minimum.
 Step number   2 out of a maximum of   99
 All quantities printed in internal units (Hartrees-Bohrs-Radians)
 Update second derivatives using D2CorX and points    1    2
 DE= -3.41D-05 DEPred=-3.26D-05 R= 1.04D+00
 TightC=F SS=  1.41D+00  RLast= 5.73D-02 DXNew= 5.0454D-01 1.7201D-01
 Trust test= 1.04D+00 RLast= 5.73D-02 DXMaxT set to 3.00D-01
 ITU=  1  0
     Eigenvalues ---    0.00278   0.00690   0.01249   0.01420   0.01768
     Eigenvalues ---    0.02772   0.03048   0.03681   0.04415   0.04758
     Eigenvalues ---    0.05123   0.05804   0.05858   0.07590   0.08434
     Eigenvalues ---    0.08461   0.09167   0.09282   0.09967   0.11719
     Eigenvalues ---    0.12401   0.15918   0.15989   0.19063   0.20430
     Eigenvalues ---    0.21688   0.26453   0.26835   0.28071   0.29900
     Eigenvalues ---    0.31725   0.32924   0.33597   0.33828   0.34121
     Eigenvalues ---    0.34172   0.34229   0.34418   0.34889   0.35468
     Eigenvalues ---    0.35594   0.54390
 Angle between quadratic step and forces=  70.90 degrees.
 Quartic linear search produced a step of  0.04503.
 Iteration  1 RMS(Cart)=  0.00280207 RMS(Int)=  0.00000568
 Iteration  2 RMS(Cart)=  0.00000633 RMS(Int)=  0.00000141
 Iteration  3 RMS(Cart)=  0.00000000 RMS(Int)=  0.00000141
 ITry= 1 IFail=0 DXMaxC= 1.18D-02 DCOld= 1.00D+10 DXMaxT= 3.00D-01 DXLimC= 3.00D+00 Rises=F
 Variable       Old X    -DE/DX   Delta X   Delta X   Delta X     New X
                                 (Linear)    (Quad)   (Total)
    R1        2.84315   0.00011  -0.00004   0.00021   0.00017   2.84332
    R2        2.08032   0.00015   0.00006   0.00054   0.00060   2.08092
    R3        2.07115   0.00000  -0.00001   0.00000  -0.00000   2.07115
    R4        2.91695   0.00006   0.00001   0.00009   0.00009   2.91704
    R5        2.04974  -0.00006   0.00001  -0.00018  -0.00017   2.04957
    R6        2.53712   0.00025  -0.00002   0.00044   0.00042   2.53754
    R7        2.84249   0.00027  -0.00004   0.00097   0.00093   2.84342
    R8        2.04970   0.00002   0.00005   0.00010   0.00015   2.04984
    R9        2.07134  -0.00002   0.00007   0.00001   0.00008   2.07142
   R10        2.08109  -0.00003   0.00003  -0.00007  -0.00004   2.08105
   R11        2.91864  -0.00010  -0.00008  -0.00035  -0.00043   2.91821
   R12        2.91926   0.00016  -0.00002   0.00056   0.00053   2.91980
   R13        2.07008  -0.00014  -0.00006  -0.00047  -0.00053   2.06956
   R14        2.06561   0.00003   0.00012   0.00021   0.00033   2.06594
   R15        2.06636  -0.00008  -0.00017  -0.00041  -0.00058   2.06579
   R16        2.06888   0.00031   0.00015   0.00108   0.00123   2.07011
    A1        1.90154   0.00004   0.00003   0.00071   0.00073   1.90227
    A2        1.94910   0.00001   0.00000  -0.00001  -0.00000   1.94909
    A3        1.94240  -0.00007  -0.00008  -0.00088  -0.00096   1.94144
    A4        1.84806  -0.00007  -0.00000  -0.00083  -0.00083   1.84724
    A5        1.89647   0.00005  -0.00000   0.00077   0.00077   1.89724
    A6        1.92306   0.00004   0.00006   0.00028   0.00034   1.92340
    A7        2.08446  -0.00002   0.00009   0.00012   0.00021   2.08467
    A8        2.06871   0.00001  -0.00016  -0.00022  -0.00038   2.06832
    A9        2.12942   0.00000   0.00006   0.00022   0.00028   2.12970
   A10        2.06921  -0.00001  -0.00007   0.00012   0.00005   2.06925
   A11        2.12927   0.00005   0.00009   0.00045   0.00053   2.12980
   A12        2.08380  -0.00004  -0.00003  -0.00035  -0.00039   2.08341
   A13        1.94890   0.00007   0.00004   0.00036   0.00040   1.94930
   A14        1.89881   0.00003  -0.00001   0.00020   0.00019   1.89900
   A15        1.94734  -0.00009  -0.00026  -0.00020  -0.00046   1.94688
   A16        1.84639  -0.00001   0.00005  -0.00001   0.00004   1.84643
   A17        1.92354  -0.00004  -0.00001  -0.00062  -0.00063   1.92292
   A18        1.89519   0.00004   0.00020   0.00031   0.00051   1.89570
   A19        1.98258   0.00001  -0.00023  -0.00047  -0.00071   1.98187
   A20        1.90713   0.00007   0.00023   0.00113   0.00136   1.90849
   A21        1.87963  -0.00007  -0.00005  -0.00073  -0.00078   1.87885
   A22        1.93616  -0.00007  -0.00000  -0.00036  -0.00036   1.93579
   A23        1.90127   0.00006   0.00008   0.00059   0.00066   1.90193
   A24        1.85162  -0.00001  -0.00002  -0.00015  -0.00016   1.85146
   A25        1.98207   0.00010   0.00002   0.00054   0.00055   1.98262
   A26        1.88265  -0.00009   0.00015  -0.00055  -0.00039   1.88225
   A27        1.90546  -0.00002  -0.00018  -0.00027  -0.00045   1.90501
   A28        1.90143   0.00002  -0.00007   0.00024   0.00017   1.90159
   A29        1.93612  -0.00003   0.00007   0.00011   0.00018   1.93630
   A30        1.85073   0.00001   0.00001  -0.00013  -0.00012   1.85061
    D1        1.80723  -0.00000   0.00012   0.00354   0.00366   1.81089
    D2       -1.29816  -0.00004   0.00037  -0.00008   0.00029  -1.29787
    D3       -0.22799   0.00005   0.00011   0.00412   0.00423  -0.22376
    D4        2.94981   0.00001   0.00035   0.00050   0.00085   2.95066
    D5       -2.38517   0.00005   0.00009   0.00440   0.00449  -2.38068
    D6        0.79262   0.00000   0.00033   0.00078   0.00112   0.79374
    D7       -0.76319  -0.00005  -0.00046  -0.00412  -0.00458  -0.76777
    D8       -2.93528  -0.00002  -0.00047  -0.00417  -0.00464  -2.93992
    D9        1.34397  -0.00001  -0.00055  -0.00419  -0.00473   1.33924
   D10        1.33060  -0.00001  -0.00048  -0.00329  -0.00377   1.32683
   D11       -0.84149   0.00002  -0.00049  -0.00334  -0.00383  -0.84532
   D12       -2.84543   0.00003  -0.00057  -0.00336  -0.00392  -2.84935
   D13       -2.93513  -0.00004  -0.00045  -0.00369  -0.00414  -2.93928
   D14        1.17596  -0.00001  -0.00046  -0.00374  -0.00420   1.17176
   D15       -0.82797   0.00000  -0.00054  -0.00375  -0.00429  -0.83227
   D16        0.00365   0.00001   0.00029   0.00132   0.00161   0.00526
   D17        3.09907   0.00010  -0.00013   0.00690   0.00677   3.10585
   D18       -3.10076  -0.00004   0.00054  -0.00239  -0.00186  -3.10261
   D19       -0.00533   0.00006   0.00012   0.00318   0.00331  -0.00202
   D20       -2.95170   0.00006  -0.00047   0.00036  -0.00012  -2.95181
   D21        1.30012   0.00002  -0.00056   0.00004  -0.00052   1.29960
   D22       -0.79037  -0.00000  -0.00065  -0.00034  -0.00099  -0.79136
   D23        0.23483  -0.00004  -0.00007  -0.00509  -0.00517   0.22967
   D24       -1.79654  -0.00008  -0.00016  -0.00541  -0.00557  -1.80211
   D25        2.39616  -0.00010  -0.00025  -0.00579  -0.00603   2.39012
   D26        0.73750  -0.00000   0.00046  -0.00298  -0.00252   0.73498
   D27       -1.37164  -0.00003   0.00043  -0.00324  -0.00281  -1.37446
   D28        2.90790   0.00002   0.00043  -0.00266  -0.00223   2.90567
   D29        2.91308  -0.00000   0.00032  -0.00312  -0.00280   2.91028
   D30        0.80393  -0.00003   0.00029  -0.00338  -0.00309   0.80084
   D31       -1.19970   0.00002   0.00029  -0.00280  -0.00251  -1.20221
   D32       -1.35512  -0.00001   0.00050  -0.00330  -0.00280  -1.35792
   D33        2.81892  -0.00004   0.00047  -0.00356  -0.00309   2.81582
   D34        0.81528   0.00001   0.00047  -0.00298  -0.00251   0.81277
   D35        0.01809   0.00001   0.00002   0.00480   0.00483   0.02292
   D36        2.11665  -0.00002   0.00018   0.00463   0.00481   2.12145
   D37       -2.13564  -0.00001   0.00019   0.00467   0.00487  -2.13078
   D38        2.17443   0.00006   0.00016   0.00566   0.00582   2.18025
   D39       -2.01020   0.00002   0.00032   0.00548   0.00580  -2.00440
   D40        0.02070   0.00003   0.00033   0.00553   0.00586   0.02655
   D41       -2.07685   0.00005   0.00018   0.00563   0.00581  -2.07104
   D42        0.02170   0.00001   0.00034   0.00545   0.00579   0.02749
   D43        2.05260   0.00002   0.00035   0.00549   0.00585   2.05845
         Item               Value     Threshold  Converged?
 Maximum Force            0.000306     0.000450     YES
 RMS     Force            0.000073     0.000300     YES
 Maximum Displacement     0.011808     0.001800     NO 
 RMS     Displacement     0.002803     0.001200     NO 
 Predicted change in Energy=-2.975350D-06
 GradGradGradGradGradGradGradGradGradGradGradGradGradGradGradGradGradGrad

 Leave Link  103 at Sat Jun 15 16:37:45 2024, MaxMem=   104857600 cpu:               1.6 elap:               0.9
 (Enter /mlatom/software/Gaussian/g16-avx2/l202.exe)
                          Input orientation:                          
 ---------------------------------------------------------------------
 Center     Atomic      Atomic             Coordinates (Angstroms)
 Number     Number       Type             X           Y           Z
 ---------------------------------------------------------------------
      1          6           0        0.528530   -0.372147    0.005010
      2          6           0       -0.628305   -1.088292   -0.637443
      3          1           0        0.436545   -0.452408    1.099396
      4          1           0        0.514931    0.700753   -0.218438
      5          1           0       -1.448079   -0.511962   -1.052344
      6          6           0       -0.627433   -2.431091   -0.643085
      7          6           0        0.526414   -3.152386   -0.000898
      8          1           0       -1.447361   -3.005152   -1.061191
      9          1           0        0.514066   -4.223638   -0.232862
     10          1           0        0.424643   -3.081475    1.093340
     11          6           0        1.876546   -0.989182   -0.425011
     12          6           0        1.880774   -2.534203   -0.411102
     13          1           0        2.676464   -0.590367    0.207806
     14          1           0        2.091369   -0.642271   -1.439259
     15          1           0        2.125265   -2.897625   -1.412684
     16          1           0        2.665712   -2.917661    0.249849
 ---------------------------------------------------------------------
                    Distance matrix (angstroms):
                    1          2          3          4          5
     1  C    0.000000
     2  C    1.504619   0.000000
     3  H    1.101174   2.134213   0.000000
     4  H    1.096005   2.164079   1.752887   0.000000
     5  H    2.246003   1.084587   2.861004   2.453464   0.000000
     6  C    2.448577   1.342811   2.843145   3.360620   2.126971
     7  C    2.780246   2.449296   2.916951   3.859292   3.460636
     8  H    3.460296   2.127150   3.838456   4.277213   2.493205
     9  H    3.858858   3.361412   4.000388   4.924413   4.277628
    10  H    2.921594   2.842021   2.629101   4.004268   3.835810
    11  C    1.543631   2.515796   2.164612   2.180034   3.416784
    12  C    2.583835   2.904715   2.949792   3.516759   3.947394
    13  H    2.168495   3.447300   2.414788   2.553606   4.313465
    14  H    2.145075   2.870274   3.036323   2.404013   3.562917
    15  H    3.307183   3.384794   3.891196   4.119190   4.311615
    16  H    3.332737   3.870972   3.430508   4.235336   4.940280
                    6          7          8          9         10
     6  C    0.000000
     7  C    1.504671   0.000000
     8  H    1.084731   2.245370   0.000000
     9  H    2.164377   1.096149   2.453168   0.000000
    10  H    2.131908   1.101245   2.855210   1.752525   0.000000
    11  C    2.897683   2.584991   3.939190   3.514965   2.964979
    12  C    2.521022   1.544250   3.423579   2.180333   2.164063
    13  H    3.876598   3.351151   4.944439   4.250978   3.472821
    14  H    3.350471   3.289170   4.271856   4.095054   3.891239
    15  H    2.896080   2.148107   3.591485   2.397134   3.034150
    16  H    3.446575   2.166694   4.317852   2.562843   2.400146
                   11         12         13         14         15
    11  C    0.000000
    12  C    1.545090   0.000000
    13  H    1.095162   2.189673   0.000000
    14  H    1.093250   2.163530   1.748672   0.000000
    15  H    2.163219   1.093168   2.872847   2.255765   0.000000
    16  H    2.190262   1.095455   2.327698   2.891427   1.748285
                   16
    16  H    0.000000
 Stoichiometry    C6H10
 Framework group  C1[X(C6H10)]
 Deg. of freedom    42
 Full point group                 C1      NOp   1
 RotChk:  IX=0 Diff= 2.93D-01
 Largest Abelian subgroup         C1      NOp   1
 Largest concise Abelian subgroup C1      NOp   1
                         Standard orientation:                         
 ---------------------------------------------------------------------
 Center     Atomic      Atomic             Coordinates (Angstroms)
 Number     Number       Type             X           Y           Z
 ---------------------------------------------------------------------
      1          6           0        1.232396   -0.647395    0.350668
      2          6           0        1.252313    0.758484   -0.185042
      3          1           0        1.159923   -0.611433    1.448866
      4          1           0        2.165562   -1.178049    0.129681
      5          1           0        2.189373    1.186572   -0.524140
      6          6           0        0.106273    1.458267   -0.191145
      7          6           0       -1.138694    0.804383    0.344136
      8          1           0        0.061899    2.486509   -0.533768
      9          1           0       -2.035449    1.391211    0.113908
     10          1           0       -1.077078    0.769858    1.443114
     11          6           0        0.026276   -1.438299   -0.199369
     12          6           0       -1.294994   -0.637438   -0.186365
     13          1           0       -0.078656   -2.374660    0.358841
     14          1           0        0.258720   -1.723836   -1.228754
     15          1           0       -1.684702   -0.578816   -1.206025
     16          1           0       -2.061015   -1.155376    0.400980
 ---------------------------------------------------------------------
 Rotational constants (GHZ):           4.6634840           4.5682537           2.6111303
 Leave Link  202 at Sat Jun 15 16:37:46 2024, MaxMem=   104857600 cpu:               0.2 elap:               0.4
 (Enter /mlatom/software/Gaussian/g16-avx2/l301.exe)
 Standard basis: STO-3G (5D, 7F)
 Ernie: Thresh=  0.10000D-02 Tol=  0.10000D-05 Strict=F.
 There are    40 symmetry adapted cartesian basis functions of A   symmetry.
 There are    40 symmetry adapted basis functions of A   symmetry.
    40 basis functions,   120 primitive gaussians,    40 cartesian basis functions
    23 alpha electrons       23 beta electrons
       nuclear repulsion energy       236.7188130008 Hartrees.
 IExCor=    0 DFT=F Ex=HF Corr=None ExCW=0 ScaHFX=  1.000000
 ScaDFX=  1.000000  1.000000  1.000000  1.000000 ScalE2=  1.000000  1.000000
 IRadAn=      5 IRanWt=     -1 IRanGd=            0 ICorTp=0 IEmpDi=  4
 NAtoms=   16 NActive=   16 NUniq=   16 SFac= 1.00D+00 NAtFMM=   60 NAOKFM=F Big=F
 Integral buffers will be    131072 words long.
 Raffenetti 1 integral format.
 Two-electron integral symmetry is turned on.
 Leave Link  301 at Sat Jun 15 16:37:46 2024, MaxMem=   104857600 cpu:               0.3 elap:               0.5
 (Enter /mlatom/software/Gaussian/g16-avx2/l402.exe)
 External calculation of energy and first derivatives.
 Running external command "/mlatom/software/miniconda3/bin/python /mlatom/software/mlatom/mlatom/interfaces/gaussian_interface.py model_predict_kwargs R"
         input file       "/mlatom/home/qhzhang/git/ts-analysis/calculations/C60/irc/pro_opt/da_ani_opt_1/Gau-212676.EIn"
         output file      "/mlatom/home/qhzhang/git/ts-analysis/calculations/C60/irc/pro_opt/da_ani_opt_1/Gau-212676.EOu"
         message file     "/mlatom/home/qhzhang/git/ts-analysis/calculations/C60/irc/pro_opt/da_ani_opt_1/Gau-212676.EMs"
         fchk file        "/mlatom/home/qhzhang/git/ts-analysis/calculations/C60/irc/pro_opt/da_ani_opt_1/Gau-212676.EFC"
         mat. el file     "/mlatom/home/qhzhang/git/ts-analysis/calculations/C60/irc/pro_opt/da_ani_opt_1/Gau-212676.EUF"
model loaded from /mlatom/home/qhzhang/git/ts-analysis/calculations/C60/irc/pro_opt/da_ani_opt_1/da_energy_iteration27.npz
 Recovered energy= -234.657669657     dipole=      0.000000000000      0.000000000000      0.000000000000
 Energy=    -234.657670     NIter=   0.
 Dipole moment=       0.000000       0.000000       0.000000
 Leave Link  402 at Sat Jun 15 16:37:51 2024, MaxMem=   104857600 cpu:              11.6 elap:               4.5
 (Enter /mlatom/software/Gaussian/g16-avx2/l716.exe)
 Dipole        = 0.00000000D+00 0.00000000D+00 0.00000000D+00
 ***** Axes restored to original set *****
 -------------------------------------------------------------------
 Center     Atomic                   Forces (Hartrees/Bohr)
 Number     Number              X              Y              Z
 -------------------------------------------------------------------
      1        6           0.000079546    0.000002992    0.000050091
      2        6           0.000042209   -0.000062935   -0.000048407
      3        1           0.000023223    0.000027066   -0.000023592
      4        1          -0.000013363    0.000021045    0.000037957
      5        1          -0.000008567   -0.000018369    0.000028208
      6        6          -0.000158087   -0.000002126   -0.000031112
      7        6          -0.000027234   -0.000017070   -0.000011934
      8        1           0.000036245    0.000019442   -0.000015644
      9        1          -0.000013850    0.000040281    0.000008201
     10        1           0.000024816    0.000023582   -0.000034971
     11        6          -0.000043328    0.000050722   -0.000067142
     12        6           0.000077326   -0.000000353    0.000162061
     13        1           0.000017467   -0.000019403   -0.000019889
     14        1          -0.000079776   -0.000047196    0.000073306
     15        1           0.000076563   -0.000061074   -0.000091297
     16        1          -0.000033189    0.000043395   -0.000015835
 -------------------------------------------------------------------
 Cartesian Forces:  Max     0.000162061 RMS     0.000052597
 Leave Link  716 at Sat Jun 15 16:37:51 2024, MaxMem=   104857600 cpu:               0.3 elap:               0.5
 (Enter /mlatom/software/Gaussian/g16-avx2/l103.exe)

 GradGradGradGradGradGradGradGradGradGradGradGradGradGradGradGradGradGrad
 Berny optimization.
 FormGI is forming the generalized inverse of G from B-inverse, IUseBI=4.
 Internal  Forces:  Max     0.000121076 RMS     0.000030451
 Search for a local minimum.
 Step number   3 out of a maximum of   99
 All quantities printed in internal units (Hartrees-Bohrs-Radians)
 Update second derivatives using D2CorX and points    1    2    3
 DE= -3.79D-06 DEPred=-2.98D-06 R= 1.27D+00
 TightC=F SS=  1.41D+00  RLast= 2.70D-02 DXNew= 5.0454D-01 8.0904D-02
 Trust test= 1.27D+00 RLast= 2.70D-02 DXMaxT set to 3.00D-01
 ITU=  1  1  0
     Eigenvalues ---    0.00152   0.00686   0.01213   0.01537   0.01734
     Eigenvalues ---    0.02778   0.03144   0.03695   0.04445   0.04745
     Eigenvalues ---    0.05133   0.05750   0.05863   0.07592   0.08441
     Eigenvalues ---    0.08523   0.09187   0.09278   0.09995   0.11713
     Eigenvalues ---    0.12449   0.15946   0.16032   0.19881   0.20521
     Eigenvalues ---    0.22140   0.26804   0.27248   0.28153   0.30083
     Eigenvalues ---    0.31782   0.33559   0.33736   0.34009   0.34122
     Eigenvalues ---    0.34225   0.34339   0.34514   0.35458   0.35485
     Eigenvalues ---    0.38095   0.55244
 Angle between quadratic step and forces=  80.10 degrees.
 Quartic linear search produced a step of  0.36217.
 Iteration  1 RMS(Cart)=  0.00493331 RMS(Int)=  0.00001390
 Iteration  2 RMS(Cart)=  0.00001671 RMS(Int)=  0.00000364
 Iteration  3 RMS(Cart)=  0.00000000 RMS(Int)=  0.00000364
 ITry= 1 IFail=0 DXMaxC= 2.01D-02 DCOld= 1.00D+10 DXMaxT= 3.00D-01 DXLimC= 3.00D+00 Rises=F
 Variable       Old X    -DE/DX   Delta X   Delta X   Delta X     New X
                                 (Linear)    (Quad)   (Total)
    R1        2.84332   0.00006   0.00006   0.00013   0.00019   2.84351
    R2        2.08092  -0.00003   0.00022   0.00009   0.00031   2.08123
    R3        2.07115   0.00001  -0.00000   0.00004   0.00004   2.07119
    R4        2.91704  -0.00005   0.00003  -0.00034  -0.00030   2.91674
    R5        2.04957  -0.00001  -0.00006  -0.00007  -0.00013   2.04944
    R6        2.53754  -0.00004   0.00015  -0.00006   0.00010   2.53764
    R7        2.84342   0.00004   0.00034   0.00039   0.00073   2.84415
    R8        2.04984  -0.00003   0.00005  -0.00002   0.00004   2.04988
    R9        2.07142  -0.00004   0.00003  -0.00004  -0.00001   2.07141
   R10        2.08105  -0.00004  -0.00002  -0.00011  -0.00013   2.08093
   R11        2.91821   0.00004  -0.00015   0.00016   0.00000   2.91821
   R12        2.91980  -0.00001   0.00019   0.00004   0.00023   2.92002
   R13        2.06956  -0.00001  -0.00019  -0.00020  -0.00039   2.06916
   R14        2.06594  -0.00010   0.00012  -0.00015  -0.00003   2.06591
   R15        2.06579   0.00012  -0.00021   0.00013  -0.00008   2.06571
   R16        2.07011  -0.00005   0.00044   0.00025   0.00070   2.07081
    A1        1.90227   0.00003   0.00027   0.00087   0.00114   1.90341
    A2        1.94909  -0.00000  -0.00000   0.00009   0.00009   1.94918
    A3        1.94144  -0.00002  -0.00035  -0.00126  -0.00162   1.93982
    A4        1.84724  -0.00002  -0.00030  -0.00042  -0.00072   1.84651
    A5        1.89724  -0.00001   0.00028   0.00027   0.00055   1.89779
    A6        1.92340   0.00003   0.00012   0.00052   0.00065   1.92405
    A7        2.08467  -0.00001   0.00007   0.00029   0.00037   2.08504
    A8        2.06832   0.00004  -0.00014  -0.00032  -0.00046   2.06786
    A9        2.12970  -0.00004   0.00010   0.00004   0.00015   2.12985
   A10        2.06925  -0.00007   0.00002  -0.00050  -0.00049   2.06877
   A11        2.12980   0.00003   0.00019   0.00038   0.00058   2.13038
   A12        2.08341   0.00004  -0.00014   0.00009  -0.00005   2.08336
   A13        1.94930  -0.00002   0.00014   0.00018   0.00032   1.94962
   A14        1.89900  -0.00001   0.00007  -0.00047  -0.00040   1.89860
   A15        1.94688   0.00005  -0.00017   0.00046   0.00029   1.94717
   A16        1.84643   0.00001   0.00002   0.00008   0.00010   1.84653
   A17        1.92292  -0.00001  -0.00023   0.00005  -0.00018   1.92274
   A18        1.89570  -0.00003   0.00018  -0.00035  -0.00017   1.89553
   A19        1.98187   0.00004  -0.00026  -0.00064  -0.00091   1.98096
   A20        1.90849  -0.00001   0.00049   0.00093   0.00143   1.90992
   A21        1.87885  -0.00001  -0.00028  -0.00051  -0.00079   1.87806
   A22        1.93579  -0.00003  -0.00013  -0.00023  -0.00035   1.93544
   A23        1.90193  -0.00001   0.00024   0.00018   0.00043   1.90236
   A24        1.85146   0.00002  -0.00006   0.00031   0.00025   1.85171
   A25        1.98262  -0.00005   0.00020  -0.00013   0.00005   1.98267
   A26        1.88225   0.00000  -0.00014   0.00045   0.00032   1.88257
   A27        1.90501   0.00005  -0.00016  -0.00015  -0.00031   1.90471
   A28        1.90159   0.00003   0.00006   0.00020   0.00027   1.90186
   A29        1.93630  -0.00001   0.00007  -0.00015  -0.00008   1.93622
   A30        1.85061  -0.00002  -0.00004  -0.00020  -0.00025   1.85036
    D1        1.81089  -0.00001   0.00133   0.00156   0.00289   1.81378
    D2       -1.29787   0.00001   0.00010   0.00093   0.00103  -1.29684
    D3       -0.22376   0.00000   0.00153   0.00149   0.00302  -0.22074
    D4        2.95066   0.00002   0.00031   0.00086   0.00117   2.95183
    D5       -2.38068  -0.00002   0.00163   0.00168   0.00331  -2.37738
    D6        0.79374   0.00000   0.00040   0.00105   0.00145   0.79519
    D7       -0.76777  -0.00001  -0.00166  -0.00723  -0.00888  -0.77666
    D8       -2.93992  -0.00000  -0.00168  -0.00718  -0.00886  -2.94878
    D9        1.33924  -0.00001  -0.00171  -0.00775  -0.00947   1.32977
   D10        1.32683   0.00000  -0.00137  -0.00675  -0.00812   1.31871
   D11       -0.84532   0.00001  -0.00139  -0.00671  -0.00809  -0.85342
   D12       -2.84935   0.00000  -0.00142  -0.00728  -0.00870  -2.85805
   D13       -2.93928  -0.00002  -0.00150  -0.00682  -0.00831  -2.94759
   D14        1.17176  -0.00000  -0.00152  -0.00677  -0.00829   1.16347
   D15       -0.83227  -0.00001  -0.00156  -0.00734  -0.00890  -0.84116
   D16        0.00526  -0.00000   0.00058   0.00307   0.00365   0.00891
   D17        3.10585  -0.00000   0.00245   0.00240   0.00486   3.11071
   D18       -3.10261   0.00001  -0.00067   0.00241   0.00174  -3.10087
   D19       -0.00202   0.00001   0.00120   0.00175   0.00295   0.00093
   D20       -2.95181  -0.00002  -0.00004  -0.00223  -0.00227  -2.95409
   D21        1.29960  -0.00002  -0.00019  -0.00215  -0.00233   1.29726
   D22       -0.79136  -0.00001  -0.00036  -0.00169  -0.00205  -0.79341
   D23        0.22967  -0.00002  -0.00187  -0.00159  -0.00346   0.22620
   D24       -1.80211  -0.00002  -0.00202  -0.00151  -0.00353  -1.80563
   D25        2.39012  -0.00001  -0.00219  -0.00106  -0.00324   2.38688
   D26        0.73498   0.00000  -0.00091  -0.00455  -0.00547   0.72951
   D27       -1.37446  -0.00000  -0.00102  -0.00504  -0.00606  -1.38052
   D28        2.90567  -0.00001  -0.00081  -0.00497  -0.00578   2.89990
   D29        2.91028   0.00000  -0.00101  -0.00396  -0.00497   2.90531
   D30        0.80084  -0.00000  -0.00112  -0.00445  -0.00556   0.79528
   D31       -1.20221  -0.00001  -0.00091  -0.00437  -0.00528  -1.20749
   D32       -1.35792   0.00000  -0.00102  -0.00403  -0.00505  -1.36297
   D33        2.81582  -0.00000  -0.00112  -0.00452  -0.00564   2.81019
   D34        0.81277  -0.00001  -0.00091  -0.00444  -0.00535   0.80741
   D35        0.02292   0.00004   0.00175   0.00855   0.01029   0.03321
   D36        2.12145   0.00003   0.00174   0.00918   0.01092   2.13237
   D37       -2.13078   0.00002   0.00176   0.00896   0.01073  -2.12005
   D38        2.18025   0.00004   0.00211   0.00912   0.01122   2.19147
   D39       -2.00440   0.00003   0.00210   0.00975   0.01185  -1.99255
   D40        0.02655   0.00002   0.00212   0.00954   0.01166   0.03821
   D41       -2.07104   0.00004   0.00210   0.00948   0.01159  -2.05946
   D42        0.02749   0.00003   0.00210   0.01011   0.01221   0.03970
   D43        2.05845   0.00002   0.00212   0.00990   0.01202   2.07047
         Item               Value     Threshold  Converged?
 Maximum Force            0.000121     0.000450     YES
 RMS     Force            0.000030     0.000300     YES
 Maximum Displacement     0.020116     0.001800     NO 
 RMS     Displacement     0.004935     0.001200     NO 
 Predicted change in Energy=-1.941640D-06
 GradGradGradGradGradGradGradGradGradGradGradGradGradGradGradGradGradGrad

 Leave Link  103 at Sat Jun 15 16:37:52 2024, MaxMem=   104857600 cpu:               1.6 elap:               0.9
 (Enter /mlatom/software/Gaussian/g16-avx2/l202.exe)
                          Input orientation:                          
 ---------------------------------------------------------------------
 Center     Atomic      Atomic             Coordinates (Angstroms)
 Number     Number       Type             X           Y           Z
 ---------------------------------------------------------------------
      1          6           0        0.529082   -0.372946    0.007534
      2          6           0       -0.628408   -1.087230   -0.636045
      3          1           0        0.439638   -0.456623    1.102041
      4          1           0        0.514767    0.700820   -0.211784
      5          1           0       -1.447815   -0.509984   -1.050217
      6          6           0       -0.627060   -2.430061   -0.645267
      7          6           0        0.525830   -3.152223   -0.001432
      8          1           0       -1.444829   -3.003814   -1.068051
      9          1           0        0.513952   -4.223352   -0.233960
     10          1           0        0.421869   -3.081761    1.092562
     11          6           0        1.875428   -0.989075   -0.428398
     12          6           0        1.881221   -2.534144   -0.408382
     13          1           0        2.679353   -0.587445    0.197162
     14          1           0        2.082387   -0.645567   -1.445418
     15          1           0        2.130886   -2.901503   -1.407200
     16          1           0        2.663782   -2.914198    0.257942
 ---------------------------------------------------------------------
                    Distance matrix (angstroms):
                    1          2          3          4          5
     1  C    0.000000
     2  C    1.504719   0.000000
     3  H    1.101338   2.135259   0.000000
     4  H    1.096028   2.164248   1.752556   0.000000
     5  H    2.246272   1.084518   2.863134   2.453720   0.000000
     6  C    2.448374   1.342863   2.843481   3.360668   2.127045
     7  C    2.779293   2.449325   2.913990   3.858796   3.460730
     8  H    3.460444   2.127549   3.840403   4.277560   2.493896
     9  H    3.858002   3.361833   3.997333   4.924222   4.278307
    10  H    2.920010   2.840654   2.625215   4.002232   3.834221
    11  C    1.543471   2.514349   2.165003   2.180382   3.414694
    12  C    2.583031   2.905792   2.945443   3.517221   3.948627
    13  H    2.169248   3.447507   2.419141   2.551920   4.312246
    14  H    2.144330   2.863313   3.037083   2.406667   3.554841
    15  H    3.310718   3.391161   3.890250   4.125239   4.319016
    16  H    3.328305   3.869824   3.420380   4.231698   4.939307
                    6          7          8          9         10
     6  C    0.000000
     7  C    1.505057   0.000000
     8  H    1.084751   2.245707   0.000000
     9  H    2.164942   1.096143   2.453529   0.000000
    10  H    2.131903   1.101179   2.856376   1.752532   0.000000
    11  C    2.895846   2.585135   3.936043   3.514537   2.967404
    12  C    2.521591   1.544251   3.423209   2.180199   2.163891
    13  H    3.877794   3.354874   4.944540   4.253780   3.481319
    14  H    3.341522   3.285010   4.259694   4.090008   3.890206
    15  H    2.899839   2.148313   3.593219   2.395465   3.033487
    16  H    3.446711   2.166741   4.318214   2.564687   2.398091
                   11         12         13         14         15
    11  C    0.000000
    12  C    1.545210   0.000000
    13  H    1.094955   2.189369   0.000000
    14  H    1.093234   2.163940   1.748661   0.000000
    15  H    2.163491   1.093125   2.868738   2.256782   0.000000
    16  H    2.190585   1.095824   2.327599   2.895884   1.748381
                   16
    16  H    0.000000
 Stoichiometry    C6H10
 Framework group  C1[X(C6H10)]
 Deg. of freedom    42
 Full point group                 C1      NOp   1
 RotChk:  IX=0 Diff= 7.55D-02
 Largest Abelian subgroup         C1      NOp   1
 Largest concise Abelian subgroup C1      NOp   1
                         Standard orientation:                         
 ---------------------------------------------------------------------
 Center     Atomic      Atomic             Coordinates (Angstroms)
 Number     Number       Type             X           Y           Z
 ---------------------------------------------------------------------
      1          6           0        1.194840   -0.712477    0.352781
      2          6           0        1.291692    0.690061   -0.183585
      3          1           0        1.120207   -0.673183    1.450885
      4          1           0        2.099243   -1.292327    0.135742
      5          1           0        2.250754    1.066749   -0.521940
      6          6           0        0.184525    1.449912   -0.192999
      7          6           0       -1.093792    0.864405    0.343921
      8          1           0        0.194350    2.477559   -0.540173
      9          1           0       -1.958098    1.497914    0.113332
     10          1           0       -1.033158    0.828386    1.442839
     11          6           0       -0.049820   -1.436418   -0.203124
     12          6           0       -1.327694   -0.567891   -0.183840
     13          1           0       -0.204110   -2.370350    0.347232
     14          1           0        0.168757   -1.725062   -1.234662
     15          1           0       -1.720089   -0.490476   -1.201167
     16          1           0       -2.116360   -1.044754    0.408982
 ---------------------------------------------------------------------
 Rotational constants (GHZ):           4.6637375           4.5683778           2.6122602
 Leave Link  202 at Sat Jun 15 16:37:53 2024, MaxMem=   104857600 cpu:               0.2 elap:               0.4
 (Enter /mlatom/software/Gaussian/g16-avx2/l301.exe)
 Standard basis: STO-3G (5D, 7F)
 Ernie: Thresh=  0.10000D-02 Tol=  0.10000D-05 Strict=F.
 There are    40 symmetry adapted cartesian basis functions of A   symmetry.
 There are    40 symmetry adapted basis functions of A   symmetry.
    40 basis functions,   120 primitive gaussians,    40 cartesian basis functions
    23 alpha electrons       23 beta electrons
       nuclear repulsion energy       236.7269888913 Hartrees.
 IExCor=    0 DFT=F Ex=HF Corr=None ExCW=0 ScaHFX=  1.000000
 ScaDFX=  1.000000  1.000000  1.000000  1.000000 ScalE2=  1.000000  1.000000
 IRadAn=      5 IRanWt=     -1 IRanGd=            0 ICorTp=0 IEmpDi=  4
 NAtoms=   16 NActive=   16 NUniq=   16 SFac= 1.00D+00 NAtFMM=   60 NAOKFM=F Big=F
 Integral buffers will be    131072 words long.
 Raffenetti 1 integral format.
 Two-electron integral symmetry is turned on.
 Leave Link  301 at Sat Jun 15 16:37:54 2024, MaxMem=   104857600 cpu:               0.3 elap:               0.7
 (Enter /mlatom/software/Gaussian/g16-avx2/l402.exe)
 External calculation of energy and first derivatives.
 Running external command "/mlatom/software/miniconda3/bin/python /mlatom/software/mlatom/mlatom/interfaces/gaussian_interface.py model_predict_kwargs R"
         input file       "/mlatom/home/qhzhang/git/ts-analysis/calculations/C60/irc/pro_opt/da_ani_opt_1/Gau-212676.EIn"
         output file      "/mlatom/home/qhzhang/git/ts-analysis/calculations/C60/irc/pro_opt/da_ani_opt_1/Gau-212676.EOu"
         message file     "/mlatom/home/qhzhang/git/ts-analysis/calculations/C60/irc/pro_opt/da_ani_opt_1/Gau-212676.EMs"
         fchk file        "/mlatom/home/qhzhang/git/ts-analysis/calculations/C60/irc/pro_opt/da_ani_opt_1/Gau-212676.EFC"
         mat. el file     "/mlatom/home/qhzhang/git/ts-analysis/calculations/C60/irc/pro_opt/da_ani_opt_1/Gau-212676.EUF"
model loaded from /mlatom/home/qhzhang/git/ts-analysis/calculations/C60/irc/pro_opt/da_ani_opt_1/da_energy_iteration27.npz
 Recovered energy= -234.657673427     dipole=      0.000000000000      0.000000000000      0.000000000000
 Energy=    -234.657673     NIter=   0.
 Dipole moment=       0.000000       0.000000       0.000000
 Leave Link  402 at Sat Jun 15 16:37:58 2024, MaxMem=   104857600 cpu:              10.3 elap:               4.0
 (Enter /mlatom/software/Gaussian/g16-avx2/l716.exe)
 Dipole        = 0.00000000D+00 0.00000000D+00 0.00000000D+00
 ***** Axes restored to original set *****
 -------------------------------------------------------------------
 Center     Atomic                   Forces (Hartrees/Bohr)
 Number     Number              X              Y              Z
 -------------------------------------------------------------------
      1        6           0.000050425    0.000053240    0.000183592
      2        6           0.000123580   -0.000108784    0.000006624
      3        1           0.000016947    0.000000105   -0.000118995
      4        1           0.000001768   -0.000008935   -0.000009430
      5        1          -0.000032265   -0.000006249    0.000009277
      6        6          -0.000006803   -0.000052501   -0.000022689
      7        6          -0.000171641    0.000067934   -0.000141762
      8        1          -0.000019080    0.000036828    0.000065184
      9        1          -0.000031006    0.000041546   -0.000007578
     10        1           0.000002384    0.000026186    0.000002197
     11        6          -0.000163823   -0.000031531   -0.000139129
     12        6           0.000298693   -0.000000986    0.000297032
     13        1           0.000067086    0.000032434    0.000041276
     14        1          -0.000103967   -0.000082941    0.000088882
     15        1           0.000151147   -0.000060866   -0.000150057
     16        1          -0.000183444    0.000094521   -0.000104424
 -------------------------------------------------------------------
 Cartesian Forces:  Max     0.000298693 RMS     0.000102972
 Leave Link  716 at Sat Jun 15 16:37:59 2024, MaxMem=   104857600 cpu:               0.3 elap:               0.5
 (Enter /mlatom/software/Gaussian/g16-avx2/l103.exe)

 GradGradGradGradGradGradGradGradGradGradGradGradGradGradGradGradGradGrad
 Berny optimization.
 FormGI is forming the generalized inverse of G from B-inverse, IUseBI=4.
 Internal  Forces:  Max     0.000227280 RMS     0.000056190
 Search for a local minimum.
 Step number   4 out of a maximum of   99
 All quantities printed in internal units (Hartrees-Bohrs-Radians)
 Update second derivatives using D2CorX and points    1    2    3    4
 DE= -3.77D-06 DEPred=-1.94D-06 R= 1.94D+00
 TightC=F SS=  1.41D+00  RLast= 4.75D-02 DXNew= 5.0454D-01 1.4244D-01
 Trust test= 1.94D+00 RLast= 4.75D-02 DXMaxT set to 3.00D-01
 ITU=  1  1  1  0
     Eigenvalues ---    0.00001   0.00930   0.01231   0.01581   0.02000
     Eigenvalues ---    0.03028   0.03205   0.03759   0.04515   0.04763
     Eigenvalues ---    0.05125   0.05834   0.06303   0.07574   0.08445
     Eigenvalues ---    0.08560   0.09175   0.09407   0.10190   0.11806
     Eigenvalues ---    0.13360   0.15962   0.16082   0.19895   0.20631
     Eigenvalues ---    0.22461   0.26920   0.27229   0.28338   0.30135
     Eigenvalues ---    0.32570   0.33627   0.33812   0.34117   0.34193
     Eigenvalues ---    0.34245   0.34297   0.34680   0.35442   0.35544
     Eigenvalues ---    0.53736   1.26213
 Eigenvalue     1 is   1.35D-05 Eigenvector:
                          D42       D43       D39       D40       D41
   1                    0.25890   0.25485   0.25137   0.24731   0.24468
                          D38       D36       D37       D35       D9
   1                    0.23714   0.23193   0.22787   0.21770  -0.19681
 Angle between quadratic step and forces=  88.75 degrees.
 Quartic linear search produced a step of  2.00000.
 Iteration  1 RMS(Cart)=  0.01862534 RMS(Int)=  0.00019997
 Iteration  2 RMS(Cart)=  0.00023843 RMS(Int)=  0.00005519
 Iteration  3 RMS(Cart)=  0.00000001 RMS(Int)=  0.00005519
 ITry= 1 IFail=0 DXMaxC= 7.61D-02 DCOld= 1.00D+10 DXMaxT= 3.00D-01 DXLimC= 3.00D+00 Rises=F
 Variable       Old X    -DE/DX   Delta X   Delta X   Delta X     New X
                                 (Linear)    (Quad)   (Total)
    R1        2.84351  -0.00001   0.00038   0.00040   0.00079   2.84430
    R2        2.08123  -0.00012   0.00062   0.00038   0.00100   2.08223
    R3        2.07119  -0.00001   0.00009   0.00006   0.00015   2.07134
    R4        2.91674  -0.00008  -0.00061  -0.00069  -0.00133   2.91540
    R5        2.04944   0.00002  -0.00026  -0.00023  -0.00049   2.04895
    R6        2.53764  -0.00009   0.00020   0.00013   0.00037   2.53802
    R7        2.84415  -0.00011   0.00146   0.00116   0.00265   2.84679
    R8        2.04988  -0.00003   0.00008   0.00002   0.00009   2.04998
    R9        2.07141  -0.00004  -0.00002  -0.00010  -0.00013   2.07128
   R10        2.08093   0.00000  -0.00025  -0.00023  -0.00048   2.08045
   R11        2.91821   0.00013   0.00000   0.00025   0.00026   2.91847
   R12        2.92002  -0.00006   0.00045   0.00036   0.00077   2.92079
   R13        2.06916   0.00008  -0.00078  -0.00059  -0.00137   2.06779
   R14        2.06591  -0.00013  -0.00006  -0.00028  -0.00034   2.06557
   R15        2.06571   0.00019  -0.00016   0.00019   0.00003   2.06574
   R16        2.07081  -0.00023   0.00139   0.00093   0.00233   2.07313
    A1        1.90341   0.00001   0.00228   0.00232   0.00465   1.90806
    A2        1.94918   0.00000   0.00018  -0.00008   0.00015   1.94933
    A3        1.93982  -0.00001  -0.00324  -0.00290  -0.00631   1.93351
    A4        1.84651   0.00001  -0.00145  -0.00134  -0.00282   1.84370
    A5        1.89779  -0.00002   0.00111   0.00107   0.00220   1.89999
    A6        1.92405   0.00001   0.00130   0.00110   0.00247   1.92652
    A7        2.08504  -0.00001   0.00074   0.00053   0.00130   2.08634
    A8        2.06786   0.00005  -0.00092  -0.00044  -0.00145   2.06642
    A9        2.12985  -0.00004   0.00029  -0.00000   0.00032   2.13017
   A10        2.06877  -0.00006  -0.00097  -0.00095  -0.00198   2.06679
   A11        2.13038   0.00001   0.00115   0.00100   0.00218   2.13256
   A12        2.08336   0.00006  -0.00010  -0.00000  -0.00007   2.08329
   A13        1.94962  -0.00005   0.00065   0.00058   0.00127   1.95089
   A14        1.89860  -0.00004  -0.00079  -0.00110  -0.00187   1.89673
   A15        1.94717   0.00011   0.00058   0.00104   0.00152   1.94869
   A16        1.84653   0.00003   0.00020   0.00020   0.00038   1.84691
   A17        1.92274  -0.00000  -0.00036  -0.00020  -0.00052   1.92222
   A18        1.89553  -0.00005  -0.00033  -0.00063  -0.00095   1.89458
   A19        1.98096   0.00008  -0.00182  -0.00122  -0.00331   1.97765
   A20        1.90992  -0.00006   0.00285   0.00239   0.00533   1.91525
   A21        1.87806  -0.00000  -0.00158  -0.00156  -0.00307   1.87499
   A22        1.93544  -0.00001  -0.00070  -0.00089  -0.00151   1.93393
   A23        1.90236  -0.00005   0.00086   0.00072   0.00164   1.90400
   A24        1.85171   0.00004   0.00051   0.00065   0.00112   1.85283
   A25        1.98267  -0.00014   0.00010  -0.00011  -0.00024   1.98244
   A26        1.88257   0.00006   0.00063   0.00091   0.00161   1.88418
   A27        1.90471   0.00006  -0.00062  -0.00055  -0.00110   1.90361
   A28        1.90186   0.00002   0.00054   0.00052   0.00111   1.90297
   A29        1.93622   0.00003  -0.00017  -0.00017  -0.00026   1.93595
   A30        1.85036  -0.00003  -0.00050  -0.00059  -0.00112   1.84925
    D1        1.81378  -0.00001   0.00578   0.00387   0.00967   1.82345
    D2       -1.29684   0.00001   0.00207   0.00087   0.00293  -1.29391
    D3       -0.22074  -0.00002   0.00605   0.00413   0.01016  -0.21057
    D4        2.95183  -0.00000   0.00233   0.00113   0.00342   2.95525
    D5       -2.37738  -0.00003   0.00661   0.00490   0.01146  -2.36592
    D6        0.79519  -0.00001   0.00290   0.00189   0.00472   0.79991
    D7       -0.77666   0.00001  -0.01777  -0.01538  -0.03314  -0.80980
    D8       -2.94878   0.00001  -0.01772  -0.01517  -0.03285  -2.98164
    D9        1.32977  -0.00000  -0.01893  -0.01632  -0.03526   1.29451
   D10        1.31871   0.00000  -0.01624  -0.01361  -0.02987   1.28884
   D11       -0.85342  -0.00000  -0.01619  -0.01339  -0.02958  -0.88300
   D12       -2.85805  -0.00001  -0.01740  -0.01455  -0.03199  -2.89004
   D13       -2.94759   0.00001  -0.01663  -0.01400  -0.03062  -2.97821
   D14        1.16347   0.00000  -0.01658  -0.01379  -0.03034   1.13313
   D15       -0.84116  -0.00001  -0.01779  -0.01494  -0.03274  -0.87390
   D16        0.00891  -0.00003   0.00730   0.00645   0.01373   0.02264
   D17        3.11071  -0.00005   0.00972   0.00799   0.01773   3.12843
   D18       -3.10087  -0.00000   0.00347   0.00336   0.00679  -3.09408
   D19        0.00093  -0.00003   0.00590   0.00490   0.01079   0.01171
   D20       -2.95409  -0.00003  -0.00454  -0.00388  -0.00839  -2.96248
   D21        1.29726  -0.00001  -0.00467  -0.00378  -0.00844   1.28882
   D22       -0.79341   0.00001  -0.00410  -0.00294  -0.00699  -0.80039
   D23        0.22620  -0.00001  -0.00693  -0.00540  -0.01233   0.21388
   D24       -1.80563   0.00002  -0.00705  -0.00530  -0.01237  -1.81800
   D25        2.38688   0.00003  -0.00648  -0.00446  -0.01092   2.37596
   D26        0.72951  -0.00002  -0.01093  -0.01062  -0.02158   0.70794
   D27       -1.38052  -0.00001  -0.01212  -0.01184  -0.02396  -1.40448
   D28        2.89990  -0.00003  -0.01155  -0.01135  -0.02293   2.87696
   D29        2.90531  -0.00001  -0.00994  -0.00926  -0.01921   2.88610
   D30        0.79528   0.00001  -0.01113  -0.01048  -0.02160   0.77368
   D31       -1.20749  -0.00001  -0.01056  -0.00999  -0.02057  -1.22806
   D32       -1.36297  -0.00001  -0.01009  -0.00949  -0.01958  -1.38255
   D33        2.81019   0.00001  -0.01128  -0.01071  -0.02196   2.78822
   D34        0.80741  -0.00001  -0.01071  -0.01022  -0.02093   0.78648
   D35        0.03321   0.00006   0.02058   0.01881   0.03938   0.07259
   D36        2.13237   0.00006   0.02183   0.02025   0.04206   2.17442
   D37       -2.12005   0.00005   0.02145   0.01975   0.04121  -2.07884
   D38        2.19147   0.00003   0.02245   0.02036   0.04278   2.23425
   D39       -1.99255   0.00004   0.02369   0.02181   0.04546  -1.94709
   D40        0.03821   0.00003   0.02331   0.02130   0.04461   0.08283
   D41       -2.05946   0.00004   0.02317   0.02107   0.04426  -2.01520
   D42        0.03970   0.00005   0.02442   0.02251   0.04693   0.08664
   D43        2.07047   0.00004   0.02404   0.02201   0.04609   2.11655
         Item               Value     Threshold  Converged?
 Maximum Force            0.000227     0.000450     YES
 RMS     Force            0.000056     0.000300     YES
 Maximum Displacement     0.076132     0.001800     NO 
 RMS     Displacement     0.018650     0.001200     NO 
 Predicted change in Energy=-1.440285D-05
 GradGradGradGradGradGradGradGradGradGradGradGradGradGradGradGradGradGrad

 Leave Link  103 at Sat Jun 15 16:38:00 2024, MaxMem=   104857600 cpu:               1.9 elap:               1.0
 (Enter /mlatom/software/Gaussian/g16-avx2/l202.exe)
                          Input orientation:                          
 ---------------------------------------------------------------------
 Center     Atomic      Atomic             Coordinates (Angstroms)
 Number     Number       Type             X           Y           Z
 ---------------------------------------------------------------------
      1          6           0        0.531363   -0.375901    0.016912
      2          6           0       -0.628747   -1.083318   -0.630502
      3          1           0        0.451732   -0.471499    1.111734
      4          1           0        0.514492    0.700820   -0.187627
      5          1           0       -1.447096   -0.502658   -1.041303
      6          6           0       -0.625735   -2.426178   -0.653528
      7          6           0        0.523686   -3.151770   -0.004096
      8          1           0       -1.435700   -2.998394   -1.093207
      9          1           0        0.513577   -4.222327   -0.239017
     10          1           0        0.411359   -3.083277    1.088941
     11          6           0        1.870974   -0.988894   -0.441135
     12          6           0        1.883151   -2.533860   -0.398015
     13          1           0        2.689506   -0.576915    0.156874
     14          1           0        2.048134   -0.658493   -1.467884
     15          1           0        2.153385   -2.915927   -1.385920
     16          1           0        2.656002   -2.900517    0.288858
 ---------------------------------------------------------------------
                    Distance matrix (angstroms):
                    1          2          3          4          5
     1  C    0.000000
     2  C    1.505137   0.000000
     3  H    1.101870   2.139426   0.000000
     4  H    1.096106   2.164783   1.751174   0.000000
     5  H    2.247262   1.084260   2.870904   2.454577   0.000000
     6  C    2.447856   1.343060   2.845673   3.360848   2.127189
     7  C    2.775959   2.449281   2.904153   3.856970   3.460863
     8  H    3.461093   2.129033   3.848294   4.278727   2.496302
     9  H    3.854972   3.363263   3.987112   4.923415   4.280635
    10  H    2.914367   2.835161   2.612189   3.994953   3.827714
    11  C    1.542766   2.508661   2.166414   2.181615   3.406790
    12  C    2.579978   2.909940   2.929444   3.518615   3.953498
    13  H    2.171999   3.447783   2.435263   2.545972   4.307275
    14  H    2.141278   2.836790   3.039391   2.416371   3.524612
    15  H    3.324248   3.416046   3.887046   4.147618   4.348114
    16  H    3.310850   3.864842   3.381724   4.216957   4.935025
                    6          7          8          9         10
     6  C    0.000000
     7  C    1.506457   0.000000
     8  H    1.084800   2.246972   0.000000
     9  H    2.167026   1.096076   2.455063   0.000000
    10  H    2.131558   1.100926   2.860176   1.752529   0.000000
    11  C    2.888677   2.585386   3.923950   3.512615   2.976247
    12  C    2.524161   1.544387   3.422551   2.179892   2.163116
    13  H    3.881669   3.368467   4.944046   4.263851   3.512913
    14  H    3.307184   3.268493   4.213386   4.070121   3.885353
    15  H    2.915435   2.149646   3.601946   2.389777   3.031105
    16  H    3.447156   2.166961   4.319920   2.572123   2.389970
                   11         12         13         14         15
    11  C    0.000000
    12  C    1.545616   0.000000
    13  H    1.094229   2.188092   0.000000
    14  H    1.093053   2.165373   1.748671   0.000000
    15  H    2.164678   1.093140   2.852826   2.261372   0.000000
    16  H    2.191680   1.097055   2.327589   2.912441   1.748640
                   16
    16  H    0.000000
 Stoichiometry    C6H10
 Framework group  C1[X(C6H10)]
 Deg. of freedom    42
 Full point group                 C1      NOp   1
 RotChk:  IX=0 Diff= 1.09D-01
 Largest Abelian subgroup         C1      NOp   1
 Largest concise Abelian subgroup C1      NOp   1
                         Standard orientation:                         
 ---------------------------------------------------------------------
 Center     Atomic      Atomic             Coordinates (Angstroms)
 Number     Number       Type             X           Y           Z
 ---------------------------------------------------------------------
      1          6           0        1.131780   -0.802965    0.360458
      2          6           0        1.343252    0.586618   -0.177852
      3          1           0        1.045238   -0.759529    1.458064
      4          1           0        1.991927   -1.451306    0.157359
      5          1           0        2.330158    0.885655   -0.512834
      6          6           0        0.297504    1.429078   -0.199871
      7          6           0       -1.022729    0.947385    0.342687
      8          1           0        0.383501    2.447545   -0.563359
      9          1           0       -1.836348    1.644197    0.110611
     10          1           0       -0.961010    0.913260    1.441352
     11          6           0       -0.157099   -1.423550   -0.217290
     12          6           0       -1.369621   -0.466026   -0.174097
     13          1           0       -0.382123   -2.359371    0.303228
     14          1           0        0.047356   -1.694869   -1.256207
     15          1           0       -1.780089   -0.364917   -1.182189
     16          1           0       -2.177130   -0.883913    0.439767
 ---------------------------------------------------------------------
 Rotational constants (GHZ):           4.6653169           4.5683720           2.6164705
 Leave Link  202 at Sat Jun 15 16:38:00 2024, MaxMem=   104857600 cpu:               0.2 elap:               0.4
 (Enter /mlatom/software/Gaussian/g16-avx2/l301.exe)
 Standard basis: STO-3G (5D, 7F)
 Ernie: Thresh=  0.10000D-02 Tol=  0.10000D-05 Strict=F.
 There are    40 symmetry adapted cartesian basis functions of A   symmetry.
 There are    40 symmetry adapted basis functions of A   symmetry.
    40 basis functions,   120 primitive gaussians,    40 cartesian basis functions
    23 alpha electrons       23 beta electrons
       nuclear repulsion energy       236.7590743237 Hartrees.
 IExCor=    0 DFT=F Ex=HF Corr=None ExCW=0 ScaHFX=  1.000000
 ScaDFX=  1.000000  1.000000  1.000000  1.000000 ScalE2=  1.000000  1.000000
 IRadAn=      5 IRanWt=     -1 IRanGd=            0 ICorTp=0 IEmpDi=  4
 NAtoms=   16 NActive=   16 NUniq=   16 SFac= 1.00D+00 NAtFMM=   60 NAOKFM=F Big=F
 Integral buffers will be    131072 words long.
 Raffenetti 1 integral format.
 Two-electron integral symmetry is turned on.
 Leave Link  301 at Sat Jun 15 16:38:01 2024, MaxMem=   104857600 cpu:               0.3 elap:               0.5
 (Enter /mlatom/software/Gaussian/g16-avx2/l402.exe)
 External calculation of energy and first derivatives.
 Running external command "/mlatom/software/miniconda3/bin/python /mlatom/software/mlatom/mlatom/interfaces/gaussian_interface.py model_predict_kwargs R"
         input file       "/mlatom/home/qhzhang/git/ts-analysis/calculations/C60/irc/pro_opt/da_ani_opt_1/Gau-212676.EIn"
         output file      "/mlatom/home/qhzhang/git/ts-analysis/calculations/C60/irc/pro_opt/da_ani_opt_1/Gau-212676.EOu"
         message file     "/mlatom/home/qhzhang/git/ts-analysis/calculations/C60/irc/pro_opt/da_ani_opt_1/Gau-212676.EMs"
         fchk file        "/mlatom/home/qhzhang/git/ts-analysis/calculations/C60/irc/pro_opt/da_ani_opt_1/Gau-212676.EFC"
         mat. el file     "/mlatom/home/qhzhang/git/ts-analysis/calculations/C60/irc/pro_opt/da_ani_opt_1/Gau-212676.EUF"
model loaded from /mlatom/home/qhzhang/git/ts-analysis/calculations/C60/irc/pro_opt/da_ani_opt_1/da_energy_iteration27.npz
 Recovered energy= -234.657687419     dipole=      0.000000000000      0.000000000000      0.000000000000
 Energy=    -234.657687     NIter=   0.
 Dipole moment=       0.000000       0.000000       0.000000
 Leave Link  402 at Sat Jun 15 16:38:06 2024, MaxMem=   104857600 cpu:              11.4 elap:               4.4
 (Enter /mlatom/software/Gaussian/g16-avx2/l716.exe)
 Dipole        = 0.00000000D+00 0.00000000D+00 0.00000000D+00
 ***** Axes restored to original set *****
 -------------------------------------------------------------------
 Center     Atomic                   Forces (Hartrees/Bohr)
 Number     Number              X              Y              Z
 -------------------------------------------------------------------
      1        6          -0.000101148    0.000250133    0.000631846
      2        6           0.000388258   -0.000321923    0.000233357
      3        1          -0.000049441   -0.000112076   -0.000458399
      4        1           0.000064784   -0.000120759   -0.000194033
      5        1          -0.000137278    0.000062517   -0.000066893
      6        6           0.000585693   -0.000118448    0.000011508
      7        6          -0.000641873    0.000344669   -0.000581772
      8        1          -0.000237656    0.000075804    0.000354301
      9        1          -0.000088464    0.000023872   -0.000072450
     10        1          -0.000061298    0.000036789    0.000136503
     11        6          -0.000553202   -0.000362748   -0.000252891
     12        6           0.000999700    0.000017339    0.000663713
     13        1           0.000247150    0.000188517    0.000227117
     14        1          -0.000139123   -0.000183787    0.000048584
     15        1           0.000395360   -0.000031022   -0.000305661
     16        1          -0.000671463    0.000251126   -0.000374835
 -------------------------------------------------------------------
 Cartesian Forces:  Max     0.000999700 RMS     0.000341317
 Leave Link  716 at Sat Jun 15 16:38:06 2024, MaxMem=   104857600 cpu:               0.3 elap:               0.5
 (Enter /mlatom/software/Gaussian/g16-avx2/l103.exe)

 GradGradGradGradGradGradGradGradGradGradGradGradGradGradGradGradGradGrad
 Berny optimization.
 FormGI is forming the generalized inverse of G from B-inverse, IUseBI=4.
 Internal  Forces:  Max     0.000791648 RMS     0.000183992
 Search for a local minimum.
 Step number   5 out of a maximum of   99
 All quantities printed in internal units (Hartrees-Bohrs-Radians)
 Update second derivatives using D2CorX and points    1    2    3    4    5
 DE= -1.40D-05 DEPred=-1.44D-05 R= 9.71D-01
 TightC=F SS=  1.41D+00  RLast= 1.80D-01 DXNew= 5.0454D-01 5.3910D-01
 Trust test= 9.71D-01 RLast= 1.80D-01 DXMaxT set to 5.05D-01
 ITU=  1  1  1  1  0
     Eigenvalues ---    0.00002   0.00821   0.01183   0.01571   0.02015
     Eigenvalues ---    0.03034   0.03195   0.03716   0.04427   0.04737
     Eigenvalues ---    0.05087   0.05828   0.06215   0.07202   0.08361
     Eigenvalues ---    0.08573   0.09122   0.09434   0.10266   0.11834
     Eigenvalues ---    0.13664   0.15916   0.16062   0.18773   0.20710
     Eigenvalues ---    0.22300   0.26719   0.26891   0.28356   0.30030
     Eigenvalues ---    0.31958   0.33333   0.33675   0.33923   0.34120
     Eigenvalues ---    0.34201   0.34252   0.34498   0.35353   0.35488
     Eigenvalues ---    0.51904   0.88320
 Eigenvalue     1 is   1.92D-05 Eigenvector:
                          D42       D43       D39       D41       D40
   1                    0.25878   0.25484   0.25064   0.24731   0.24670
                          D38       D36       D37       D35       D9
   1                    0.23918   0.23456   0.23061   0.22309  -0.18700
 Angle between quadratic step and forces=  88.28 degrees.
 Quartic linear search produced a step of  0.62045.
 Iteration  1 RMS(Cart)=  0.05248156 RMS(Int)=  0.00160246
 Iteration  2 RMS(Cart)=  0.00190929 RMS(Int)=  0.00042975
 Iteration  3 RMS(Cart)=  0.00000081 RMS(Int)=  0.00042975
 ITry= 1 IFail=0 DXMaxC= 2.15D-01 DCOld= 1.00D+10 DXMaxT= 5.05D-01 DXLimC= 3.00D+00 Rises=F
 Variable       Old X    -DE/DX   Delta X   Delta X   Delta X     New X
                                 (Linear)    (Quad)   (Total)
    R1        2.84430  -0.00029   0.00049   0.00179   0.00238   2.84667
    R2        2.08223  -0.00044   0.00062   0.00100   0.00163   2.08386
    R3        2.07134  -0.00008   0.00009   0.00037   0.00046   2.07180
    R4        2.91540  -0.00012  -0.00083  -0.00304  -0.00408   2.91132
    R5        2.04895   0.00016  -0.00030  -0.00107  -0.00138   2.04758
    R6        2.53802  -0.00033   0.00023   0.00096   0.00152   2.53953
    R7        2.84679  -0.00061   0.00164   0.00600   0.00786   2.85465
    R8        2.04998  -0.00001   0.00006  -0.00056  -0.00051   2.04947
    R9        2.07128  -0.00001  -0.00008  -0.00124  -0.00132   2.06996
   R10        2.08045   0.00014  -0.00030  -0.00132  -0.00162   2.07883
   R11        2.91847   0.00039   0.00016   0.00193   0.00204   2.92051
   R12        2.92079  -0.00027   0.00048   0.00164   0.00179   2.92258
   R13        2.06779   0.00038  -0.00085  -0.00185  -0.00270   2.06509
   R14        2.06557  -0.00012  -0.00021  -0.00236  -0.00258   2.06299
   R15        2.06574   0.00038   0.00002   0.00245   0.00247   2.06821
   R16        2.07313  -0.00079   0.00144   0.00232   0.00376   2.07690
    A1        1.90806  -0.00011   0.00288   0.00861   0.01184   1.91989
    A2        1.94933   0.00001   0.00009   0.00089   0.00135   1.95069
    A3        1.93351   0.00006  -0.00391  -0.01277  -0.01779   1.91572
    A4        1.84370   0.00012  -0.00175  -0.00493  -0.00686   1.83684
    A5        1.89999  -0.00002   0.00137   0.00444   0.00593   1.90592
    A6        1.92652  -0.00005   0.00153   0.00449   0.00656   1.93308
    A7        2.08634   0.00001   0.00080   0.00145   0.00241   2.08875
    A8        2.06642   0.00004  -0.00090  -0.00092  -0.00240   2.06402
    A9        2.13017  -0.00005   0.00020  -0.00010   0.00025   2.13042
   A10        2.06679  -0.00002  -0.00123  -0.00237  -0.00395   2.06283
   A11        2.13256  -0.00008   0.00135   0.00269   0.00418   2.13674
   A12        2.08329   0.00009  -0.00004   0.00004   0.00013   2.08342
   A13        1.95089  -0.00015   0.00079   0.00173   0.00277   1.95366
   A14        1.89673  -0.00016  -0.00116  -0.00413  -0.00502   1.89172
   A15        1.94869   0.00033   0.00095   0.00804   0.00809   1.95679
   A16        1.84691   0.00007   0.00024  -0.00017  -0.00005   1.84686
   A17        1.92222   0.00002  -0.00032  -0.00086  -0.00076   1.92146
   A18        1.89458  -0.00013  -0.00059  -0.00540  -0.00593   1.88865
   A19        1.97765   0.00021  -0.00205  -0.00420  -0.00831   1.96934
   A20        1.91525  -0.00020   0.00331   0.00767   0.01169   1.92694
   A21        1.87499   0.00005  -0.00190  -0.00558  -0.00694   1.86805
   A22        1.93393   0.00004  -0.00094  -0.00221  -0.00247   1.93146
   A23        1.90400  -0.00019   0.00102   0.00170   0.00320   1.90720
   A24        1.85283   0.00009   0.00069   0.00294   0.00335   1.85618
   A25        1.98244  -0.00041  -0.00015  -0.00070  -0.00272   1.97971
   A26        1.88418   0.00030   0.00100   0.00126   0.00286   1.88704
   A27        1.90361   0.00006  -0.00068   0.00008  -0.00004   1.90357
   A28        1.90297  -0.00003   0.00069   0.00321   0.00443   1.90740
   A29        1.93595   0.00019  -0.00016  -0.00179  -0.00138   1.93457
   A30        1.84925  -0.00008  -0.00069  -0.00207  -0.00305   1.84620
    D1        1.82345  -0.00004   0.00600   0.01999   0.02614   1.84959
    D2       -1.29391   0.00000   0.00182   0.00066   0.00237  -1.29154
    D3       -0.21057  -0.00012   0.00631   0.02019   0.02639  -0.18418
    D4        2.95525  -0.00008   0.00212   0.00086   0.00263   2.95788
    D5       -2.36592  -0.00010   0.00711   0.02304   0.02982  -2.33610
    D6        0.79991  -0.00006   0.00293   0.00371   0.00605   0.80596
    D7       -0.80980   0.00010  -0.02056  -0.06798  -0.08839  -0.89819
    D8       -2.98164   0.00005  -0.02038  -0.06790  -0.08801  -3.06965
    D9        1.29451   0.00002  -0.02187  -0.07228  -0.09416   1.20035
   D10        1.28884  -0.00001  -0.01853  -0.06240  -0.08106   1.20778
   D11       -0.88300  -0.00007  -0.01836  -0.06232  -0.08067  -0.96368
   D12       -2.89004  -0.00009  -0.01985  -0.06670  -0.08683  -2.97687
   D13       -2.97821   0.00009  -0.01900  -0.06328  -0.08221  -3.06042
   D14        1.13313   0.00003  -0.01882  -0.06320  -0.08183   1.05131
   D15       -0.87390   0.00001  -0.02032  -0.06758  -0.08798  -0.96188
   D16        0.02264  -0.00011   0.00852   0.02719   0.03565   0.05829
   D17        3.12843  -0.00021   0.01100   0.03920   0.05041  -3.10434
   D18       -3.09408  -0.00007   0.00422   0.00732   0.01125  -3.08283
   D19        0.01171  -0.00018   0.00669   0.01934   0.02602   0.03773
   D20       -2.96248  -0.00007  -0.00521  -0.00957  -0.01448  -2.97696
   D21        1.28882   0.00003  -0.00524  -0.00782  -0.01292   1.27590
   D22       -0.80039   0.00009  -0.00434  -0.00340  -0.00726  -0.80765
   D23        0.21388   0.00003  -0.00765  -0.02129  -0.02887   0.18500
   D24       -1.81800   0.00013  -0.00768  -0.01954  -0.02732  -1.84532
   D25        2.37596   0.00019  -0.00678  -0.01512  -0.02165   2.35431
   D26        0.70794  -0.00011  -0.01339  -0.06008  -0.07355   0.63439
   D27       -1.40448  -0.00002  -0.01487  -0.06459  -0.07942  -1.48390
   D28        2.87696  -0.00011  -0.01423  -0.06286  -0.07732   2.79964
   D29        2.88610  -0.00005  -0.01192  -0.05267  -0.06460   2.82149
   D30        0.77368   0.00004  -0.01340  -0.05718  -0.07048   0.70321
   D31       -1.22806  -0.00005  -0.01276  -0.05544  -0.06838  -1.29644
   D32       -1.38255  -0.00003  -0.01215  -0.05640  -0.06841  -1.45096
   D33        2.78822   0.00006  -0.01363  -0.06090  -0.07429   2.71394
   D34        0.78648  -0.00003  -0.01299  -0.05917  -0.07219   0.71429
   D35        0.07259   0.00007   0.02443   0.09149   0.11579   0.18838
   D36        2.17442   0.00016   0.02609   0.09491   0.12078   2.29521
   D37       -2.07884   0.00015   0.02557   0.09328   0.11892  -1.95992
   D38        2.23425  -0.00001   0.02655   0.09676   0.12310   2.35735
   D39       -1.94709   0.00008   0.02821   0.10018   0.12809  -1.81900
   D40        0.08283   0.00008   0.02768   0.09855   0.12623   0.20906
   D41       -2.01520   0.00001   0.02746   0.10007   0.12765  -1.88755
   D42        0.08664   0.00009   0.02912   0.10349   0.13264   0.21928
   D43        2.11655   0.00009   0.02859   0.10187   0.13079   2.24734
         Item               Value     Threshold  Converged?
 Maximum Force            0.000792     0.000450     NO 
 RMS     Force            0.000184     0.000300     YES
 Maximum Displacement     0.214777     0.001800     NO 
 RMS     Displacement     0.052628     0.001200     NO 
 Predicted change in Energy=-4.236565D-05
 GradGradGradGradGradGradGradGradGradGradGradGradGradGradGradGradGradGrad

 Leave Link  103 at Sat Jun 15 16:38:07 2024, MaxMem=   104857600 cpu:               1.7 elap:               0.9
 (Enter /mlatom/software/Gaussian/g16-avx2/l202.exe)
                          Input orientation:                          
 ---------------------------------------------------------------------
 Center     Atomic      Atomic             Coordinates (Angstroms)
 Number     Number       Type             X           Y           Z
 ---------------------------------------------------------------------
      1          6           0        0.538935   -0.382036    0.040647
      2          6           0       -0.630734   -1.072095   -0.611211
      3          1           0        0.487506   -0.505458    1.135242
      4          1           0        0.517920    0.700967   -0.128615
      5          1           0       -1.445796   -0.481999   -1.013083
      6          6           0       -0.623955   -2.414536   -0.672641
      7          6           0        0.518728   -3.153197   -0.016429
      8          1           0       -1.414008   -2.978553   -1.156286
      9          1           0        0.513817   -4.219674   -0.266339
     10          1           0        0.385386   -3.100196    1.074243
     11          6           0        1.856675   -0.990020   -0.476443
     12          6           0        1.890096   -2.532280   -0.366105
     13          1           0        2.710166   -0.547622    0.043219
     14          1           0        1.952105   -0.701603   -1.525010
     15          1           0        2.222431   -2.955741   -1.319021
     16          1           0        2.630810   -2.855064    0.378919
 ---------------------------------------------------------------------
                    Distance matrix (angstroms):
                    1          2          3          4          5
     1  C    0.000000
     2  C    1.506395   0.000000
     3  H    1.102731   2.149799   0.000000
     4  H    1.096351   2.167038   1.747489   0.000000
     5  H    2.249333   1.083532   2.890244   2.457208   0.000000
     6  C    2.447887   1.343863   2.854534   3.362470   2.127446
     7  C    2.771823   2.450717   2.887532   3.855797   3.462366
     8  H    3.462446   2.131949   3.870795   4.281041   2.500860
     9  H    3.849979   3.366925   3.969952   4.922570   4.285782
    10  H    2.912094   2.826030   2.597463   3.989144   3.816427
    11  C    1.540606   2.492409   2.169551   2.184648   3.384137
    12  C    2.571893   2.923491   2.886054   3.520392   3.968679
    13  H    2.177538   3.444556   2.476794   2.528724   4.288602
    14  H    2.133180   2.764661   3.043101   2.444179   3.443259
    15  H    3.362561   3.491370   3.877790   4.206416   4.434962
    16  H    3.256722   3.846687   3.269010   4.167403   4.918112
                    6          7          8          9         10
     6  C    0.000000
     7  C    1.510616   0.000000
     8  H    1.084532   2.250610   0.000000
     9  H    2.172125   1.095377   2.459450   0.000000
    10  H    2.130845   1.100070   2.868427   1.751253   0.000000
    11  C    2.867275   2.584773   3.887649   3.504009   3.003691
    12  C    2.535406   1.545465   3.426463   2.179770   2.159000
    13  H    3.887697   3.405140   4.935286   4.289958   3.603226
    14  H    3.208857   3.215697   4.080585   4.003717   3.868329
    15  H    2.968606   2.153680   3.640150   2.371714   3.020482
    16  H    3.448672   2.169348   4.328124   2.600034   2.363364
                   11         12         13         14         15
    11  C    0.000000
    12  C    1.546564   0.000000
    13  H    1.092800   2.186076   0.000000
    14  H    1.091689   2.167554   1.748631   0.000000
    15  H    2.169741   1.094448   2.809381   2.279616   0.000000
    16  H    2.193016   1.099048   2.333083   2.953469   1.749260
                   16
    16  H    0.000000
 Stoichiometry    C6H10
 Framework group  C1[X(C6H10)]
 Deg. of freedom    42
 Full point group                 C1      NOp   1
 RotChk:  IX=0 Diff= 4.26D-02
 Largest Abelian subgroup         C1      NOp   1
 Largest concise Abelian subgroup C1      NOp   1
                         Standard orientation:                         
 ---------------------------------------------------------------------
 Center     Atomic      Atomic             Coordinates (Angstroms)
 Number     Number       Type             X           Y           Z
 ---------------------------------------------------------------------
      1          6           0        1.095046   -0.840358    0.378652
      2          6           0        1.367126    0.540397   -0.158668
      3          1           0        0.971361   -0.801348    1.473730
      4          1           0        1.940684   -1.516940    0.208005
      5          1           0        2.366763    0.801698   -0.484995
      6          6           0        0.347096    1.413489   -0.215399
      7          6           0       -0.992435    0.982674    0.334162
      8          1           0        0.459041    2.413022   -0.621122
      9          1           0       -1.784468    1.698798    0.089823
     10          1           0       -0.928849    0.969048    1.432308
     11          6           0       -0.190882   -1.402561   -0.256786
     12          6           0       -1.389824   -0.432134   -0.144230
     13          1           0       -0.438370   -2.373517    0.179339
     14          1           0        0.026881   -1.585578   -1.310763
     15          1           0       -1.871636   -0.337862   -1.122384
     16          1           0       -2.158169   -0.836366    0.529676
 ---------------------------------------------------------------------
 Rotational constants (GHZ):           4.6720278           4.5632191           2.6252505
 Leave Link  202 at Sat Jun 15 16:38:08 2024, MaxMem=   104857600 cpu:               0.2 elap:               0.4
 (Enter /mlatom/software/Gaussian/g16-avx2/l301.exe)
 Standard basis: STO-3G (5D, 7F)
 Ernie: Thresh=  0.10000D-02 Tol=  0.10000D-05 Strict=F.
 There are    40 symmetry adapted cartesian basis functions of A   symmetry.
 There are    40 symmetry adapted basis functions of A   symmetry.
    40 basis functions,   120 primitive gaussians,    40 cartesian basis functions
    23 alpha electrons       23 beta electrons
       nuclear repulsion energy       236.8093081832 Hartrees.
 IExCor=    0 DFT=F Ex=HF Corr=None ExCW=0 ScaHFX=  1.000000
 ScaDFX=  1.000000  1.000000  1.000000  1.000000 ScalE2=  1.000000  1.000000
 IRadAn=      5 IRanWt=     -1 IRanGd=            0 ICorTp=0 IEmpDi=  4
 NAtoms=   16 NActive=   16 NUniq=   16 SFac= 1.00D+00 NAtFMM=   60 NAOKFM=F Big=F
 Integral buffers will be    131072 words long.
 Raffenetti 1 integral format.
 Two-electron integral symmetry is turned on.
 Leave Link  301 at Sat Jun 15 16:38:09 2024, MaxMem=   104857600 cpu:               0.4 elap:               0.5
 (Enter /mlatom/software/Gaussian/g16-avx2/l402.exe)
 External calculation of energy and first derivatives.
 Running external command "/mlatom/software/miniconda3/bin/python /mlatom/software/mlatom/mlatom/interfaces/gaussian_interface.py model_predict_kwargs R"
         input file       "/mlatom/home/qhzhang/git/ts-analysis/calculations/C60/irc/pro_opt/da_ani_opt_1/Gau-212676.EIn"
         output file      "/mlatom/home/qhzhang/git/ts-analysis/calculations/C60/irc/pro_opt/da_ani_opt_1/Gau-212676.EOu"
         message file     "/mlatom/home/qhzhang/git/ts-analysis/calculations/C60/irc/pro_opt/da_ani_opt_1/Gau-212676.EMs"
         fchk file        "/mlatom/home/qhzhang/git/ts-analysis/calculations/C60/irc/pro_opt/da_ani_opt_1/Gau-212676.EFC"
         mat. el file     "/mlatom/home/qhzhang/git/ts-analysis/calculations/C60/irc/pro_opt/da_ani_opt_1/Gau-212676.EUF"
model loaded from /mlatom/home/qhzhang/git/ts-analysis/calculations/C60/irc/pro_opt/da_ani_opt_1/da_energy_iteration27.npz
 Recovered energy= -234.657688597     dipole=      0.000000000000      0.000000000000      0.000000000000
 Energy=    -234.657689     NIter=   0.
 Dipole moment=       0.000000       0.000000       0.000000
 Leave Link  402 at Sat Jun 15 16:38:14 2024, MaxMem=   104857600 cpu:              11.6 elap:               4.5
 (Enter /mlatom/software/Gaussian/g16-avx2/l716.exe)
 Dipole        = 0.00000000D+00 0.00000000D+00 0.00000000D+00
 ***** Axes restored to original set *****
 -------------------------------------------------------------------
 Center     Atomic                   Forces (Hartrees/Bohr)
 Number     Number              X              Y              Z
 -------------------------------------------------------------------
      1        6          -0.000529478    0.000668499    0.001736696
      2        6           0.001216474   -0.001425363    0.000539755
      3        1          -0.000329985   -0.000260820   -0.001204594
      4        1           0.000095343   -0.000528083   -0.000758675
      5        1          -0.000516084    0.000323809   -0.000194461
      6        6           0.002833565    0.000508726    0.000021158
      7        6          -0.001832929    0.001110516   -0.001148072
      8        1          -0.001019367   -0.000106213    0.001200280
      9        1          -0.000242193   -0.000268283   -0.000279819
     10        1          -0.000402569    0.000102960    0.000573876
     11        6          -0.001192080   -0.001474503    0.000595570
     12        6           0.001902210    0.000529178    0.000221228
     13        1           0.000576876    0.000058661    0.000351034
     14        1          -0.000121434    0.000026841   -0.000721263
     15        1           0.001086007    0.000506717   -0.000234896
     16        1          -0.001524361    0.000227357   -0.000697815
 -------------------------------------------------------------------
 Cartesian Forces:  Max     0.002833565 RMS     0.000925271
 Leave Link  716 at Sat Jun 15 16:38:14 2024, MaxMem=   104857600 cpu:               0.3 elap:               0.5
 (Enter /mlatom/software/Gaussian/g16-avx2/l103.exe)

 GradGradGradGradGradGradGradGradGradGradGradGradGradGradGradGradGradGrad
 Berny optimization.
 FormGI is forming the generalized inverse of G from B-inverse, IUseBI=4.
 Internal  Forces:  Max     0.002127795 RMS     0.000521230
 Search for a local minimum.
 Step number   6 out of a maximum of   99
 All quantities printed in internal units (Hartrees-Bohrs-Radians)
 Update second derivatives using D2CorX and points    5    6
 DE= -1.18D-06 DEPred=-4.24D-05 R= 2.78D-02
 Trust test= 2.78D-02 RLast= 5.14D-01 DXMaxT set to 2.52D-01
 ITU= -1  1  1  1  1  0
     Eigenvalues ---    0.00037   0.00752   0.01164   0.01568   0.02004
     Eigenvalues ---    0.03035   0.03331   0.03613   0.04350   0.04722
     Eigenvalues ---    0.05126   0.05763   0.06235   0.06788   0.08279
     Eigenvalues ---    0.08572   0.09011   0.09490   0.10264   0.11903
     Eigenvalues ---    0.13793   0.15711   0.16046   0.16991   0.20765
     Eigenvalues ---    0.21978   0.25937   0.26854   0.28285   0.29743
     Eigenvalues ---    0.30738   0.33165   0.33673   0.33910   0.34139
     Eigenvalues ---    0.34198   0.34252   0.34606   0.35348   0.35484
     Eigenvalues ---    0.50605   0.81999
 Angle between quadratic step and forces=  85.68 degrees.
 Quartic linear search produced a step of -0.43517.
 Iteration  1 RMS(Cart)=  0.01186381 RMS(Int)=  0.00017427
 Iteration  2 RMS(Cart)=  0.00009315 RMS(Int)=  0.00015742
 Iteration  3 RMS(Cart)=  0.00000000 RMS(Int)=  0.00015742
 ITry= 1 IFail=0 DXMaxC= 4.97D-02 DCOld= 1.00D+10 DXMaxT= 2.52D-01 DXLimC= 3.00D+00 Rises=F
 Variable       Old X    -DE/DX   Delta X   Delta X   Delta X     New X
                                 (Linear)    (Quad)   (Total)
    R1        2.84667  -0.00112  -0.00103   0.00088  -0.00019   2.84648
    R2        2.08386  -0.00115  -0.00071  -0.00076  -0.00147   2.08239
    R3        2.07180  -0.00041  -0.00020  -0.00007  -0.00027   2.07154
    R4        2.91132  -0.00012   0.00178  -0.00099   0.00085   2.91218
    R5        2.04758   0.00064   0.00060  -0.00019   0.00041   2.04799
    R6        2.53953  -0.00142  -0.00066   0.00022  -0.00056   2.53897
    R7        2.85465  -0.00213  -0.00342   0.00156  -0.00193   2.85272
    R8        2.04947   0.00026   0.00022  -0.00063  -0.00041   2.04906
    R9        2.06996   0.00033   0.00057  -0.00101  -0.00043   2.06953
   R10        2.07883   0.00062   0.00070  -0.00052   0.00018   2.07901
   R11        2.92051   0.00101  -0.00089   0.00196   0.00110   2.92160
   R12        2.92258  -0.00120  -0.00078  -0.00038  -0.00104   2.92155
   R13        2.06509   0.00064   0.00117  -0.00029   0.00088   2.06597
   R14        2.06299   0.00069   0.00112  -0.00119  -0.00007   2.06292
   R15        2.06821   0.00034  -0.00107   0.00255   0.00148   2.06968
   R16        2.07690  -0.00157  -0.00164  -0.00098  -0.00261   2.07429
    A1        1.91989  -0.00047  -0.00515   0.00235  -0.00292   1.91697
    A2        1.95069   0.00003  -0.00059  -0.00012  -0.00084   1.94985
    A3        1.91572   0.00014   0.00774  -0.00419   0.00394   1.91966
    A4        1.83684   0.00037   0.00298  -0.00113   0.00192   1.83875
    A5        1.90592   0.00012  -0.00258   0.00243  -0.00019   1.90573
    A6        1.93308  -0.00019  -0.00286   0.00097  -0.00208   1.93100
    A7        2.08875   0.00005  -0.00105  -0.00063  -0.00172   2.08703
    A8        2.06402  -0.00006   0.00104   0.00114   0.00237   2.06639
    A9        2.13042   0.00000  -0.00011  -0.00051  -0.00067   2.12976
   A10        2.06283   0.00038   0.00172   0.00010   0.00193   2.06476
   A11        2.13674  -0.00029  -0.00182  -0.00015  -0.00201   2.13474
   A12        2.08342  -0.00010  -0.00006   0.00010   0.00001   2.08343
   A13        1.95366  -0.00037  -0.00121  -0.00011  -0.00141   1.95225
   A14        1.89172  -0.00035   0.00218  -0.00121   0.00086   1.89258
   A15        1.95679   0.00051  -0.00352   0.00476   0.00157   1.95836
   A16        1.84686   0.00011   0.00002  -0.00079  -0.00073   1.84613
   A17        1.92146   0.00022   0.00033   0.00078   0.00095   1.92241
   A18        1.88865  -0.00015   0.00258  -0.00397  -0.00140   1.88725
   A19        1.96934   0.00042   0.00362   0.00048   0.00485   1.97420
   A20        1.92694  -0.00020  -0.00509   0.00127  -0.00407   1.92287
   A21        1.86805   0.00005   0.00302  -0.00123   0.00158   1.86963
   A22        1.93146  -0.00009   0.00107  -0.00128  -0.00046   1.93101
   A23        1.90720  -0.00035  -0.00139   0.00032  -0.00126   1.90595
   A24        1.85618   0.00015  -0.00146   0.00044  -0.00091   1.85527
   A25        1.97971  -0.00090   0.00118  -0.00149   0.00039   1.98010
   A26        1.88704   0.00112  -0.00124   0.00161   0.00014   1.88718
   A27        1.90357  -0.00022   0.00002   0.00096   0.00077   1.90434
   A28        1.90740  -0.00036  -0.00193   0.00198  -0.00015   1.90725
   A29        1.93457   0.00060   0.00060  -0.00165  -0.00125   1.93332
   A30        1.84620  -0.00018   0.00133  -0.00132   0.00011   1.84631
    D1        1.84959  -0.00018  -0.01137   0.00254  -0.00888   1.84071
    D2       -1.29154   0.00001  -0.00103  -0.00322  -0.00421  -1.29574
    D3       -0.18418  -0.00037  -0.01148   0.00254  -0.00891  -0.19309
    D4        2.95788  -0.00018  -0.00114  -0.00322  -0.00423   2.95364
    D5       -2.33610  -0.00025  -0.01298   0.00438  -0.00847  -2.34457
    D6        0.80596  -0.00005  -0.00263  -0.00138  -0.00380   0.80216
    D7       -0.89819   0.00034   0.03847  -0.01726   0.02116  -0.87703
    D8       -3.06965   0.00030   0.03830  -0.01690   0.02130  -3.04835
    D9        1.20035   0.00019   0.04098  -0.01739   0.02359   1.22394
   D10        1.20778  -0.00008   0.03527  -0.01544   0.01988   1.22767
   D11       -0.96368  -0.00012   0.03511  -0.01508   0.02002  -0.94365
   D12       -2.97687  -0.00023   0.03778  -0.01557   0.02231  -2.95455
   D13       -3.06042   0.00033   0.03577  -0.01484   0.02091  -3.03951
   D14        1.05131   0.00029   0.03561  -0.01448   0.02105   1.07236
   D15       -0.96188   0.00018   0.03829  -0.01497   0.02334  -0.93854
   D16        0.05829  -0.00032  -0.01551   0.00440  -0.01109   0.04720
   D17       -3.10434  -0.00076  -0.02194   0.00730  -0.01472  -3.11906
   D18       -3.08283  -0.00012  -0.00490  -0.00150  -0.00630  -3.08912
   D19        0.03773  -0.00056  -0.01132   0.00140  -0.00993   0.02781
   D20       -2.97696  -0.00018   0.00630   0.00193   0.00811  -2.96885
   D21        1.27590   0.00010   0.00562   0.00371   0.00927   1.28517
   D22       -0.80765   0.00021   0.00316   0.00651   0.00948  -0.79817
   D23        0.18500   0.00024   0.01256  -0.00087   0.01166   0.19667
   D24       -1.84532   0.00053   0.01189   0.00090   0.01282  -1.83250
   D25        2.35431   0.00063   0.00942   0.00371   0.01303   2.36734
   D26        0.63439  -0.00017   0.03200  -0.02380   0.00821   0.64260
   D27       -1.48390   0.00008   0.03456  -0.02649   0.00805  -1.47585
   D28        2.79964  -0.00019   0.03365  -0.02628   0.00744   2.80708
   D29        2.82149  -0.00012   0.02811  -0.01986   0.00824   2.82974
   D30        0.70321   0.00013   0.03067  -0.02255   0.00808   0.71129
   D31       -1.29644  -0.00014   0.02976  -0.02234   0.00747  -1.28896
   D32       -1.45096   0.00005   0.02977  -0.02261   0.00710  -1.44386
   D33        2.71394   0.00030   0.03233  -0.02530   0.00694   2.72088
   D34        0.71429   0.00003   0.03141  -0.02509   0.00633   0.72062
   D35        0.18838  -0.00015  -0.05039   0.02895  -0.02141   0.16697
   D36        2.29521   0.00042  -0.05256   0.03142  -0.02107   2.27413
   D37       -1.95992   0.00034  -0.05175   0.03004  -0.02175  -1.98167
   D38        2.35735  -0.00017  -0.05357   0.02999  -0.02351   2.33385
   D39       -1.81900   0.00041  -0.05574   0.03246  -0.02317  -1.84217
   D40        0.20906   0.00033  -0.05493   0.03109  -0.02385   0.18521
   D41       -1.88755  -0.00024  -0.05555   0.02997  -0.02563  -1.91318
   D42        0.21928   0.00034  -0.05772   0.03244  -0.02529   0.19399
   D43        2.24734   0.00026  -0.05691   0.03107  -0.02597   2.22137
         Item               Value     Threshold  Converged?
 Maximum Force            0.002128     0.000450     NO 
 RMS     Force            0.000521     0.000300     NO 
 Maximum Displacement     0.049709     0.001800     NO 
 RMS     Displacement     0.011859     0.001200     NO 
 Predicted change in Energy=-3.161602D-05
 GradGradGradGradGradGradGradGradGradGradGradGradGradGradGradGradGradGrad

 Leave Link  103 at Sat Jun 15 16:38:15 2024, MaxMem=   104857600 cpu:               1.6 elap:               1.0
 (Enter /mlatom/software/Gaussian/g16-avx2/l202.exe)
                          Input orientation:                          
 ---------------------------------------------------------------------
 Center     Atomic      Atomic             Coordinates (Angstroms)
 Number     Number       Type             X           Y           Z
 ---------------------------------------------------------------------
      1          6           0        0.537258   -0.378964    0.034642
      2          6           0       -0.631018   -1.074471   -0.613677
      3          1           0        0.479163   -0.491960    1.129246
      4          1           0        0.517595    0.701911   -0.147008
      5          1           0       -1.447060   -0.486321   -1.016998
      6          6           0       -0.626390   -2.416999   -0.666279
      7          6           0        0.519744   -3.154748   -0.017453
      8          1           0       -1.424204   -2.981378   -1.136071
      9          1           0        0.512843   -4.220663   -0.268702
     10          1           0        0.392758   -3.103935    1.074177
     11          6           0        1.859463   -0.990299   -0.468249
     12          6           0        1.890175   -2.533002   -0.371864
     13          1           0        2.705278   -0.553690    0.069524
     14          1           0        1.974139   -0.693431   -1.512481
     15          1           0        2.215079   -2.948850   -1.331569
     16          1           0        2.635260   -2.862308    0.363848
 ---------------------------------------------------------------------
                    Distance matrix (angstroms):
                    1          2          3          4          5
     1  C    0.000000
     2  C    1.506292   0.000000
     3  H    1.101953   2.146999   0.000000
     4  H    1.096210   2.166247   1.748036   0.000000
     5  H    2.248331   1.083749   2.883875   2.455331   0.000000
     6  C    2.449276   1.343566   2.855159   3.362432   2.126975
     7  C    2.776328   2.450978   2.899484   3.858836   3.462357
     8  H    3.462724   2.130337   3.866739   4.279655   2.498001
     9  H    3.853734   3.365406   3.982288   4.924081   4.283279
    10  H    2.920098   2.831200   2.613983   3.998917   3.822283
    11  C    1.541057   2.496144   2.169231   2.183434   3.389427
    12  C    2.575948   2.922705   2.900024   3.521250   3.967649
    13  H    2.175329   3.445120   2.466254   2.531675   4.292666
    14  H    2.134738   2.782065   3.042083   2.435779   3.463092
    15  H    3.359454   3.482662   3.886557   4.196748   4.424282
    16  H    3.267566   3.849740   3.294410   4.177217   4.921117
                    6          7          8          9         10
     6  C    0.000000
     7  C    1.509593   0.000000
     8  H    1.084313   2.249510   0.000000
     9  H    2.170052   1.095148   2.457704   0.000000
    10  H    2.130664   1.100165   2.863837   1.750664   0.000000
    11  C    2.873004   2.585132   3.897801   3.505490   2.999626
    12  C    2.536383   1.546046   3.430767   2.180800   2.158532
    13  H    3.887588   3.398475   4.939610   4.285775   3.586199
    14  H    3.232568   3.226214   4.114015   4.015438   3.873254
    15  H    2.966382   2.154868   3.644675   2.375880   3.022006
    16  H    3.449322   2.169406   4.329340   2.598057   2.364691
                   11         12         13         14         15
    11  C    0.000000
    12  C    1.546016   0.000000
    13  H    1.093266   2.185610   0.000000
    14  H    1.091651   2.166120   1.748380   0.000000
    15  H    2.169725   1.095228   2.817827   2.275456   0.000000
    16  H    2.190586   1.097664   2.328358   2.943081   1.748852
                   16
    16  H    0.000000
 Stoichiometry    C6H10
 Framework group  C1[X(C6H10)]
 Deg. of freedom    42
 Full point group                 C1      NOp   1
 RotChk:  IX=0 Diff= 7.65D-03
 Largest Abelian subgroup         C1      NOp   1
 Largest concise Abelian subgroup C1      NOp   1
                         Standard orientation:                         
 ---------------------------------------------------------------------
 Center     Atomic      Atomic             Coordinates (Angstroms)
 Number     Number       Type             X           Y           Z
 ---------------------------------------------------------------------
      1          6           0        1.094869   -0.846471    0.373046
      2          6           0        1.368726    0.534591   -0.162290
      3          1           0        0.984241   -0.807611    1.468743
      4          1           0        1.935037   -1.526414    0.190095
      5          1           0        2.368800    0.792406   -0.490766
      6          6           0        0.354132    1.414062   -0.210265
      7          6           0       -0.988485    0.988198    0.332773
      8          1           0        0.475132    2.417693   -0.602463
      9          1           0       -1.775053    1.709508    0.087067
     10          1           0       -0.930204    0.971829    1.431271
     11          6           0       -0.200645   -1.404625   -0.247409
     12          6           0       -1.392127   -0.424423   -0.148718
     13          1           0       -0.453438   -2.365593    0.208514
     14          1           0        0.009129   -1.610091   -1.298828
     15          1           0       -1.862996   -0.327407   -1.132789
     16          1           0       -2.169464   -0.822302    0.516343
 ---------------------------------------------------------------------
 Rotational constants (GHZ):           4.6683145           4.5620085           2.6191090
 Leave Link  202 at Sat Jun 15 16:38:16 2024, MaxMem=   104857600 cpu:               0.2 elap:               0.4
 (Enter /mlatom/software/Gaussian/g16-avx2/l301.exe)
 Standard basis: STO-3G (5D, 7F)
 Ernie: Thresh=  0.10000D-02 Tol=  0.10000D-05 Strict=F.
 There are    40 symmetry adapted cartesian basis functions of A   symmetry.
 There are    40 symmetry adapted basis functions of A   symmetry.
    40 basis functions,   120 primitive gaussians,    40 cartesian basis functions
    23 alpha electrons       23 beta electrons
       nuclear repulsion energy       236.7380137120 Hartrees.
 IExCor=    0 DFT=F Ex=HF Corr=None ExCW=0 ScaHFX=  1.000000
 ScaDFX=  1.000000  1.000000  1.000000  1.000000 ScalE2=  1.000000  1.000000
 IRadAn=      5 IRanWt=     -1 IRanGd=            0 ICorTp=0 IEmpDi=  4
 NAtoms=   16 NActive=   16 NUniq=   16 SFac= 1.00D+00 NAtFMM=   60 NAOKFM=F Big=F
 Integral buffers will be    131072 words long.
 Raffenetti 1 integral format.
 Two-electron integral symmetry is turned on.
 Leave Link  301 at Sat Jun 15 16:38:16 2024, MaxMem=   104857600 cpu:               0.3 elap:               0.5
 (Enter /mlatom/software/Gaussian/g16-avx2/l402.exe)
 External calculation of energy and first derivatives.
 Running external command "/mlatom/software/miniconda3/bin/python /mlatom/software/mlatom/mlatom/interfaces/gaussian_interface.py model_predict_kwargs R"
         input file       "/mlatom/home/qhzhang/git/ts-analysis/calculations/C60/irc/pro_opt/da_ani_opt_1/Gau-212676.EIn"
         output file      "/mlatom/home/qhzhang/git/ts-analysis/calculations/C60/irc/pro_opt/da_ani_opt_1/Gau-212676.EOu"
         message file     "/mlatom/home/qhzhang/git/ts-analysis/calculations/C60/irc/pro_opt/da_ani_opt_1/Gau-212676.EMs"
         fchk file        "/mlatom/home/qhzhang/git/ts-analysis/calculations/C60/irc/pro_opt/da_ani_opt_1/Gau-212676.EFC"
         mat. el file     "/mlatom/home/qhzhang/git/ts-analysis/calculations/C60/irc/pro_opt/da_ani_opt_1/Gau-212676.EUF"
model loaded from /mlatom/home/qhzhang/git/ts-analysis/calculations/C60/irc/pro_opt/da_ani_opt_1/da_energy_iteration27.npz
 Recovered energy= -234.657731020     dipole=      0.000000000000      0.000000000000      0.000000000000
 Energy=    -234.657731     NIter=   0.
 Dipole moment=       0.000000       0.000000       0.000000
 Leave Link  402 at Sat Jun 15 16:38:21 2024, MaxMem=   104857600 cpu:              10.8 elap:               4.2
 (Enter /mlatom/software/Gaussian/g16-avx2/l716.exe)
 Dipole        = 0.00000000D+00 0.00000000D+00 0.00000000D+00
 ***** Axes restored to original set *****
 -------------------------------------------------------------------
 Center     Atomic                   Forces (Hartrees/Bohr)
 Number     Number              X              Y              Z
 -------------------------------------------------------------------
      1        6          -0.000598128    0.000195026    0.001040962
      2        6           0.001013200   -0.000870864    0.000443204
      3        1          -0.000162920   -0.000356461   -0.000745441
      4        1           0.000116466   -0.000383386   -0.000580199
      5        1          -0.000491434    0.000219704   -0.000102369
      6        6           0.002768974    0.000595482   -0.000025114
      7        6          -0.001293437    0.001059268   -0.000621426
      8        1          -0.000931585   -0.000229794    0.000881382
      9        1          -0.000141298   -0.000435797   -0.000297560
     10        1          -0.000483444    0.000101298    0.000526091
     11        6          -0.000833550   -0.001008949    0.000506748
     12        6           0.001077880    0.000337867   -0.000564769
     13        1           0.000520545    0.000100556    0.000250488
     14        1          -0.000174368    0.000050259   -0.000744109
     15        1           0.000733277    0.000709631    0.000270158
     16        1          -0.001120180   -0.000083838   -0.000238046
 -------------------------------------------------------------------
 Cartesian Forces:  Max     0.002768974 RMS     0.000730519
 Leave Link  716 at Sat Jun 15 16:38:21 2024, MaxMem=   104857600 cpu:               0.3 elap:               0.5
 (Enter /mlatom/software/Gaussian/g16-avx2/l103.exe)

 GradGradGradGradGradGradGradGradGradGradGradGradGradGradGradGradGradGrad
 Berny optimization.
 FormGI is forming the generalized inverse of G from B-inverse, IUseBI=4.
 Internal  Forces:  Max     0.001837740 RMS     0.000415386
 Search for a local minimum.
 Step number   7 out of a maximum of   99
 All quantities printed in internal units (Hartrees-Bohrs-Radians)
 Update second derivatives using D2CorX and points    4    5    6    7
 DE= -4.24D-05 DEPred=-3.16D-05 R= 1.34D+00
 TightC=F SS=  1.41D+00  RLast= 1.06D-01 DXNew= 4.2426D-01 3.1881D-01
 Trust test= 1.34D+00 RLast= 1.06D-01 DXMaxT set to 3.19D-01
 ITU=  1 -1  1  1  1  1  0
     Eigenvalues ---    0.00023   0.00658   0.01182   0.01589   0.01904
     Eigenvalues ---    0.02638   0.03137   0.03586   0.04426   0.04733
     Eigenvalues ---    0.05111   0.05784   0.05907   0.07200   0.08305
     Eigenvalues ---    0.08477   0.09044   0.09509   0.10260   0.11479
     Eigenvalues ---    0.13053   0.15891   0.16041   0.18375   0.20543
     Eigenvalues ---    0.21972   0.26134   0.26858   0.28042   0.29929
     Eigenvalues ---    0.32460   0.32982   0.33662   0.33710   0.34121
     Eigenvalues ---    0.34206   0.34321   0.34453   0.35340   0.35499
     Eigenvalues ---    0.42222   0.55260
 Quadratic step=8.021D-01 exceeds max=3.188D-01 adjusted using Lamda=-3.577D-04.
 Angle between NR and scaled steps=   4.73 degrees.
 Angle between quadratic step and forces=  83.63 degrees.
 Quartic linear search produced a step of  0.74511.
 Iteration  1 RMS(Cart)=  0.02505032 RMS(Int)=  0.00041571
 Iteration  2 RMS(Cart)=  0.00046818 RMS(Int)=  0.00009994
 Iteration  3 RMS(Cart)=  0.00000005 RMS(Int)=  0.00009994
 ITry= 1 IFail=0 DXMaxC= 1.03D-01 DCOld= 1.00D+10 DXMaxT= 3.19D-01 DXLimC= 3.00D+00 Rises=F
 Variable       Old X    -DE/DX   Delta X   Delta X   Delta X     New X
                                 (Linear)    (Quad)   (Total)
    R1        2.84648  -0.00110  -0.00014   0.00075   0.00064   2.84712
    R2        2.08239  -0.00070  -0.00109  -0.00133  -0.00242   2.07997
    R3        2.07154  -0.00028  -0.00020  -0.00071  -0.00091   2.07063
    R4        2.91218  -0.00021   0.00064  -0.00242  -0.00176   2.91041
    R5        2.04799   0.00053   0.00031   0.00044   0.00074   2.04873
    R6        2.53897  -0.00115  -0.00042  -0.00105  -0.00142   2.53755
    R7        2.85272  -0.00184  -0.00144   0.00084  -0.00059   2.85213
    R8        2.04906   0.00042  -0.00031   0.00024  -0.00006   2.04899
    R9        2.06953   0.00049  -0.00032  -0.00058  -0.00091   2.06862
   R10        2.07901   0.00058   0.00013  -0.00019  -0.00005   2.07896
   R11        2.92160   0.00053   0.00082   0.00401   0.00477   2.92637
   R12        2.92155  -0.00090  -0.00077  -0.00282  -0.00364   2.91791
   R13        2.06597   0.00057   0.00066  -0.00167  -0.00102   2.06496
   R14        2.06292   0.00071  -0.00005   0.00084   0.00079   2.06371
   R15        2.06968  -0.00029   0.00110   0.00262   0.00372   2.07340
   R16        2.07429  -0.00089  -0.00195   0.00055  -0.00140   2.07289
    A1        1.91697  -0.00033  -0.00218   0.00536   0.00325   1.92022
    A2        1.94985  -0.00001  -0.00062  -0.00176  -0.00236   1.94749
    A3        1.91966   0.00021   0.00294  -0.01028  -0.00751   1.91215
    A4        1.83875   0.00035   0.00143  -0.00071   0.00069   1.83944
    A5        1.90573  -0.00002  -0.00014   0.00668   0.00653   1.91226
    A6        1.93100  -0.00021  -0.00155   0.00156   0.00008   1.93108
    A7        2.08703   0.00016  -0.00128  -0.00079  -0.00204   2.08499
    A8        2.06639  -0.00018   0.00177   0.00196   0.00365   2.07004
    A9        2.12976   0.00001  -0.00050  -0.00114  -0.00161   2.12815
   A10        2.06476   0.00042   0.00144   0.00134   0.00267   2.06743
   A11        2.13474  -0.00024  -0.00150   0.00040  -0.00108   2.13365
   A12        2.08343  -0.00019   0.00001  -0.00199  -0.00198   2.08146
   A13        1.95225  -0.00023  -0.00105   0.00070  -0.00034   1.95191
   A14        1.89258  -0.00031   0.00064  -0.00595  -0.00517   1.88741
   A15        1.95836   0.00023   0.00117   0.00864   0.00950   1.96786
   A16        1.84613   0.00007  -0.00054  -0.00024  -0.00082   1.84531
   A17        1.92241   0.00015   0.00070   0.00242   0.00326   1.92567
   A18        1.88725   0.00007  -0.00104  -0.00660  -0.00763   1.87962
   A19        1.97420   0.00010   0.00362   0.00059   0.00380   1.97800
   A20        1.92287  -0.00008  -0.00303   0.00807   0.00517   1.92804
   A21        1.86963   0.00008   0.00118  -0.00596  -0.00466   1.86497
   A22        1.93101  -0.00001  -0.00034  -0.00681  -0.00704   1.92397
   A23        1.90595  -0.00018  -0.00094   0.00233   0.00151   1.90745
   A24        1.85527   0.00010  -0.00068   0.00188   0.00114   1.85642
   A25        1.98010  -0.00053   0.00029  -0.00234  -0.00254   1.97757
   A26        1.88718   0.00090   0.00011   0.01149   0.01173   1.89892
   A27        1.90434  -0.00039   0.00057  -0.00561  -0.00489   1.89944
   A28        1.90725  -0.00041  -0.00011   0.00176   0.00179   1.90904
   A29        1.93332   0.00056  -0.00093  -0.00228  -0.00313   1.93019
   A30        1.84631  -0.00010   0.00008  -0.00269  -0.00266   1.84365
    D1        1.84071  -0.00007  -0.00662  -0.00324  -0.00984   1.83087
    D2       -1.29574   0.00009  -0.00313  -0.00957  -0.01276  -1.30850
    D3       -0.19309  -0.00029  -0.00664  -0.00465  -0.01129  -0.20438
    D4        2.95364  -0.00013  -0.00316  -0.01098  -0.01421   2.93943
    D5       -2.34457  -0.00017  -0.00631   0.00192  -0.00446  -2.34903
    D6        0.80216  -0.00001  -0.00283  -0.00440  -0.00738   0.79478
    D7       -0.87703   0.00019   0.01577  -0.04204  -0.02626  -0.90329
    D8       -3.04835   0.00019   0.01587  -0.03973  -0.02381  -3.07216
    D9        1.22394   0.00008   0.01758  -0.04281  -0.02523   1.19871
   D10        1.22767  -0.00009   0.01482  -0.03761  -0.02284   1.20483
   D11       -0.94365  -0.00009   0.01492  -0.03530  -0.02039  -0.96404
   D12       -2.95455  -0.00020   0.01663  -0.03838  -0.02181  -2.97636
   D13       -3.03951   0.00020   0.01558  -0.03370  -0.01812  -3.05763
   D14        1.07236   0.00021   0.01569  -0.03139  -0.01567   1.05669
   D15       -0.93854   0.00009   0.01739  -0.03447  -0.01710  -0.95564
   D16        0.04720  -0.00009  -0.00826   0.01519   0.00694   0.05414
   D17       -3.11906  -0.00053  -0.01097   0.00335  -0.00752  -3.12658
   D18       -3.08912   0.00007  -0.00469   0.00870   0.00395  -3.08518
   D19        0.02781  -0.00037  -0.00740  -0.00314  -0.01052   0.01729
   D20       -2.96885  -0.00015   0.00604   0.00018   0.00636  -2.96249
   D21        1.28517   0.00008   0.00691   0.00372   0.01070   1.29587
   D22       -0.79817   0.00006   0.00707   0.01054   0.01779  -0.78038
   D23        0.19667   0.00028   0.00869   0.01164   0.02037   0.21704
   D24       -1.83250   0.00051   0.00955   0.01518   0.02471  -1.80779
   D25        2.36734   0.00049   0.00971   0.02199   0.03180   2.39914
   D26        0.64260  -0.00013   0.00612  -0.05461  -0.04847   0.59413
   D27       -1.47585   0.00009   0.00600  -0.06346  -0.05745  -1.53330
   D28        2.80708  -0.00007   0.00554  -0.06348  -0.05798   2.74911
   D29        2.82974  -0.00014   0.00614  -0.04547  -0.03928   2.79046
   D30        0.71129   0.00009   0.00602  -0.05432  -0.04826   0.66303
   D31       -1.28896  -0.00008   0.00557  -0.05434  -0.04879  -1.33775
   D32       -1.44386   0.00007   0.00529  -0.04816  -0.04279  -1.48665
   D33        2.72088   0.00029   0.00517  -0.05701  -0.05177   2.66910
   D34        0.72062   0.00013   0.00472  -0.05703  -0.05230   0.66833
   D35        0.16697  -0.00013  -0.01595   0.06884   0.05290   0.21987
   D36        2.27413   0.00038  -0.01570   0.08321   0.06749   2.34163
   D37       -1.98167   0.00034  -0.01620   0.07968   0.06353  -1.91814
   D38        2.33385  -0.00017  -0.01752   0.07466   0.05710   2.39095
   D39       -1.84217   0.00034  -0.01727   0.08903   0.07170  -1.77048
   D40        0.18521   0.00030  -0.01777   0.08550   0.06773   0.25294
   D41       -1.91318  -0.00017  -0.01909   0.07439   0.05532  -1.85786
   D42        0.19399   0.00034  -0.01884   0.08876   0.06991   0.26390
   D43        2.22137   0.00030  -0.01935   0.08522   0.06595   2.28732
         Item               Value     Threshold  Converged?
 Maximum Force            0.001838     0.000450     NO 
 RMS     Force            0.000415     0.000300     NO 
 Maximum Displacement     0.103149     0.001800     NO 
 RMS     Displacement     0.025027     0.001200     NO 
 Predicted change in Energy=-9.231564D-05
 GradGradGradGradGradGradGradGradGradGradGradGradGradGradGradGradGradGrad

 Leave Link  103 at Sat Jun 15 16:38:22 2024, MaxMem=   104857600 cpu:               1.6 elap:               0.9
 (Enter /mlatom/software/Gaussian/g16-avx2/l202.exe)
                          Input orientation:                          
 ---------------------------------------------------------------------
 Center     Atomic      Atomic             Coordinates (Angstroms)
 Number     Number       Type             X           Y           Z
 ---------------------------------------------------------------------
      1          6           0        0.541033   -0.377089    0.040189
      2          6           0       -0.631655   -1.070624   -0.603046
      3          1           0        0.490349   -0.487395    1.134145
      4          1           0        0.521497    0.702794   -0.144450
      5          1           0       -1.451673   -0.479310   -0.994556
      6          6           0       -0.627456   -2.411736   -0.670550
      7          6           0        0.518773   -3.160172   -0.034989
      8          1           0       -1.433785   -2.970314   -1.132595
      9          1           0        0.511758   -4.221062   -0.304732
     10          1           0        0.384862   -3.129099    1.056526
     11          6           0        1.853173   -0.993227   -0.480051
     12          6           0        1.896761   -2.531885   -0.358203
     13          1           0        2.712045   -0.549288    0.029175
     14          1           0        1.939897   -0.712034   -1.531728
     15          1           0        2.269663   -2.961009   -1.296627
     16          1           0        2.614842   -2.837659    0.412579
 ---------------------------------------------------------------------
                    Distance matrix (angstroms):
                    1          2          3          4          5
     1  C    0.000000
     2  C    1.506632   0.000000
     3  H    1.100670   2.148693   0.000000
     4  H    1.095729   2.164506   1.747090   0.000000
     5  H    2.247671   1.084141   2.881472   2.452234   0.000000
     6  C    2.451592   1.342816   2.865223   3.361127   2.125695
     7  C    2.784187   2.452016   2.917434   3.864518   3.462722
     8  H    3.464122   2.129003   3.873666   4.276831   2.494889
     9  H    3.859528   3.364765   4.001387   4.926474   4.281545
    10  H    2.937837   2.832808   2.644949   4.018012   3.821148
    11  C    1.540125   2.489074   2.172276   2.182309   3.383908
    12  C    2.576792   2.930550   2.895693   3.521390   3.978696
    13  H    2.177858   3.442648   2.482080   2.529101   4.288294
    14  H    2.130711   2.757520   3.042783   2.436829   3.441724
    15  H    3.384063   3.531608   3.897868   4.219840   4.483126
    16  H    3.239407   3.833230   3.249288   4.150564   4.906973
                    6          7          8          9         10
     6  C    0.000000
     7  C    1.509283   0.000000
     8  H    1.084279   2.247948   0.000000
     9  H    2.169169   1.094668   2.456597   0.000000
    10  H    2.126544   1.100137   2.850428   1.749717   0.000000
    11  C    2.863910   2.583477   3.890858   3.499864   3.013130
    12  C    2.546306   1.548569   3.447383   2.185043   2.154985
    13  H    3.887235   3.410465   4.939533   4.293563   3.623073
    14  H    3.197173   3.202062   4.079322   3.982258   3.867738
    15  H    3.014461   2.167260   3.707091   2.379458   3.019612
    16  H    3.444863   2.167450   4.335498   2.617499   2.339320
                   11         12         13         14         15
    11  C    0.000000
    12  C    1.544090   0.000000
    13  H    1.092728   2.178403   0.000000
    14  H    1.092069   2.165844   1.749033   0.000000
    15  H    2.170813   1.097198   2.787446   2.285149   0.000000
    16  H    2.186060   1.096924   2.322303   2.958743   1.748070
                   16
    16  H    0.000000
 Stoichiometry    C6H10
 Framework group  C1[X(C6H10)]
 Deg. of freedom    42
 Full point group                 C1      NOp   1
 RotChk:  IX=0 Diff= 3.58D-02
 Largest Abelian subgroup         C1      NOp   1
 Largest concise Abelian subgroup C1      NOp   1
                         Standard orientation:                         
 ---------------------------------------------------------------------
 Center     Atomic      Atomic             Coordinates (Angstroms)
 Number     Number       Type             X           Y           Z
 ---------------------------------------------------------------------
      1          6           0        1.072404   -0.878276    0.375082
      2          6           0        1.383803    0.497619   -0.153957
      3          1           0        0.962447   -0.845115    1.469744
      4          1           0        1.894100   -1.578157    0.186391
      5          1           0        2.393601    0.730496   -0.472453
      6          6           0        0.393751    1.402839   -0.213345
      7          6           0       -0.965073    1.018372    0.319307
      8          1           0        0.548611    2.405354   -0.596287
      9          1           0       -1.728966    1.757562    0.057840
     10          1           0       -0.914543    1.017683    1.418283
     11          6           0       -0.234027   -1.391042   -0.259185
     12          6           0       -1.407321   -0.395288   -0.132409
     13          1           0       -0.511570   -2.358358    0.166636
     14          1           0       -0.024390   -1.568865   -1.316089
     15          1           0       -1.921182   -0.313207   -1.098356
     16          1           0       -2.159331   -0.772736    0.571335
 ---------------------------------------------------------------------
 Rotational constants (GHZ):           4.6721388           4.5566113           2.6147577
 Leave Link  202 at Sat Jun 15 16:38:23 2024, MaxMem=   104857600 cpu:               0.2 elap:               0.4
 (Enter /mlatom/software/Gaussian/g16-avx2/l301.exe)
 Standard basis: STO-3G (5D, 7F)
 Ernie: Thresh=  0.10000D-02 Tol=  0.10000D-05 Strict=F.
 There are    40 symmetry adapted cartesian basis functions of A   symmetry.
 There are    40 symmetry adapted basis functions of A   symmetry.
    40 basis functions,   120 primitive gaussians,    40 cartesian basis functions
    23 alpha electrons       23 beta electrons
       nuclear repulsion energy       236.7002288877 Hartrees.
 IExCor=    0 DFT=F Ex=HF Corr=None ExCW=0 ScaHFX=  1.000000
 ScaDFX=  1.000000  1.000000  1.000000  1.000000 ScalE2=  1.000000  1.000000
 IRadAn=      5 IRanWt=     -1 IRanGd=            0 ICorTp=0 IEmpDi=  4
 NAtoms=   16 NActive=   16 NUniq=   16 SFac= 1.00D+00 NAtFMM=   60 NAOKFM=F Big=F
 Integral buffers will be    131072 words long.
 Raffenetti 1 integral format.
 Two-electron integral symmetry is turned on.
 Leave Link  301 at Sat Jun 15 16:38:24 2024, MaxMem=   104857600 cpu:               0.4 elap:               0.5
 (Enter /mlatom/software/Gaussian/g16-avx2/l402.exe)
 External calculation of energy and first derivatives.
 Running external command "/mlatom/software/miniconda3/bin/python /mlatom/software/mlatom/mlatom/interfaces/gaussian_interface.py model_predict_kwargs R"
         input file       "/mlatom/home/qhzhang/git/ts-analysis/calculations/C60/irc/pro_opt/da_ani_opt_1/Gau-212676.EIn"
         output file      "/mlatom/home/qhzhang/git/ts-analysis/calculations/C60/irc/pro_opt/da_ani_opt_1/Gau-212676.EOu"
         message file     "/mlatom/home/qhzhang/git/ts-analysis/calculations/C60/irc/pro_opt/da_ani_opt_1/Gau-212676.EMs"
         fchk file        "/mlatom/home/qhzhang/git/ts-analysis/calculations/C60/irc/pro_opt/da_ani_opt_1/Gau-212676.EFC"
         mat. el file     "/mlatom/home/qhzhang/git/ts-analysis/calculations/C60/irc/pro_opt/da_ani_opt_1/Gau-212676.EUF"
model loaded from /mlatom/home/qhzhang/git/ts-analysis/calculations/C60/irc/pro_opt/da_ani_opt_1/da_energy_iteration27.npz
 Recovered energy= -234.657861286     dipole=      0.000000000000      0.000000000000      0.000000000000
 Energy=    -234.657861     NIter=   0.
 Dipole moment=       0.000000       0.000000       0.000000
 Leave Link  402 at Sat Jun 15 16:38:28 2024, MaxMem=   104857600 cpu:              10.8 elap:               4.2
 (Enter /mlatom/software/Gaussian/g16-avx2/l716.exe)
 Dipole        = 0.00000000D+00 0.00000000D+00 0.00000000D+00
 ***** Axes restored to original set *****
 -------------------------------------------------------------------
 Center     Atomic                   Forces (Hartrees/Bohr)
 Number     Number              X              Y              Z
 -------------------------------------------------------------------
      1        6          -0.000794900   -0.000361024    0.000088485
      2        6           0.000794741   -0.000059424    0.000304776
      3        1           0.000005761   -0.000622069   -0.000251015
      4        1           0.000176297   -0.000113961   -0.000492210
      5        1          -0.000351629    0.000054930    0.000010334
      6        6           0.002803602    0.000618687    0.000172078
      7        6          -0.000620040    0.000961359   -0.000311180
      8        1          -0.000856317   -0.000321938    0.000564819
      9        1           0.000016653   -0.000557619   -0.000409186
     10        1          -0.000581897   -0.000066767    0.000529338
     11        6          -0.000361036   -0.000648269    0.000271531
     12        6           0.000163039   -0.000038832   -0.001052551
     13        1           0.000595371    0.000519714    0.000185254
     14        1          -0.000240184   -0.000093425   -0.000572476
     15        1           0.000012972    0.001078394    0.000897182
     16        1          -0.000762430   -0.000349754    0.000064819
 -------------------------------------------------------------------
 Cartesian Forces:  Max     0.002803602 RMS     0.000642039
 Leave Link  716 at Sat Jun 15 16:38:29 2024, MaxMem=   104857600 cpu:               0.3 elap:               0.5
 (Enter /mlatom/software/Gaussian/g16-avx2/l103.exe)

 GradGradGradGradGradGradGradGradGradGradGradGradGradGradGradGradGradGrad
 Berny optimization.
 FormGI is forming the generalized inverse of G from B-inverse, IUseBI=4.
 Internal  Forces:  Max     0.001616352 RMS     0.000386520
 Search for a local minimum.
 Step number   8 out of a maximum of   99
 All quantities printed in internal units (Hartrees-Bohrs-Radians)
 Update second derivatives using D2CorX and points    6    7    8
 DE= -1.30D-04 DEPred=-9.23D-05 R= 1.41D+00
 TightC=F SS=  1.41D+00  RLast= 2.60D-01 DXNew= 5.3616D-01 7.7922D-01
 Trust test= 1.41D+00 RLast= 2.60D-01 DXMaxT set to 5.36D-01
 ITU=  1  1 -1  1  1  1  1  0
     Eigenvalues ---    0.00020   0.00469   0.01197   0.01482   0.01703
     Eigenvalues ---    0.02633   0.03187   0.03611   0.04460   0.04729
     Eigenvalues ---    0.05100   0.05689   0.05789   0.07175   0.08358
     Eigenvalues ---    0.08467   0.09062   0.09529   0.10012   0.11577
     Eigenvalues ---    0.12769   0.15916   0.16039   0.20076   0.20710
     Eigenvalues ---    0.22113   0.26473   0.26877   0.28360   0.30004
     Eigenvalues ---    0.32136   0.33036   0.33600   0.33677   0.34149
     Eigenvalues ---    0.34238   0.34324   0.34693   0.35403   0.35503
     Eigenvalues ---    0.42878   0.54196
 Angle between quadratic step and forces=  74.62 degrees.
 Quartic linear search produced a step of  1.10782.
 Iteration  1 RMS(Cart)=  0.03323552 RMS(Int)=  0.00070287
 Iteration  2 RMS(Cart)=  0.00079113 RMS(Int)=  0.00024486
 Iteration  3 RMS(Cart)=  0.00000014 RMS(Int)=  0.00024486
 ITry= 1 IFail=0 DXMaxC= 1.26D-01 DCOld= 1.00D+10 DXMaxT= 5.36D-01 DXLimC= 3.00D+00 Rises=F
 Variable       Old X    -DE/DX   Delta X   Delta X   Delta X     New X
                                 (Linear)    (Quad)   (Total)
    R1        2.84712  -0.00125   0.00071  -0.00320  -0.00238   2.84474
    R2        2.07997  -0.00019  -0.00269  -0.00041  -0.00310   2.07687
    R3        2.07063  -0.00003  -0.00101   0.00012  -0.00088   2.06974
    R4        2.91041  -0.00038  -0.00195  -0.00173  -0.00357   2.90684
    R5        2.04873   0.00029   0.00082   0.00046   0.00128   2.05001
    R6        2.53755  -0.00078  -0.00157  -0.00138  -0.00283   2.53472
    R7        2.85213  -0.00162  -0.00065  -0.00373  -0.00436   2.84777
    R8        2.04899   0.00056  -0.00007   0.00139   0.00132   2.05031
    R9        2.06862   0.00064  -0.00100   0.00130   0.00029   2.06892
   R10        2.07896   0.00059  -0.00006   0.00139   0.00133   2.08029
   R11        2.92637  -0.00019   0.00528  -0.00060   0.00449   2.93086
   R12        2.91791  -0.00054  -0.00403  -0.00256  -0.00672   2.91118
   R13        2.06496   0.00077  -0.00113   0.00169   0.00057   2.06552
   R14        2.06371   0.00051   0.00087   0.00163   0.00251   2.06622
   R15        2.07340  -0.00118   0.00412  -0.00348   0.00065   2.07405
   R16        2.07289  -0.00036  -0.00155  -0.00021  -0.00176   2.07113
    A1        1.92022  -0.00019   0.00360  -0.00283   0.00087   1.92110
    A2        1.94749  -0.00007  -0.00262  -0.00016  -0.00276   1.94472
    A3        1.91215   0.00033  -0.00832   0.00087  -0.00769   1.90446
    A4        1.83944   0.00041   0.00076   0.00567   0.00640   1.84584
    A5        1.91226  -0.00023   0.00724  -0.00169   0.00550   1.91776
    A6        1.93108  -0.00027   0.00009  -0.00183  -0.00163   1.92945
    A7        2.08499   0.00026  -0.00226  -0.00016  -0.00237   2.08262
    A8        2.07004  -0.00029   0.00405   0.00070   0.00463   2.07467
    A9        2.12815   0.00003  -0.00178  -0.00056  -0.00228   2.12586
   A10        2.06743   0.00056   0.00295   0.00493   0.00754   2.07497
   A11        2.13365  -0.00027  -0.00120  -0.00253  -0.00382   2.12983
   A12        2.08146  -0.00030  -0.00219  -0.00297  -0.00527   2.07619
   A13        1.95191  -0.00000  -0.00038  -0.00114  -0.00149   1.95042
   A14        1.88741  -0.00023  -0.00573  -0.00134  -0.00669   1.88072
   A15        1.96786  -0.00018   0.01053   0.00016   0.00986   1.97773
   A16        1.84531  -0.00000  -0.00091   0.00035  -0.00066   1.84465
   A17        1.92567   0.00012   0.00361  -0.00050   0.00349   1.92917
   A18        1.87962   0.00031  -0.00845   0.00263  -0.00577   1.87384
   A19        1.97800  -0.00033   0.00421   0.00054   0.00384   1.98184
   A20        1.92804  -0.00003   0.00573   0.00120   0.00720   1.93524
   A21        1.86497   0.00015  -0.00516  -0.00218  -0.00703   1.85794
   A22        1.92397   0.00031  -0.00780   0.00255  -0.00499   1.91897
   A23        1.90745  -0.00008   0.00167  -0.00226  -0.00034   1.90712
   A24        1.85642  -0.00001   0.00127  -0.00011   0.00103   1.85745
   A25        1.97757   0.00009  -0.00281   0.00357  -0.00044   1.97712
   A26        1.89892   0.00056   0.01300   0.00236   0.01568   1.91459
   A27        1.89944  -0.00061  -0.00542  -0.00401  -0.00903   1.89041
   A28        1.90904  -0.00061   0.00199  -0.00729  -0.00491   1.90413
   A29        1.93019   0.00050  -0.00347   0.00380   0.00051   1.93070
   A30        1.84365   0.00008  -0.00294   0.00144  -0.00163   1.84202
    D1        1.83087   0.00012  -0.01090  -0.00865  -0.01951   1.81136
    D2       -1.30850   0.00018  -0.01414  -0.00025  -0.01452  -1.32302
    D3       -0.20438  -0.00023  -0.01251  -0.01379  -0.02628  -0.23066
    D4        2.93943  -0.00016  -0.01575  -0.00539  -0.02128   2.91815
    D5       -2.34903  -0.00007  -0.00494  -0.01196  -0.01704  -2.36607
    D6        0.79478  -0.00001  -0.00817  -0.00356  -0.01204   0.78274
    D7       -0.90329   0.00012  -0.02909   0.00196  -0.02707  -0.93036
    D8       -3.07216  -0.00001  -0.02638  -0.00273  -0.02898  -3.10114
    D9        1.19871  -0.00007  -0.02796  -0.00200  -0.02994   1.16876
   D10        1.20483  -0.00005  -0.02530  -0.00203  -0.02739   1.17744
   D11       -0.96404  -0.00019  -0.02258  -0.00673  -0.02930  -0.99334
   D12       -2.97636  -0.00024  -0.02416  -0.00600  -0.03026  -3.00662
   D13       -3.05763   0.00016  -0.02008   0.00280  -0.01729  -3.07492
   D14        1.05669   0.00002  -0.01736  -0.00189  -0.01921   1.03748
   D15       -0.95564  -0.00003  -0.01894  -0.00116  -0.02017  -0.97580
   D16        0.05414   0.00018   0.00769  -0.00246   0.00526   0.05940
   D17       -3.12658  -0.00020  -0.00833  -0.01947  -0.02757   3.12904
   D18       -3.08518   0.00024   0.00437   0.00616   0.01039  -3.07479
   D19        0.01729  -0.00013  -0.01165  -0.01085  -0.02244  -0.00515
   D20       -2.96249   0.00002   0.00705   0.01336   0.02075  -2.94173
   D21        1.29587   0.00016   0.01185   0.01438   0.02640   1.32227
   D22       -0.78038   0.00004   0.01971   0.01191   0.03206  -0.74832
   D23        0.21704   0.00038   0.02257   0.02985   0.05254   0.26958
   D24       -1.80779   0.00052   0.02737   0.03087   0.05819  -1.74960
   D25        2.39914   0.00040   0.03523   0.02840   0.06385   2.46299
   D26        0.59413  -0.00022  -0.05369  -0.01339  -0.06694   0.52719
   D27       -1.53330   0.00010  -0.06365  -0.00815  -0.07172  -1.60502
   D28        2.74911   0.00003  -0.06423  -0.00897  -0.07323   2.67587
   D29        2.79046  -0.00026  -0.04351  -0.01517  -0.05854   2.73192
   D30        0.66303   0.00005  -0.05347  -0.00993  -0.06332   0.59971
   D31       -1.33775  -0.00002  -0.05405  -0.01075  -0.06483  -1.40258
   D32       -1.48665  -0.00003  -0.04740  -0.01355  -0.06072  -1.54737
   D33        2.66910   0.00029  -0.05735  -0.00831  -0.06550   2.60361
   D34        0.66833   0.00022  -0.05793  -0.00914  -0.06701   0.60131
   D35        0.21987  -0.00013   0.05860   0.00608   0.06474   0.28461
   D36        2.34163   0.00020   0.07477   0.00626   0.08101   2.42264
   D37       -1.91814   0.00023   0.07038   0.00589   0.07644  -1.84170
   D38        2.39095  -0.00018   0.06326   0.01003   0.07321   2.46416
   D39       -1.77048   0.00015   0.07943   0.01021   0.08948  -1.68100
   D40        0.25294   0.00019   0.07504   0.00984   0.08491   0.33785
   D41       -1.85786  -0.00006   0.06128   0.01004   0.07140  -1.78646
   D42        0.26390   0.00027   0.07745   0.01022   0.08767   0.35157
   D43        2.28732   0.00031   0.07306   0.00984   0.08310   2.37042
         Item               Value     Threshold  Converged?
 Maximum Force            0.001616     0.000450     NO 
 RMS     Force            0.000387     0.000300     NO 
 Maximum Displacement     0.126361     0.001800     NO 
 RMS     Displacement     0.033191     0.001200     NO 
 Predicted change in Energy=-1.395524D-04
 GradGradGradGradGradGradGradGradGradGradGradGradGradGradGradGradGradGrad

 Leave Link  103 at Sat Jun 15 16:38:30 2024, MaxMem=   104857600 cpu:               1.6 elap:               0.9
 (Enter /mlatom/software/Gaussian/g16-avx2/l202.exe)
                          Input orientation:                          
 ---------------------------------------------------------------------
 Center     Atomic      Atomic             Coordinates (Angstroms)
 Number     Number       Type             X           Y           Z
 ---------------------------------------------------------------------
      1          6           0        0.546663   -0.373053    0.042654
      2          6           0       -0.629625   -1.065721   -0.591932
      3          1           0        0.502700   -0.479991    1.135586
      4          1           0        0.528897    0.704675   -0.151730
      5          1           0       -1.458467   -0.472548   -0.963417
      6          6           0       -0.625702   -2.404510   -0.674170
      7          6           0        0.518712   -3.168286   -0.059401
      8          1           0       -1.451350   -2.956637   -1.110793
      9          1           0        0.513608   -4.220327   -0.362428
     10          1           0        0.372235   -3.172016    1.031645
     11          6           0        1.847133   -0.996780   -0.492053
     12          6           0        1.903782   -2.528570   -0.338268
     13          1           0        2.720877   -0.541862   -0.018420
     14          1           0        1.901055   -0.738417   -1.553117
     15          1           0        2.336530   -2.965021   -1.247573
     16          1           0        2.583031   -2.810043    0.474503
 ---------------------------------------------------------------------
                    Distance matrix (angstroms):
                    1          2          3          4          5
     1  C    0.000000
     2  C    1.505371   0.000000
     3  H    1.099031   2.146988   0.000000
     4  H    1.095262   2.161077   1.749658   0.000000
     5  H    2.245580   1.084821   2.872638   2.448328   0.000000
     6  C    2.452570   1.341319   2.872678   3.357541   2.123592
     7  C    2.797236   2.454190   2.941969   3.874076   3.463162
     8  H    3.463727   2.126032   3.872764   4.271579   2.488467
     9  H    3.868682   3.363212   4.029178   4.929531   4.277397
    10  H    2.973672   2.841866   2.697188   4.056311   3.823463
    11  C    1.538236   2.479729   2.173426   2.179110   3.379941
    12  C    2.575486   2.936397   2.886512   3.518378   3.990334
    13  H    2.181612   3.439361   2.501173   2.525155   4.285411
    14  H    2.124700   2.726783   3.041596   2.434999   3.421232
    15  H    3.403910   3.582636   3.900993   4.234983   4.549195
    16  H    3.205029   3.808031   3.192797   4.118844   4.885203
                    6          7          8          9         10
     6  C    0.000000
     7  C    1.506977   0.000000
     8  H    1.084978   2.243070   0.000000
     9  H    2.166195   1.094824   2.453166   0.000000
    10  H    2.120081   1.100841   2.821682   1.749966   0.000000
    11  C    2.851278   2.582117   3.886369   3.490894   3.037866
    12  C    2.554704   1.550943   3.469431   2.189796   2.153212
    13  H    3.885751   3.427727   4.942863   4.303659   3.679194
    14  H    3.151654   3.169594   4.044103   3.932741   3.865319
    15  H    3.068841   2.181177   3.790358   2.383762   3.015980
    16  H    3.432183   2.162130   4.337152   2.640429   2.308474
                   11         12         13         14         15
    11  C    0.000000
    12  C    1.540532   0.000000
    13  H    1.093027   2.171855   0.000000
    14  H    1.093396   2.163450   1.751010   0.000000
    15  H    2.164322   1.097540   2.744128   2.289271   0.000000
    16  H    2.182590   1.095994   2.325213   2.977913   1.746518
                   16
    16  H    0.000000
 Stoichiometry    C6H10
 Framework group  C1[X(C6H10)]
 Deg. of freedom    42
 Full point group                 C1      NOp   1
 RotChk:  IX=0 Diff= 3.29D-02
 Largest Abelian subgroup         C1      NOp   1
 Largest concise Abelian subgroup C1      NOp   1
                         Standard orientation:                         
 ---------------------------------------------------------------------
 Center     Atomic      Atomic             Coordinates (Angstroms)
 Number     Number       Type             X           Y           Z
 ---------------------------------------------------------------------
      1          6           0        1.092416   -0.859162    0.375276
      2          6           0        1.373452    0.525490   -0.144242
      3          1           0        0.981794   -0.836584    1.468493
      4          1           0        1.927540   -1.538842    0.174776
      5          1           0        2.383128    0.785904   -0.443534
      6          6           0        0.365292    1.407316   -0.215882
      7          6           0       -0.992601    1.003985    0.298343
      8          1           0        0.512338    2.421844   -0.571252
      9          1           0       -1.766668    1.720668    0.005383
     10          1           0       -0.958195    1.035933    1.398182
     11          6           0       -0.200170   -1.386795   -0.270476
     12          6           0       -1.401105   -0.435295   -0.110340
     13          1           0       -0.454004   -2.376364    0.118149
     14          1           0        0.016463   -1.518587   -1.334062
     15          1           0       -1.964629   -0.406687   -1.051731
     16          1           0       -2.101467   -0.820520    0.639524
 ---------------------------------------------------------------------
 Rotational constants (GHZ):           4.6786266           4.5587543           2.6100328
 Leave Link  202 at Sat Jun 15 16:38:31 2024, MaxMem=   104857600 cpu:               0.2 elap:               0.4
 (Enter /mlatom/software/Gaussian/g16-avx2/l301.exe)
 Standard basis: STO-3G (5D, 7F)
 Ernie: Thresh=  0.10000D-02 Tol=  0.10000D-05 Strict=F.
 There are    40 symmetry adapted cartesian basis functions of A   symmetry.
 There are    40 symmetry adapted basis functions of A   symmetry.
    40 basis functions,   120 primitive gaussians,    40 cartesian basis functions
    23 alpha electrons       23 beta electrons
       nuclear repulsion energy       236.7560166183 Hartrees.
 IExCor=    0 DFT=F Ex=HF Corr=None ExCW=0 ScaHFX=  1.000000
 ScaDFX=  1.000000  1.000000  1.000000  1.000000 ScalE2=  1.000000  1.000000
 IRadAn=      5 IRanWt=     -1 IRanGd=            0 ICorTp=0 IEmpDi=  4
 NAtoms=   16 NActive=   16 NUniq=   16 SFac= 1.00D+00 NAtFMM=   60 NAOKFM=F Big=F
 Integral buffers will be    131072 words long.
 Raffenetti 1 integral format.
 Two-electron integral symmetry is turned on.
 Leave Link  301 at Sat Jun 15 16:38:32 2024, MaxMem=   104857600 cpu:               0.3 elap:               0.5
 (Enter /mlatom/software/Gaussian/g16-avx2/l402.exe)
 External calculation of energy and first derivatives.
 Running external command "/mlatom/software/miniconda3/bin/python /mlatom/software/mlatom/mlatom/interfaces/gaussian_interface.py model_predict_kwargs R"
         input file       "/mlatom/home/qhzhang/git/ts-analysis/calculations/C60/irc/pro_opt/da_ani_opt_1/Gau-212676.EIn"
         output file      "/mlatom/home/qhzhang/git/ts-analysis/calculations/C60/irc/pro_opt/da_ani_opt_1/Gau-212676.EOu"
         message file     "/mlatom/home/qhzhang/git/ts-analysis/calculations/C60/irc/pro_opt/da_ani_opt_1/Gau-212676.EMs"
         fchk file        "/mlatom/home/qhzhang/git/ts-analysis/calculations/C60/irc/pro_opt/da_ani_opt_1/Gau-212676.EFC"
         mat. el file     "/mlatom/home/qhzhang/git/ts-analysis/calculations/C60/irc/pro_opt/da_ani_opt_1/Gau-212676.EUF"
model loaded from /mlatom/home/qhzhang/git/ts-analysis/calculations/C60/irc/pro_opt/da_ani_opt_1/da_energy_iteration27.npz
 Recovered energy= -234.658014396     dipole=      0.000000000000      0.000000000000      0.000000000000
 Energy=    -234.658014     NIter=   0.
 Dipole moment=       0.000000       0.000000       0.000000
 Leave Link  402 at Sat Jun 15 16:38:38 2024, MaxMem=   104857600 cpu:              16.0 elap:               5.9
 (Enter /mlatom/software/Gaussian/g16-avx2/l716.exe)
 Dipole        = 0.00000000D+00 0.00000000D+00 0.00000000D+00
 ***** Axes restored to original set *****
 -------------------------------------------------------------------
 Center     Atomic                   Forces (Hartrees/Bohr)
 Number     Number              X              Y              Z
 -------------------------------------------------------------------
      1        6          -0.000288122   -0.000576078   -0.000745273
      2        6          -0.000141639    0.001067322    0.000043155
      3        1           0.000132781   -0.000313014    0.000404698
      4        1           0.000099010    0.000144552   -0.000016110
      5        1          -0.000081884   -0.000192431    0.000054159
      6        6           0.001107181   -0.000106193    0.000471753
      7        6           0.000335626    0.000450113   -0.000163641
      8        1          -0.000278592   -0.000153509   -0.000118550
      9        1           0.000140330   -0.000483702   -0.000357753
     10        1          -0.000285043   -0.000266458    0.000231281
     11        6           0.000396982    0.000321940   -0.000408497
     12        6          -0.000804539   -0.000541987   -0.000542170
     13        1           0.000263742    0.000676479    0.000044414
     14        1          -0.000083292   -0.000268827   -0.000004467
     15        1          -0.000538183    0.000449605    0.000776767
     16        1           0.000025639   -0.000207808    0.000330235
 -------------------------------------------------------------------
 Cartesian Forces:  Max     0.001107181 RMS     0.000421116
 Leave Link  716 at Sat Jun 15 16:38:38 2024, MaxMem=   104857600 cpu:               0.3 elap:               0.5
 (Enter /mlatom/software/Gaussian/g16-avx2/l103.exe)

 GradGradGradGradGradGradGradGradGradGradGradGradGradGradGradGradGradGrad
 Berny optimization.
 FormGI is forming the generalized inverse of G from B-inverse, IUseBI=4.
 Internal  Forces:  Max     0.001034537 RMS     0.000263205
 Search for a local minimum.
 Step number   9 out of a maximum of   99
 All quantities printed in internal units (Hartrees-Bohrs-Radians)
 Update second derivatives using D2CorX and points    6    8    9
 DE= -1.53D-04 DEPred=-1.40D-04 R= 1.10D+00
 TightC=F SS=  1.41D+00  RLast= 3.45D-01 DXNew= 9.0172D-01 1.0352D+00
 Trust test= 1.10D+00 RLast= 3.45D-01 DXMaxT set to 9.02D-01
 ITU=  1  1  1 -1  1  1  1  1  0
     Eigenvalues ---    0.00017   0.00431   0.01185   0.01505   0.01717
     Eigenvalues ---    0.02841   0.03312   0.03580   0.04450   0.04743
     Eigenvalues ---    0.05117   0.05685   0.05759   0.07227   0.08385
     Eigenvalues ---    0.08497   0.09004   0.09573   0.09992   0.11909
     Eigenvalues ---    0.12601   0.15880   0.16050   0.20155   0.20572
     Eigenvalues ---    0.22108   0.26654   0.26998   0.28880   0.30022
     Eigenvalues ---    0.31935   0.33083   0.33640   0.33710   0.34144
     Eigenvalues ---    0.34221   0.34332   0.34632   0.35408   0.35485
     Eigenvalues ---    0.40900   0.55361
 Quadratic step=1.157D+00 exceeds max=9.017D-01 adjusted using Lamda=-4.782D-05.
 Angle between NR and scaled steps=   0.58 degrees.
 Angle between quadratic step and forces=  85.53 degrees.
 Quartic linear search produced a step of  0.63064.
 Iteration  1 RMS(Cart)=  0.09268935 RMS(Int)=  0.02320472
 Iteration  2 RMS(Cart)=  0.02154213 RMS(Int)=  0.00191356
 Iteration  3 RMS(Cart)=  0.00039063 RMS(Int)=  0.00187693
 Iteration  4 RMS(Cart)=  0.00000014 RMS(Int)=  0.00187693
 ITry= 1 IFail=0 DXMaxC= 4.00D-01 DCOld= 1.00D+10 DXMaxT= 9.02D-01 DXLimC= 3.00D+00 Rises=F
 Variable       Old X    -DE/DX   Delta X   Delta X   Delta X     New X
                                 (Linear)    (Quad)   (Total)
    R1        2.84474  -0.00033  -0.00150   0.00404   0.00326   2.84800
    R2        2.07687   0.00043  -0.00195  -0.00194  -0.00390   2.07297
    R3        2.06974   0.00014  -0.00056  -0.00049  -0.00105   2.06869
    R4        2.90684  -0.00009  -0.00225  -0.00692  -0.00884   2.89801
    R5        2.05001  -0.00006   0.00081  -0.00068   0.00013   2.05015
    R6        2.53472   0.00040  -0.00178   0.00092   0.00037   2.53510
    R7        2.84777  -0.00045  -0.00275   0.00719   0.00503   2.85281
    R8        2.05031   0.00034   0.00083  -0.00100  -0.00017   2.05014
    R9        2.06892   0.00056   0.00019  -0.00227  -0.00208   2.06684
   R10        2.08029   0.00027   0.00084  -0.00154  -0.00070   2.07958
   R11        2.93086  -0.00067   0.00283   0.00803   0.00962   2.94048
   R12        2.91118   0.00047  -0.00424  -0.00342  -0.00911   2.90207
   R13        2.06552   0.00051   0.00036  -0.00268  -0.00232   2.06320
   R14        2.06622  -0.00006   0.00158  -0.00299  -0.00141   2.06481
   R15        2.07405  -0.00103   0.00041   0.00824   0.00865   2.08270
   R16        2.07113   0.00031  -0.00111   0.00012  -0.00098   2.07014
    A1        1.92110   0.00005   0.00055   0.01478   0.01603   1.93712
    A2        1.94472  -0.00009  -0.00174  -0.00103  -0.00176   1.94296
    A3        1.90446   0.00025  -0.00485  -0.02697  -0.03454   1.86992
    A4        1.84584   0.00013   0.00403  -0.00578  -0.00223   1.84361
    A5        1.91776  -0.00025   0.00347   0.01320   0.01676   1.93452
    A6        1.92945  -0.00010  -0.00103   0.00732   0.00752   1.93697
    A7        2.08262   0.00032  -0.00149  -0.00128  -0.00204   2.08058
    A8        2.07467  -0.00026   0.00292   0.00565   0.00674   2.08141
    A9        2.12586  -0.00006  -0.00144  -0.00417  -0.00490   2.12097
   A10        2.07497   0.00036   0.00475   0.00520   0.00849   2.08346
   A11        2.12983  -0.00018  -0.00241  -0.00097  -0.00269   2.12714
   A12        2.07619  -0.00018  -0.00332  -0.00396  -0.00680   2.06939
   A13        1.95042   0.00022  -0.00094   0.00096   0.00079   1.95121
   A14        1.88072  -0.00010  -0.00422  -0.01014  -0.01185   1.86887
   A15        1.97773  -0.00031   0.00622   0.02233   0.02265   2.00037
   A16        1.84465  -0.00007  -0.00042  -0.00279  -0.00391   1.84073
   A17        1.92917  -0.00002   0.00220   0.00400   0.00900   1.93816
   A18        1.87384   0.00030  -0.00364  -0.01755  -0.02084   1.85300
   A19        1.98184  -0.00054   0.00242  -0.00648  -0.01181   1.97003
   A20        1.93524  -0.00008   0.00454   0.01589   0.02285   1.95809
   A21        1.85794   0.00025  -0.00443  -0.01002  -0.01216   1.84578
   A22        1.91897   0.00052  -0.00315  -0.00628  -0.00660   1.91237
   A23        1.90712  -0.00004  -0.00021   0.00316   0.00456   1.91168
   A24        1.85745  -0.00010   0.00065   0.00424   0.00379   1.86124
   A25        1.97712   0.00057  -0.00028  -0.00784  -0.01706   1.96006
   A26        1.91459  -0.00019   0.00989   0.01488   0.02744   1.94203
   A27        1.89041  -0.00033  -0.00569  -0.00147  -0.00446   1.88596
   A28        1.90413  -0.00032  -0.00310   0.00660   0.00698   1.91112
   A29        1.93070   0.00009   0.00032  -0.00550  -0.00349   1.92721
   A30        1.84202   0.00016  -0.00103  -0.00645  -0.00879   1.83323
    D1        1.81136   0.00016  -0.01231   0.00549  -0.00629   1.80507
    D2       -1.32302   0.00005  -0.00915  -0.02622  -0.03591  -1.35892
    D3       -0.23066   0.00002  -0.01657   0.00401  -0.01256  -0.24322
    D4        2.91815  -0.00008  -0.01342  -0.02771  -0.04218   2.87597
    D5       -2.36607   0.00003  -0.01075   0.01391   0.00216  -2.36391
    D6        0.78274  -0.00007  -0.00759  -0.01781  -0.02746   0.75528
    D7       -0.93036   0.00002  -0.01707  -0.11572  -0.13179  -1.06215
    D8       -3.10114  -0.00020  -0.01828  -0.11498  -0.13192   3.05013
    D9        1.16876  -0.00018  -0.01888  -0.12244  -0.14107   1.02769
   D10        1.17744   0.00009  -0.01727  -0.10629  -0.12375   1.05370
   D11       -0.99334  -0.00013  -0.01848  -0.10555  -0.12387  -1.11721
   D12       -3.00662  -0.00011  -0.01909  -0.11301  -0.13302  -3.13965
   D13       -3.07492   0.00003  -0.01090  -0.10115  -0.11168   3.09658
   D14        1.03748  -0.00019  -0.01211  -0.10041  -0.11181   0.92567
   D15       -0.97580  -0.00017  -0.01272  -0.10786  -0.12096  -1.09676
   D16        0.05940   0.00031   0.00332   0.03964   0.04307   0.10248
   D17        3.12904   0.00027  -0.01739   0.04384   0.02793  -3.12622
   D18       -3.07479   0.00020   0.00655   0.00709   0.01273  -3.06205
   D19       -0.00515   0.00016  -0.01415   0.01130  -0.00241  -0.00756
   D20       -2.94173   0.00015   0.01309   0.02323   0.03857  -2.90316
   D21        1.32227   0.00017   0.01665   0.03213   0.04986   1.37213
   D22       -0.74832   0.00005   0.02022   0.04730   0.07033  -0.67799
   D23        0.26958   0.00019   0.03313   0.01905   0.05306   0.32264
   D24       -1.74960   0.00021   0.03670   0.02795   0.06435  -1.68525
   D25        2.46299   0.00009   0.04027   0.04311   0.08482   2.54781
   D26        0.52719  -0.00028  -0.04222  -0.16907  -0.21026   0.31693
   D27       -1.60502  -0.00011  -0.04523  -0.18306  -0.22743  -1.83245
   D28        2.67587  -0.00002  -0.04618  -0.18248  -0.22908   2.44679
   D29        2.73192  -0.00025  -0.03692  -0.14708  -0.18319   2.54872
   D30        0.59971  -0.00008  -0.03993  -0.16108  -0.20035   0.39935
   D31       -1.40258   0.00002  -0.04089  -0.16050  -0.20201  -1.60460
   D32       -1.54737  -0.00017  -0.03829  -0.15810  -0.19484  -1.74221
   D33        2.60361  -0.00001  -0.04131  -0.17210  -0.21201   2.39160
   D34        0.60131   0.00009  -0.04226  -0.17152  -0.21366   0.38765
   D35        0.28461   0.00007   0.04083   0.20114   0.24159   0.52620
   D36        2.42264  -0.00002   0.05109   0.21974   0.27019   2.69283
   D37       -1.84170   0.00003   0.04821   0.21269   0.26166  -1.58004
   D38        2.46416  -0.00003   0.04617   0.21238   0.25777   2.72193
   D39       -1.68100  -0.00013   0.05643   0.23097   0.28638  -1.39462
   D40        0.33785  -0.00007   0.05355   0.22393   0.27784   0.61569
   D41       -1.78646   0.00012   0.04503   0.21574   0.26120  -1.52526
   D42        0.35157   0.00003   0.05529   0.23434   0.28981   0.64138
   D43        2.37042   0.00008   0.05240   0.22729   0.28127   2.65169
         Item               Value     Threshold  Converged?
 Maximum Force            0.001035     0.000450     NO 
 RMS     Force            0.000263     0.000300     YES
 Maximum Displacement     0.399536     0.001800     NO 
 RMS     Displacement     0.108602     0.001200     NO 
 Predicted change in Energy=-1.378619D-04
 GradGradGradGradGradGradGradGradGradGradGradGradGradGradGradGradGradGrad

 Leave Link  103 at Sat Jun 15 16:38:39 2024, MaxMem=   104857600 cpu:               1.6 elap:               0.9
 (Enter /mlatom/software/Gaussian/g16-avx2/l202.exe)
                          Input orientation:                          
 ---------------------------------------------------------------------
 Center     Atomic      Atomic             Coordinates (Angstroms)
 Number     Number       Type             X           Y           Z
 ---------------------------------------------------------------------
      1          6           0        0.570308   -0.369497    0.068875
      2          6           0       -0.627919   -1.047302   -0.544454
      3          1           0        0.571907   -0.485703    1.159670
      4          1           0        0.553362    0.709905   -0.112738
      5          1           0       -1.465848   -0.443180   -0.875965
      6          6           0       -0.622952   -2.380715   -0.691584
      7          6           0        0.520299   -3.184433   -0.120596
      8          1           0       -1.456434   -2.910697   -1.140370
      9          1           0        0.530946   -4.207231   -0.507898
     10          1           0        0.338683   -3.281851    0.960403
     11          6           0        1.818292   -1.010895   -0.549953
     12          6           0        1.918280   -2.516940   -0.266688
     13          1           0        2.737717   -0.516720   -0.229845
     14          1           0        1.733334   -0.846590   -1.626834
     15          1           0        2.511940   -3.001616   -1.058724
     16          1           0        2.478166   -2.695641    0.657787
 ---------------------------------------------------------------------
                    Distance matrix (angstroms):
                    1          2          3          4          5
     1  C    0.000000
     2  C    1.507097   0.000000
     3  H    1.096969   2.158475   0.000000
     4  H    1.094706   2.160922   1.746095   0.000000
     5  H    2.245903   1.084891   2.880636   2.447311   0.000000
     6  C    2.459098   1.341515   2.906183   3.357188   2.120970
     7  C    2.821749   2.462802   2.987455   3.894487   3.468405
     8  H    3.468091   2.124569   3.909597   4.266623   2.481661
     9  H    3.881033   3.365926   4.078264   4.933040   4.276768
    10  H    3.054550   2.862189   2.812925   4.139063   3.832315
    11  C    1.533559   2.446488   2.179934   2.179990   3.348755
    12  C    2.557565   2.952985   2.823675   3.507026   4.015473
    13  H    2.192845   3.421696   2.573412   2.507933   4.253568
    14  H    2.110847   2.605254   3.040355   2.471335   3.310787
    15  H    3.459691   3.733970   3.874896   4.301896   4.733053
    16  H    3.065564   3.716204   2.961341   3.987020   4.793873
                    6          7          8          9         10
     6  C    0.000000
     7  C    1.509640   0.000000
     8  H    1.084889   2.241060   0.000000
     9  H    2.168267   1.093724   2.455749   0.000000
    10  H    2.113255   1.100469   2.788091   1.746196   0.000000
    11  C    2.802880   2.567762   3.831667   3.446098   3.102847
    12  C    2.580107   1.556034   3.508142   2.199991   2.141487
    13  H    3.870630   3.470673   4.914376   4.308947   3.849416
    14  H    2.963160   3.034093   3.830380   3.740543   3.816981
    15  H    3.216808   2.209104   3.970256   2.383538   2.979673
    16  H    3.396602   2.162877   4.331362   2.726791   2.238884
                   11         12         13         14         15
    11  C    0.000000
    12  C    1.535711   0.000000
    13  H    1.091797   2.161878   0.000000
    14  H    1.092652   2.162007   1.751907   0.000000
    15  H    2.168633   1.102118   2.629206   2.360745   0.000000
    16  H    2.175417   1.095472   2.367057   3.032039   1.743895
                   16
    16  H    0.000000
 Stoichiometry    C6H10
 Framework group  C1[X(C6H10)]
 Deg. of freedom    42
 Full point group                 C1      NOp   1
 RotChk:  IX=0 Diff= 6.94D-02
 Largest Abelian subgroup         C1      NOp   1
 Largest concise Abelian subgroup C1      NOp   1
                         Standard orientation:                         
 ---------------------------------------------------------------------
 Center     Atomic      Atomic             Coordinates (Angstroms)
 Number     Number       Type             X           Y           Z
 ---------------------------------------------------------------------
      1          6           0        1.120037   -0.828376    0.386055
      2          6           0        1.355897    0.578597   -0.099883
      3          1           0        0.978502   -0.849901    1.473642
      4          1           0        1.986103   -1.468157    0.188595
      5          1           0        2.362808    0.886699   -0.361019
      6          6           0        0.312684    1.412809   -0.224217
      7          6           0       -1.050369    0.969693    0.249858
      8          1           0        0.431822    2.429594   -0.583298
      9          1           0       -1.842383    1.627446   -0.119340
     10          1           0       -1.063525    1.080393    1.344666
     11          6           0       -0.126491   -1.353159   -0.336837
     12          6           0       -1.383391   -0.522624   -0.038804
     13          1           0       -0.321014   -2.403984   -0.113347
     14          1           0        0.103672   -1.297517   -1.403522
     15          1           0       -2.094826   -0.618993   -0.875008
     16          1           0       -1.911366   -0.927225    0.831598
 ---------------------------------------------------------------------
 Rotational constants (GHZ):           4.7091369           4.5476884           2.6162390
 Leave Link  202 at Sat Jun 15 16:38:40 2024, MaxMem=   104857600 cpu:               0.2 elap:               0.5
 (Enter /mlatom/software/Gaussian/g16-avx2/l301.exe)
 Standard basis: STO-3G (5D, 7F)
 Ernie: Thresh=  0.10000D-02 Tol=  0.10000D-05 Strict=F.
 There are    40 symmetry adapted cartesian basis functions of A   symmetry.
 There are    40 symmetry adapted basis functions of A   symmetry.
    40 basis functions,   120 primitive gaussians,    40 cartesian basis functions
    23 alpha electrons       23 beta electrons
       nuclear repulsion energy       236.9309770958 Hartrees.
 IExCor=    0 DFT=F Ex=HF Corr=None ExCW=0 ScaHFX=  1.000000
 ScaDFX=  1.000000  1.000000  1.000000  1.000000 ScalE2=  1.000000  1.000000
 IRadAn=      5 IRanWt=     -1 IRanGd=            0 ICorTp=0 IEmpDi=  4
 NAtoms=   16 NActive=   16 NUniq=   16 SFac= 1.00D+00 NAtFMM=   60 NAOKFM=F Big=F
 Integral buffers will be    131072 words long.
 Raffenetti 1 integral format.
 Two-electron integral symmetry is turned on.
 Leave Link  301 at Sat Jun 15 16:38:41 2024, MaxMem=   104857600 cpu:               0.4 elap:               0.5
 (Enter /mlatom/software/Gaussian/g16-avx2/l402.exe)
 External calculation of energy and first derivatives.
 Running external command "/mlatom/software/miniconda3/bin/python /mlatom/software/mlatom/mlatom/interfaces/gaussian_interface.py model_predict_kwargs R"
         input file       "/mlatom/home/qhzhang/git/ts-analysis/calculations/C60/irc/pro_opt/da_ani_opt_1/Gau-212676.EIn"
         output file      "/mlatom/home/qhzhang/git/ts-analysis/calculations/C60/irc/pro_opt/da_ani_opt_1/Gau-212676.EOu"
         message file     "/mlatom/home/qhzhang/git/ts-analysis/calculations/C60/irc/pro_opt/da_ani_opt_1/Gau-212676.EMs"
         fchk file        "/mlatom/home/qhzhang/git/ts-analysis/calculations/C60/irc/pro_opt/da_ani_opt_1/Gau-212676.EFC"
         mat. el file     "/mlatom/home/qhzhang/git/ts-analysis/calculations/C60/irc/pro_opt/da_ani_opt_1/Gau-212676.EUF"
model loaded from /mlatom/home/qhzhang/git/ts-analysis/calculations/C60/irc/pro_opt/da_ani_opt_1/da_energy_iteration27.npz
 Recovered energy= -234.657662162     dipole=      0.000000000000      0.000000000000      0.000000000000
 Energy=    -234.657662     NIter=   0.
 Dipole moment=       0.000000       0.000000       0.000000
 Leave Link  402 at Sat Jun 15 16:38:46 2024, MaxMem=   104857600 cpu:              11.3 elap:               4.4
 (Enter /mlatom/software/Gaussian/g16-avx2/l716.exe)
 Dipole        = 0.00000000D+00 0.00000000D+00 0.00000000D+00
 ***** Axes restored to original set *****
 -------------------------------------------------------------------
 Center     Atomic                   Forces (Hartrees/Bohr)
 Number     Number              X              Y              Z
 -------------------------------------------------------------------
      1        6          -0.000674915   -0.000324017   -0.002021268
      2        6          -0.001629643    0.000202174    0.000500100
      3        1           0.000039119   -0.000700677    0.000338872
      4        1          -0.000407393    0.000189032   -0.000817533
      5        1          -0.000916866   -0.000003083    0.000457754
      6        6           0.003170912    0.001753237    0.001188625
      7        6           0.000366857   -0.000291839    0.001072481
      8        1          -0.000052975   -0.000023162    0.000153723
      9        1          -0.000099120   -0.001261284   -0.000891075
     10        1          -0.000416123   -0.001688214    0.000732264
     11        6           0.003594632   -0.000663369    0.000920815
     12        6          -0.002420958   -0.000732970   -0.002667425
     13        1           0.000013755    0.001095292    0.001098330
     14        1           0.001944202   -0.000259799   -0.001599970
     15        1          -0.002647156    0.001981113    0.001128932
     16        1           0.000135672    0.000727562    0.000405376
 -------------------------------------------------------------------
 Cartesian Forces:  Max     0.003594632 RMS     0.001302784
 Leave Link  716 at Sat Jun 15 16:38:46 2024, MaxMem=   104857600 cpu:               0.3 elap:               0.5
 (Enter /mlatom/software/Gaussian/g16-avx2/l103.exe)

 GradGradGradGradGradGradGradGradGradGradGradGradGradGradGradGradGradGrad
 Berny optimization.
 FormGI is forming the generalized inverse of G from B-inverse, IUseBI=4.
 Internal  Forces:  Max     0.003108437 RMS     0.000954015
 Search for a local minimum.
 Step number  10 out of a maximum of   99
 All quantities printed in internal units (Hartrees-Bohrs-Radians)
 Update second derivatives using D2CorX and points    6    8   10    9
 DE=  3.52D-04 DEPred=-1.38D-04 R=-2.55D+00
 Trust test=-2.55D+00 RLast= 1.11D+00 DXMaxT set to 4.51D-01
 ITU= -1  1  1  1 -1  1  1  1  1  0
     Eigenvalues ---    0.00062   0.00710   0.01172   0.01535   0.01732
     Eigenvalues ---    0.02837   0.03275   0.03532   0.04626   0.04771
     Eigenvalues ---    0.05182   0.05690   0.05837   0.07119   0.08264
     Eigenvalues ---    0.08433   0.08812   0.09593   0.09949   0.11975
     Eigenvalues ---    0.12424   0.15859   0.16032   0.20001   0.20386
     Eigenvalues ---    0.22281   0.26531   0.27139   0.28420   0.30226
     Eigenvalues ---    0.31838   0.33173   0.33627   0.33718   0.34133
     Eigenvalues ---    0.34206   0.34379   0.34648   0.35470   0.35477
     Eigenvalues ---    0.37224   0.54852
 Quadratic step=5.270D-01 exceeds max=4.509D-01 adjusted using Lamda=-1.086D-04.
 Angle between NR and scaled steps=   1.55 degrees.
 Angle between quadratic step and forces=  81.44 degrees.
 Quartic linear search produced a step of -0.67848.
 Iteration  1 RMS(Cart)=  0.04285401 RMS(Int)=  0.00143857
 Iteration  2 RMS(Cart)=  0.00126680 RMS(Int)=  0.00098624
 Iteration  3 RMS(Cart)=  0.00000045 RMS(Int)=  0.00098624
 ITry= 1 IFail=0 DXMaxC= 1.88D-01 DCOld= 1.00D+10 DXMaxT= 4.51D-01 DXLimC= 3.00D+00 Rises=F
 Variable       Old X    -DE/DX   Delta X   Delta X   Delta X     New X
                                 (Linear)    (Quad)   (Total)
    R1        2.84800   0.00001  -0.00221  -0.00179  -0.00445   2.84355
    R2        2.07297   0.00041   0.00264  -0.00164   0.00101   2.07398
    R3        2.06869   0.00033   0.00071  -0.00006   0.00066   2.06935
    R4        2.89801   0.00132   0.00600  -0.00159   0.00406   2.90207
    R5        2.05015   0.00057  -0.00009   0.00141   0.00132   2.05147
    R6        2.53510  -0.00017  -0.00025  -0.00119  -0.00213   2.53296
    R7        2.85281  -0.00056  -0.00342  -0.00471  -0.00843   2.84437
    R8        2.05014  -0.00001   0.00011   0.00149   0.00160   2.05175
    R9        2.06684   0.00149   0.00141   0.00296   0.00437   2.07120
   R10        2.07958   0.00094   0.00048   0.00237   0.00285   2.08243
   R11        2.94048  -0.00062  -0.00653   0.00142  -0.00427   2.93621
   R12        2.90207  -0.00058   0.00618  -0.00559   0.00143   2.90350
   R13        2.06320   0.00083   0.00158   0.00287   0.00444   2.06764
   R14        2.06481   0.00139   0.00095   0.00230   0.00325   2.06806
   R15        2.08270  -0.00311  -0.00587  -0.00323  -0.00910   2.07360
   R16        2.07014   0.00029   0.00067  -0.00164  -0.00097   2.06917
    A1        1.93712  -0.00096  -0.01087  -0.00348  -0.01443   1.92269
    A2        1.94296  -0.00036   0.00120  -0.00191  -0.00132   1.94165
    A3        1.86992   0.00151   0.02343   0.00113   0.02570   1.89562
    A4        1.84361   0.00064   0.00151   0.00651   0.00821   1.85182
    A5        1.93452  -0.00070  -0.01137  -0.00218  -0.01365   1.92088
    A6        1.93697  -0.00020  -0.00510  -0.00021  -0.00575   1.93122
    A7        2.08058   0.00091   0.00139  -0.00077   0.00021   2.08079
    A8        2.08141  -0.00124  -0.00457   0.00551   0.00182   2.08323
    A9        2.12097   0.00032   0.00332  -0.00472  -0.00180   2.11917
   A10        2.08346   0.00188  -0.00576   0.01678   0.01184   2.09530
   A11        2.12714  -0.00085   0.00183  -0.00937  -0.00804   2.11910
   A12        2.06939  -0.00105   0.00461  -0.00913  -0.00489   2.06450
   A13        1.95121   0.00077  -0.00054  -0.00484  -0.00591   1.94530
   A14        1.86887   0.00027   0.00804  -0.00014   0.00654   1.87542
   A15        2.00037  -0.00191  -0.01537   0.00634  -0.00575   1.99462
   A16        1.84073  -0.00066   0.00266  -0.00388  -0.00082   1.83991
   A17        1.93816   0.00081  -0.00611   0.00268  -0.00502   1.93314
   A18        1.85300   0.00079   0.01414  -0.00097   0.01294   1.86594
   A19        1.97003  -0.00212   0.00801  -0.00367   0.00807   1.97810
   A20        1.95809   0.00017  -0.01550  -0.00007  -0.01660   1.94149
   A21        1.84578   0.00140   0.00825   0.00367   0.01071   1.85649
   A22        1.91237   0.00172   0.00448   0.00389   0.00687   1.91924
   A23        1.91168  -0.00061  -0.00310  -0.00312  -0.00689   1.90479
   A24        1.86124  -0.00054  -0.00257  -0.00074  -0.00273   1.85851
   A25        1.96006   0.00295   0.01158   0.00498   0.02149   1.98155
   A26        1.94203  -0.00020  -0.01862   0.00744  -0.01247   1.92956
   A27        1.88596  -0.00137   0.00303  -0.00386  -0.00249   1.88346
   A28        1.91112  -0.00204  -0.00474  -0.00806  -0.01469   1.89643
   A29        1.92721  -0.00050   0.00237  -0.00067   0.00068   1.92789
   A30        1.83323   0.00103   0.00596  -0.00012   0.00658   1.83981
    D1        1.80507   0.00018   0.00427  -0.03127  -0.02731   1.77775
    D2       -1.35892   0.00001   0.02436  -0.03026  -0.00575  -1.36467
    D3       -0.24322   0.00023   0.00852  -0.03596  -0.02755  -0.27077
    D4        2.87597   0.00005   0.02862  -0.03495  -0.00598   2.86999
    D5       -2.36391  -0.00029  -0.00146  -0.03528  -0.03651  -2.40042
    D6        0.75528  -0.00047   0.01863  -0.03427  -0.01494   0.74034
    D7       -1.06215   0.00135   0.08942  -0.01175   0.07703  -0.98512
    D8        3.05013   0.00057   0.08951  -0.01402   0.07472   3.12485
    D9        1.02769   0.00031   0.09571  -0.01527   0.08024   1.10793
   D10        1.05370   0.00071   0.08396  -0.01658   0.06732   1.12101
   D11       -1.11721  -0.00007   0.08405  -0.01885   0.06501  -1.05221
   D12       -3.13965  -0.00033   0.09025  -0.02010   0.07053  -3.06912
   D13        3.09658   0.00094   0.07577  -0.01000   0.06550  -3.12111
   D14        0.92567   0.00016   0.07586  -0.01227   0.06319   0.98886
   D15       -1.09676  -0.00010   0.08207  -0.01352   0.06871  -1.02805
   D16        0.10248   0.00104  -0.02922   0.00901  -0.02042   0.08205
   D17       -3.12622   0.00082  -0.01895  -0.01472  -0.03444   3.12252
   D18       -3.06205   0.00086  -0.00864   0.01010   0.00166  -3.06039
   D19       -0.00756   0.00065   0.00163  -0.01362  -0.01236  -0.01992
   D20       -2.90316   0.00024  -0.02617   0.05928   0.03195  -2.87122
   D21        1.37213   0.00047  -0.03383   0.06655   0.03224   1.40437
   D22       -0.67799   0.00042  -0.04772   0.06415   0.01505  -0.66295
   D23        0.32264   0.00045  -0.03600   0.08228   0.04573   0.36837
   D24       -1.68525   0.00067  -0.04366   0.08956   0.04602  -1.63923
   D25        2.54781   0.00062  -0.05755   0.08716   0.02882   2.57664
   D26        0.31693  -0.00098   0.14266  -0.10405   0.03816   0.35508
   D27       -1.83245  -0.00032   0.15430  -0.10271   0.05107  -1.78137
   D28        2.44679  -0.00066   0.15543  -0.10434   0.05129   2.49808
   D29        2.54872  -0.00081   0.12429  -0.10305   0.02093   2.56965
   D30        0.39935  -0.00015   0.13594  -0.10171   0.03384   0.43320
   D31       -1.60460  -0.00049   0.13706  -0.10335   0.03406  -1.57054
   D32       -1.74221  -0.00075   0.13220  -0.10685   0.02461  -1.71760
   D33        2.39160  -0.00009   0.14384  -0.10551   0.03753   2.42913
   D34        0.38765  -0.00043   0.14497  -0.10715   0.03774   0.42539
   D35        0.52620  -0.00093  -0.16391   0.07890  -0.08506   0.44113
   D36        2.69283  -0.00061  -0.18332   0.08609  -0.09702   2.59581
   D37       -1.58004  -0.00083  -0.17753   0.08091  -0.09716  -1.67719
   D38        2.72193  -0.00094  -0.17489   0.07910  -0.09557   2.62636
   D39       -1.39462  -0.00062  -0.19430   0.08629  -0.10753  -1.50215
   D40        0.61569  -0.00084  -0.18851   0.08111  -0.10766   0.50804
   D41       -1.52526  -0.00096  -0.17722   0.07865  -0.09891  -1.62417
   D42        0.64138  -0.00064  -0.19663   0.08584  -0.11087   0.53051
   D43        2.65169  -0.00086  -0.19084   0.08067  -0.11100   2.54069
         Item               Value     Threshold  Converged?
 Maximum Force            0.003108     0.000450     NO 
 RMS     Force            0.000954     0.000300     NO 
 Maximum Displacement     0.187788     0.001800     NO 
 RMS     Displacement     0.042760     0.001200     NO 
 Predicted change in Energy=-2.560956D-04
 GradGradGradGradGradGradGradGradGradGradGradGradGradGradGradGradGradGrad

 Leave Link  103 at Sat Jun 15 16:38:47 2024, MaxMem=   104857600 cpu:               1.7 elap:               1.0
 (Enter /mlatom/software/Gaussian/g16-avx2/l202.exe)
                          Input orientation:                          
 ---------------------------------------------------------------------
 Center     Atomic      Atomic             Coordinates (Angstroms)
 Number     Number       Type             X           Y           Z
 ---------------------------------------------------------------------
      1          6           0        0.563135   -0.359254    0.041460
      2          6           0       -0.631611   -1.052903   -0.554929
      3          1           0        0.547931   -0.452564    1.134883
      4          1           0        0.546000    0.714662   -0.171966
      5          1           0       -1.479683   -0.459840   -0.882891
      6          6           0       -0.626152   -2.388252   -0.670888
      7          6           0        0.519299   -3.188738   -0.111673
      8          1           0       -1.477128   -2.924269   -1.079976
      9          1           0        0.527228   -4.209714   -0.510216
     10          1           0        0.348262   -3.298325    0.971419
     11          6           0        1.837045   -1.003658   -0.524489
     12          6           0        1.910875   -2.519395   -0.284038
     13          1           0        2.735231   -0.518712   -0.130471
     14          1           0        1.827521   -0.811358   -1.601792
     15          1           0        2.459841   -2.980291   -1.114873
     16          1           0        2.502289   -2.736497    0.611525
 ---------------------------------------------------------------------
                    Distance matrix (angstroms):
                    1          2          3          4          5
     1  C    0.000000
     2  C    1.504741   0.000000
     3  H    1.097502   2.146436   0.000000
     4  H    1.095053   2.158174   1.752220   0.000000
     5  H    2.244470   1.085591   2.860538   2.447092   0.000000
     6  C    2.457372   1.340385   2.895888   3.354242   2.119488
     7  C    2.833963   2.466346   3.006886   3.903957   3.469523
     8  H    3.464043   2.119572   3.887902   4.261379   2.472299
     9  H    3.889945   3.363088   4.101579   4.936015   4.269441
    10  H    3.090167   2.886487   2.857436   4.177379   3.851863
    11  C    1.535709   2.469335   2.172334   2.178002   3.380070
    12  C    2.566819   2.947578   2.853549   3.512061   4.012016
    13  H    2.184717   3.435280   2.527801   2.513099   4.281950
    14  H    2.122110   2.683580   3.042280   2.452639   3.402644
    15  H    3.435758   3.685843   3.886670   4.266678   4.682557
    16  H    3.120349   3.743853   3.051191   4.043689   4.824163
                    6          7          8          9         10
     6  C    0.000000
     7  C    1.505177   0.000000
     8  H    1.085738   2.234563   0.000000
     9  H    2.161903   1.096034   2.448353   0.000000
    10  H    2.115394   1.101976   2.771315   1.748686   0.000000
    11  C    2.829465   2.584849   3.870537   3.463325   3.117645
    12  C    2.569701   1.553774   3.503713   2.196091   2.150503
    13  H    3.884086   3.469833   4.942897   4.317751   3.825967
    14  H    3.061648   3.095777   3.956942   3.798831   3.872289
    15  H    3.173482   2.194439   3.937522   2.368984   2.985385
    16  H    3.398971   2.158654   4.328070   2.707312   2.254995
                   11         12         13         14         15
    11  C    0.000000
    12  C    1.536466   0.000000
    13  H    1.094148   2.169303   0.000000
    14  H    1.094372   2.158891   1.753385   0.000000
    15  H    2.154880   1.097304   2.665381   2.311101   0.000000
    16  H    2.176191   1.094960   2.350189   3.010024   1.744044
                   16
    16  H    0.000000
 Stoichiometry    C6H10
 Framework group  C1[X(C6H10)]
 Deg. of freedom    42
 Full point group                 C1      NOp   1
 RotChk:  IX=0 Diff= 1.04D-01
 Largest Abelian subgroup         C1      NOp   1
 Largest concise Abelian subgroup C1      NOp   1
                         Standard orientation:                         
 ---------------------------------------------------------------------
 Center     Atomic      Atomic             Coordinates (Angstroms)
 Number     Number       Type             X           Y           Z
 ---------------------------------------------------------------------
      1          6           0        1.190401   -0.739251    0.367682
      2          6           0        1.308009    0.681945   -0.112542
      3          1           0        1.076749   -0.761588    1.459055
      4          1           0        2.098221   -1.309757    0.145137
      5          1           0        2.286608    1.075058   -0.370057
      6          6           0        0.203693    1.434795   -0.214217
      7          6           0       -1.122381    0.894270    0.249375
      8          1           0        0.252066    2.469317   -0.540178
      9          1           0       -1.956099    1.491483   -0.137333
     10          1           0       -1.162007    1.010357    1.344502
     11          6           0       -0.032017   -1.383454   -0.302466
     12          6           0       -1.338574   -0.614323   -0.053317
     13          1           0       -0.148455   -2.427087    0.004832
     14          1           0        0.176781   -1.397471   -1.376643
     15          1           0       -1.993009   -0.742511   -0.924729
     16          1           0       -1.885638   -1.051689    0.788329
 ---------------------------------------------------------------------
 Rotational constants (GHZ):           4.6783021           4.5585458           2.5941569
 Leave Link  202 at Sat Jun 15 16:38:48 2024, MaxMem=   104857600 cpu:               0.2 elap:               0.4
 (Enter /mlatom/software/Gaussian/g16-avx2/l301.exe)
 Standard basis: STO-3G (5D, 7F)
 Ernie: Thresh=  0.10000D-02 Tol=  0.10000D-05 Strict=F.
 There are    40 symmetry adapted cartesian basis functions of A   symmetry.
 There are    40 symmetry adapted basis functions of A   symmetry.
    40 basis functions,   120 primitive gaussians,    40 cartesian basis functions
    23 alpha electrons       23 beta electrons
       nuclear repulsion energy       236.6520206094 Hartrees.
 IExCor=    0 DFT=F Ex=HF Corr=None ExCW=0 ScaHFX=  1.000000
 ScaDFX=  1.000000  1.000000  1.000000  1.000000 ScalE2=  1.000000  1.000000
 IRadAn=      5 IRanWt=     -1 IRanGd=            0 ICorTp=0 IEmpDi=  4
 NAtoms=   16 NActive=   16 NUniq=   16 SFac= 1.00D+00 NAtFMM=   60 NAOKFM=F Big=F
 Integral buffers will be    131072 words long.
 Raffenetti 1 integral format.
 Two-electron integral symmetry is turned on.
 Leave Link  301 at Sat Jun 15 16:38:49 2024, MaxMem=   104857600 cpu:               0.3 elap:               0.5
 (Enter /mlatom/software/Gaussian/g16-avx2/l402.exe)
 External calculation of energy and first derivatives.
 Running external command "/mlatom/software/miniconda3/bin/python /mlatom/software/mlatom/mlatom/interfaces/gaussian_interface.py model_predict_kwargs R"
         input file       "/mlatom/home/qhzhang/git/ts-analysis/calculations/C60/irc/pro_opt/da_ani_opt_1/Gau-212676.EIn"
         output file      "/mlatom/home/qhzhang/git/ts-analysis/calculations/C60/irc/pro_opt/da_ani_opt_1/Gau-212676.EOu"
         message file     "/mlatom/home/qhzhang/git/ts-analysis/calculations/C60/irc/pro_opt/da_ani_opt_1/Gau-212676.EMs"
         fchk file        "/mlatom/home/qhzhang/git/ts-analysis/calculations/C60/irc/pro_opt/da_ani_opt_1/Gau-212676.EFC"
         mat. el file     "/mlatom/home/qhzhang/git/ts-analysis/calculations/C60/irc/pro_opt/da_ani_opt_1/Gau-212676.EUF"
model loaded from /mlatom/home/qhzhang/git/ts-analysis/calculations/C60/irc/pro_opt/da_ani_opt_1/da_energy_iteration27.npz
 Recovered energy= -234.658252039     dipole=      0.000000000000      0.000000000000      0.000000000000
 Energy=    -234.658252     NIter=   0.
 Dipole moment=       0.000000       0.000000       0.000000
 Leave Link  402 at Sat Jun 15 16:38:54 2024, MaxMem=   104857600 cpu:              13.5 elap:               5.0
 (Enter /mlatom/software/Gaussian/g16-avx2/l716.exe)
 Dipole        = 0.00000000D+00 0.00000000D+00 0.00000000D+00
 ***** Axes restored to original set *****
 -------------------------------------------------------------------
 Center     Atomic                   Forces (Hartrees/Bohr)
 Number     Number              X              Y              Z
 -------------------------------------------------------------------
      1        6           0.000437604   -0.000152555   -0.000923643
      2        6          -0.000030697    0.000663615   -0.000477763
      3        1           0.000174621    0.000524691    0.000432986
      4        1          -0.000164671    0.000107951    0.000219312
      5        1          -0.000072542   -0.000274994    0.000320375
      6        6          -0.000267955    0.000163105    0.000698256
      7        6           0.000759497   -0.000049500    0.000462323
      8        1           0.000231787   -0.000075799   -0.000510374
      9        1          -0.000140066   -0.000187499   -0.000176232
     10        1           0.000011602   -0.000994417   -0.000274664
     11        6           0.000544923    0.000625795   -0.000312753
     12        6          -0.001600340   -0.000367181   -0.000477133
     13        1          -0.000460835   -0.000121105    0.000116904
     14        1           0.000108882    0.000056412    0.000096652
     15        1          -0.000263012   -0.000260942    0.000263269
     16        1           0.000731200    0.000342421    0.000542490
 -------------------------------------------------------------------
 Cartesian Forces:  Max     0.001600340 RMS     0.000467220
 Leave Link  716 at Sat Jun 15 16:38:54 2024, MaxMem=   104857600 cpu:               0.3 elap:               0.5
 (Enter /mlatom/software/Gaussian/g16-avx2/l103.exe)

 GradGradGradGradGradGradGradGradGradGradGradGradGradGradGradGradGradGrad
 Berny optimization.
 FormGI is forming the generalized inverse of G from B-inverse, IUseBI=4.
 Internal  Forces:  Max     0.000906810 RMS     0.000294357
 Search for a local minimum.
 Step number  11 out of a maximum of   99
 All quantities printed in internal units (Hartrees-Bohrs-Radians)
 Update second derivatives using D2CorX and points   10    9   11
 DE= -2.38D-04 DEPred=-2.56D-04 R= 9.28D-01
 TightC=F SS=  1.41D+00  RLast= 7.85D-01 DXNew= 7.5825D-01 2.3535D+00
 Trust test= 9.28D-01 RLast= 7.85D-01 DXMaxT set to 7.58D-01
 ITU=  1 -1  1  1  1 -1  1  1  1  1  0
     Eigenvalues ---    0.00003   0.00622   0.01208   0.01589   0.02270
     Eigenvalues ---    0.02912   0.03188   0.03550   0.04520   0.04764
     Eigenvalues ---    0.05135   0.05725   0.06031   0.07229   0.08374
     Eigenvalues ---    0.08613   0.09035   0.09684   0.10425   0.11896
     Eigenvalues ---    0.12905   0.15851   0.16018   0.20063   0.20780
     Eigenvalues ---    0.23954   0.27035   0.27278   0.28421   0.30477
     Eigenvalues ---    0.32202   0.33180   0.33700   0.33823   0.34169
     Eigenvalues ---    0.34238   0.34382   0.35198   0.35437   0.36051
     Eigenvalues ---    0.47582   0.55323
 Eigenvalue     1 is   2.78D-05 Eigenvector:
                          D28       D34       D27       D33       D42
   1                   -0.23058  -0.22972  -0.22765  -0.22678   0.22385
                          D39       D26       D32       D31       D36
   1                    0.22256  -0.22206  -0.22120  -0.22032   0.21741
 Quadratic step=3.315D+00 exceeds max=7.583D-01 adjusted using Lamda=-3.378D-04.
 Angle between NR and scaled steps=   2.48 degrees.
 Angle between quadratic step and forces=  81.64 degrees.
 Skip linear search -- no minimum in search direction.
 Iteration  1 RMS(Cart)=  0.07814658 RMS(Int)=  0.00333459
 Iteration  2 RMS(Cart)=  0.00406755 RMS(Int)=  0.00089009
 Iteration  3 RMS(Cart)=  0.00000348 RMS(Int)=  0.00089008
 Iteration  4 RMS(Cart)=  0.00000000 RMS(Int)=  0.00089008
 ITry= 1 IFail=0 DXMaxC= 2.85D-01 DCOld= 1.00D+10 DXMaxT= 7.58D-01 DXLimC= 3.00D+00 Rises=F
 Variable       Old X    -DE/DX   Delta X   Delta X   Delta X     New X
                                 (Linear)    (Quad)   (Total)
    R1        2.84355   0.00024   0.00000  -0.00134  -0.00088   2.84267
    R2        2.07398   0.00038   0.00000  -0.00181  -0.00181   2.07216
    R3        2.06935   0.00007   0.00000  -0.00013  -0.00013   2.06922
    R4        2.90207  -0.00021   0.00000  -0.00534  -0.00494   2.89713
    R5        2.05147  -0.00019   0.00000   0.00115   0.00115   2.05262
    R6        2.53296   0.00067   0.00000  -0.00090  -0.00040   2.53256
    R7        2.84437   0.00042   0.00000  -0.00427  -0.00414   2.84023
    R8        2.05175   0.00005   0.00000   0.00199   0.00199   2.05374
    R9        2.07120   0.00024   0.00000   0.00353   0.00353   2.07474
   R10        2.08243  -0.00017   0.00000   0.00213   0.00213   2.08457
   R11        2.93621  -0.00041   0.00000   0.00265   0.00190   2.93811
   R12        2.90350   0.00074   0.00000  -0.00561  -0.00627   2.89723
   R13        2.06764  -0.00039   0.00000   0.00216   0.00216   2.06980
   R14        2.06806  -0.00009   0.00000   0.00158   0.00158   2.06964
   R15        2.07360  -0.00022   0.00000  -0.00212  -0.00212   2.07149
   R16        2.06917   0.00077   0.00000  -0.00066  -0.00066   2.06851
    A1        1.92269   0.00029   0.00000   0.00244   0.00217   1.92486
    A2        1.94165   0.00011   0.00000  -0.00282  -0.00219   1.93945
    A3        1.89562  -0.00048   0.00000  -0.00603  -0.00661   1.88901
    A4        1.85182  -0.00031   0.00000   0.00388   0.00380   1.85561
    A5        1.92088   0.00008   0.00000   0.00007   0.00016   1.92104
    A6        1.93122   0.00033   0.00000   0.00275   0.00296   1.93418
    A7        2.08079   0.00011   0.00000  -0.00121  -0.00059   2.08020
    A8        2.08323   0.00013   0.00000   0.00974   0.00847   2.09170
    A9        2.11917  -0.00024   0.00000  -0.00853  -0.00791   2.11126
   A10        2.09530   0.00047   0.00000   0.02264   0.02110   2.11640
   A11        2.11910  -0.00011   0.00000  -0.01145  -0.01070   2.10840
   A12        2.06450  -0.00033   0.00000  -0.01273  -0.01204   2.05246
   A13        1.94530   0.00027   0.00000  -0.00644  -0.00556   1.93974
   A14        1.87542   0.00030   0.00000  -0.00134  -0.00012   1.87530
   A15        1.99462  -0.00091   0.00000   0.01096   0.00745   2.00207
   A16        1.83991  -0.00042   0.00000  -0.00694  -0.00739   1.83252
   A17        1.93314   0.00030   0.00000   0.00392   0.00538   1.93853
   A18        1.86594   0.00050   0.00000  -0.00166  -0.00112   1.86482
   A19        1.97810   0.00008   0.00000  -0.00547  -0.00824   1.96987
   A20        1.94149  -0.00016   0.00000   0.00248   0.00315   1.94465
   A21        1.85649  -0.00001   0.00000   0.00103   0.00202   1.85852
   A22        1.91924   0.00013   0.00000   0.00253   0.00386   1.92310
   A23        1.90479  -0.00010   0.00000  -0.00209  -0.00180   1.90300
   A24        1.85851   0.00004   0.00000   0.00178   0.00135   1.85986
   A25        1.98155   0.00069   0.00000   0.00558   0.00121   1.98276
   A26        1.92956  -0.00048   0.00000   0.01045   0.01158   1.94114
   A27        1.88346   0.00019   0.00000  -0.00285  -0.00129   1.88217
   A28        1.89643  -0.00011   0.00000  -0.00883  -0.00723   1.88920
   A29        1.92789  -0.00042   0.00000  -0.00233  -0.00133   1.92656
   A30        1.83981   0.00008   0.00000  -0.00248  -0.00317   1.83664
    D1        1.77775  -0.00005   0.00000  -0.04184  -0.04166   1.73610
    D2       -1.36467  -0.00010   0.00000  -0.04771  -0.04760  -1.41228
    D3       -0.27077   0.00008   0.00000  -0.04644  -0.04636  -0.31713
    D4        2.86999   0.00003   0.00000  -0.05230  -0.05231   2.81768
    D5       -2.40042  -0.00008   0.00000  -0.04403  -0.04427  -2.44469
    D6        0.74034  -0.00013   0.00000  -0.04990  -0.05022   0.69012
    D7       -0.98512   0.00015   0.00000  -0.03927  -0.03829  -1.02341
    D8        3.12485   0.00004   0.00000  -0.04041  -0.03958   3.08526
    D9        1.10793   0.00008   0.00000  -0.04438  -0.04398   1.06396
   D10        1.12101   0.00025   0.00000  -0.03999  -0.03965   1.08137
   D11       -1.05221   0.00014   0.00000  -0.04113  -0.04094  -1.09314
   D12       -3.06912   0.00017   0.00000  -0.04510  -0.04534  -3.11445
   D13       -3.12111   0.00011   0.00000  -0.03354  -0.03310   3.12899
   D14        0.98886   0.00000   0.00000  -0.03468  -0.03439   0.95447
   D15       -1.02805   0.00004   0.00000  -0.03865  -0.03878  -1.06683
   D16        0.08205   0.00019   0.00000   0.02109   0.02095   0.10300
   D17        3.12252   0.00045   0.00000   0.00224   0.00250   3.12503
   D18       -3.06039   0.00014   0.00000   0.01509   0.01490  -3.04550
   D19       -0.01992   0.00040   0.00000  -0.00376  -0.00355  -0.02347
   D20       -2.87122   0.00018   0.00000   0.08496   0.08582  -2.78540
   D21        1.40437   0.00037   0.00000   0.09748   0.09763   1.50200
   D22       -0.66295   0.00009   0.00000   0.09387   0.09460  -0.56834
   D23        0.36837  -0.00008   0.00000   0.10323   0.10369   0.47206
   D24       -1.63923   0.00011   0.00000   0.11575   0.11551  -1.52372
   D25        2.57664  -0.00017   0.00000   0.11214   0.11248   2.68912
   D26        0.35508  -0.00017   0.00000  -0.17309  -0.17272   0.18237
   D27       -1.78137  -0.00015   0.00000  -0.17345  -0.17291  -1.95428
   D28        2.49808  -0.00010   0.00000  -0.17443  -0.17454   2.32354
   D29        2.56965  -0.00027   0.00000  -0.16965  -0.16961   2.40004
   D30        0.43320  -0.00026   0.00000  -0.17001  -0.16980   0.26340
   D31       -1.57054  -0.00021   0.00000  -0.17099  -0.17143  -1.74197
   D32       -1.71760  -0.00034   0.00000  -0.17680  -0.17626  -1.89386
   D33        2.42913  -0.00033   0.00000  -0.17716  -0.17645   2.25268
   D34        0.42539  -0.00028   0.00000  -0.17814  -0.17808   0.24731
   D35        0.44113   0.00016   0.00000   0.14739   0.14755   0.58868
   D36        2.59581  -0.00007   0.00000   0.15818   0.15795   2.75376
   D37       -1.67719  -0.00026   0.00000   0.14888   0.14935  -1.52784
   D38        2.62636   0.00011   0.00000   0.14856   0.14856   2.77492
   D39       -1.50215  -0.00012   0.00000   0.15935   0.15896  -1.34319
   D40        0.50804  -0.00031   0.00000   0.15005   0.15036   0.65839
   D41       -1.62417   0.00018   0.00000   0.15093   0.15134  -1.47283
   D42        0.53051  -0.00005   0.00000   0.16172   0.16175   0.69225
   D43        2.54069  -0.00024   0.00000   0.15242   0.15314   2.69384
         Item               Value     Threshold  Converged?
 Maximum Force            0.000907     0.000450     NO 
 RMS     Force            0.000294     0.000300     YES
 Maximum Displacement     0.284799     0.001800     NO 
 RMS     Displacement     0.077903     0.001200     NO 
 Predicted change in Energy=-2.655535D-04
 GradGradGradGradGradGradGradGradGradGradGradGradGradGradGradGradGradGrad

 Leave Link  103 at Sat Jun 15 16:38:55 2024, MaxMem=   104857600 cpu:               1.6 elap:               0.9
 (Enter /mlatom/software/Gaussian/g16-avx2/l202.exe)
                          Input orientation:                          
 ---------------------------------------------------------------------
 Center     Atomic      Atomic             Coordinates (Angstroms)
 Number     Number       Type             X           Y           Z
 ---------------------------------------------------------------------
      1          6           0        0.580767   -0.342941    0.033828
      2          6           0       -0.631680   -1.042804   -0.516636
      3          1           0        0.595919   -0.412670    1.128046
      4          1           0        0.562696    0.725264   -0.206176
      5          1           0       -1.500600   -0.454818   -0.797848
      6          6           0       -0.624593   -2.375170   -0.660892
      7          6           0        0.523172   -3.207577   -0.162199
      8          1           0       -1.497396   -2.898271   -1.042597
      9          1           0        0.549235   -4.185323   -0.660925
     10          1           0        0.330474   -3.434050    0.900071
     11          6           0        1.828817   -1.012320   -0.553274
     12          6           0        1.910376   -2.508660   -0.229463
     13          1           0        2.744239   -0.505223   -0.229976
     14          1           0        1.768138   -0.884692   -1.639324
     15          1           0        2.559385   -2.985777   -0.972947
     16          1           0        2.411132   -2.664075    0.731399
 ---------------------------------------------------------------------
                    Distance matrix (angstroms):
                    1          2          3          4          5
     1  C    0.000000
     2  C    1.504276   0.000000
     3  H    1.096542   2.146869   0.000000
     4  H    1.094984   2.156151   1.753894   0.000000
     5  H    2.244168   1.086200   2.847145   2.449462   0.000000
     6  C    2.462820   1.340171   2.922560   3.350987   2.115159
     7  C    2.871913   2.479022   3.079210   3.933286   3.475253
     8  H    3.465135   2.113967   3.907924   4.251304   2.455682
     9  H    3.904815   3.360180   4.175585   4.931618   4.258784
    10  H    3.219934   2.941234   3.041573   4.310174   3.887362
    11  C    1.533097   2.460959   2.169436   2.177783   3.384619
    12  C    2.554902   2.948432   2.822021   3.503577   4.021950
    13  H    2.185530   3.430452   2.543240   2.504755   4.282953
    14  H    2.121977   2.654158   3.042242   2.469609   3.402576
    15  H    3.451537   3.763809   3.858788   4.283285   4.787472
    16  H    3.037187   3.666717   2.919100   3.972831   4.745636
                    6          7          8          9         10
     6  C    0.000000
     7  C    1.502984   0.000000
     8  H    1.086793   2.225638   0.000000
     9  H    2.157435   1.097905   2.447627   0.000000
    10  H    2.114234   1.103105   2.720685   1.746132   0.000000
    11  C    2.808588   2.583951   3.854860   3.422992   3.197189
    12  C    2.574882   1.554780   3.525037   2.202285   2.151344
    13  H    3.877038   3.498635   4.937459   4.306611   3.959961
    14  H    2.983959   3.021197   3.882562   3.652007   3.874871
    15  H    3.256982   2.202877   4.058322   2.361561   2.945706
    16  H    3.352248   2.158310   4.298662   2.778385   2.224960
                   11         12         13         14         15
    11  C    0.000000
    12  C    1.533147   0.000000
    13  H    1.095293   2.170044   0.000000
    14  H    1.095206   2.155275   1.755857   0.000000
    15  H    2.145784   1.096185   2.596021   2.341941   0.000000
    16  H    2.172043   1.094608   2.386597   3.033146   1.740767
                   16
    16  H    0.000000
 Stoichiometry    C6H10
 Framework group  C1[X(C6H10)]
 Deg. of freedom    42
 Full point group                 C1      NOp   1
 RotChk:  IX=0 Diff= 2.12D-01
 Largest Abelian subgroup         C1      NOp   1
 Largest concise Abelian subgroup C1      NOp   1
                         Standard orientation:                         
 ---------------------------------------------------------------------
 Center     Atomic      Atomic             Coordinates (Angstroms)
 Number     Number       Type             X           Y           Z
 ---------------------------------------------------------------------
      1          6           0        1.294576   -0.572505    0.352632
      2          6           0        1.197677    0.864790   -0.080544
      3          1           0        1.197480   -0.648570    1.442214
      4          1           0        2.272613   -0.995500    0.100621
      5          1           0        2.108852    1.416584   -0.292946
      6          6           0       -0.004376    1.443754   -0.206748
      7          6           0       -1.261474    0.728108    0.201315
      8          1           0       -0.091910    2.485487   -0.503816
      9          1           0       -2.142629    1.167416   -0.284452
     10          1           0       -1.409944    0.908983    1.279313
     11          6           0        0.168979   -1.356687   -0.331823
     12          6           0       -1.224906   -0.813661    0.003955
     13          1           0        0.225232   -2.424906   -0.096431
     14          1           0        0.337691   -1.265300   -1.410091
     15          1           0       -1.915633   -1.128928   -0.786694
     16          1           0       -1.604614   -1.278053    0.919559
 ---------------------------------------------------------------------
 Rotational constants (GHZ):           4.6820909           4.5617344           2.5835875
 Leave Link  202 at Sat Jun 15 16:38:56 2024, MaxMem=   104857600 cpu:               0.2 elap:               0.4
 (Enter /mlatom/software/Gaussian/g16-avx2/l301.exe)
 Standard basis: STO-3G (5D, 7F)
 Ernie: Thresh=  0.10000D-02 Tol=  0.10000D-05 Strict=F.
 There are    40 symmetry adapted cartesian basis functions of A   symmetry.
 There are    40 symmetry adapted basis functions of A   symmetry.
    40 basis functions,   120 primitive gaussians,    40 cartesian basis functions
    23 alpha electrons       23 beta electrons
       nuclear repulsion energy       236.6327412318 Hartrees.
 IExCor=    0 DFT=F Ex=HF Corr=None ExCW=0 ScaHFX=  1.000000
 ScaDFX=  1.000000  1.000000  1.000000  1.000000 ScalE2=  1.000000  1.000000
 IRadAn=      5 IRanWt=     -1 IRanGd=            0 ICorTp=0 IEmpDi=  4
 NAtoms=   16 NActive=   16 NUniq=   16 SFac= 1.00D+00 NAtFMM=   60 NAOKFM=F Big=F
 Integral buffers will be    131072 words long.
 Raffenetti 1 integral format.
 Two-electron integral symmetry is turned on.
 Leave Link  301 at Sat Jun 15 16:38:57 2024, MaxMem=   104857600 cpu:               0.3 elap:               0.5
 (Enter /mlatom/software/Gaussian/g16-avx2/l402.exe)
 External calculation of energy and first derivatives.
 Running external command "/mlatom/software/miniconda3/bin/python /mlatom/software/mlatom/mlatom/interfaces/gaussian_interface.py model_predict_kwargs R"
         input file       "/mlatom/home/qhzhang/git/ts-analysis/calculations/C60/irc/pro_opt/da_ani_opt_1/Gau-212676.EIn"
         output file      "/mlatom/home/qhzhang/git/ts-analysis/calculations/C60/irc/pro_opt/da_ani_opt_1/Gau-212676.EOu"
         message file     "/mlatom/home/qhzhang/git/ts-analysis/calculations/C60/irc/pro_opt/da_ani_opt_1/Gau-212676.EMs"
         fchk file        "/mlatom/home/qhzhang/git/ts-analysis/calculations/C60/irc/pro_opt/da_ani_opt_1/Gau-212676.EFC"
         mat. el file     "/mlatom/home/qhzhang/git/ts-analysis/calculations/C60/irc/pro_opt/da_ani_opt_1/Gau-212676.EUF"
model loaded from /mlatom/home/qhzhang/git/ts-analysis/calculations/C60/irc/pro_opt/da_ani_opt_1/da_energy_iteration27.npz
 Recovered energy= -234.658591130     dipole=      0.000000000000      0.000000000000      0.000000000000
 Energy=    -234.658591     NIter=   0.
 Dipole moment=       0.000000       0.000000       0.000000
 Leave Link  402 at Sat Jun 15 16:39:01 2024, MaxMem=   104857600 cpu:              11.5 elap:               4.4
 (Enter /mlatom/software/Gaussian/g16-avx2/l716.exe)
 Dipole        = 0.00000000D+00 0.00000000D+00 0.00000000D+00
 ***** Axes restored to original set *****
 -------------------------------------------------------------------
 Center     Atomic                   Forces (Hartrees/Bohr)
 Number     Number              X              Y              Z
 -------------------------------------------------------------------
      1        6           0.000606660    0.000433530   -0.001465596
      2        6          -0.000182240    0.000069732   -0.000929769
      3        1           0.000050221    0.001089504    0.000795479
      4        1          -0.000462104    0.000140072    0.000231495
      5        1          -0.000014452   -0.000202229    0.000518682
      6        6          -0.001836392    0.000717331    0.001224654
      7        6           0.001212695   -0.001618832    0.001187254
      8        1           0.001106359    0.000185532   -0.000681173
      9        1          -0.000660188    0.000629210   -0.000019906
     10        1           0.000467541   -0.001815560   -0.001029498
     11        6           0.000719535    0.000674377    0.000102944
     12        6          -0.001657657    0.000018516   -0.000331302
     13        1          -0.000880135   -0.000740585    0.000391472
     14        1           0.000754116    0.000350732   -0.000102820
     15        1          -0.000113316   -0.001361732   -0.000591536
     16        1           0.000889359    0.001430405    0.000699617
 -------------------------------------------------------------------
 Cartesian Forces:  Max     0.001836392 RMS     0.000861270
 Leave Link  716 at Sat Jun 15 16:39:02 2024, MaxMem=   104857600 cpu:               0.3 elap:               0.5
 (Enter /mlatom/software/Gaussian/g16-avx2/l103.exe)

 GradGradGradGradGradGradGradGradGradGradGradGradGradGradGradGradGradGrad
 Berny optimization.
 FormGI is forming the generalized inverse of G from B-inverse, IUseBI=4.
 Internal  Forces:  Max     0.001580823 RMS     0.000559749
 Search for a local minimum.
 Step number  12 out of a maximum of   99
 All quantities printed in internal units (Hartrees-Bohrs-Radians)
 Update second derivatives using D2CorX and points   10   11   12
 DE= -3.39D-04 DEPred=-2.66D-04 R= 1.28D+00
 TightC=F SS=  1.41D+00  RLast= 7.58D-01 DXNew= 1.2752D+00 2.2745D+00
 Trust test= 1.28D+00 RLast= 7.58D-01 DXMaxT set to 1.28D+00
 ITU=  1  1 -1  1  1  1 -1  1  1  1  1  0
     Eigenvalues ---   -0.09643   0.00000   0.00768   0.01240   0.01640
     Eigenvalues ---    0.02555   0.03133   0.03281   0.04205   0.04511
     Eigenvalues ---    0.05073   0.05569   0.05816   0.06777   0.07881
     Eigenvalues ---    0.08515   0.08670   0.09353   0.09732   0.11706
     Eigenvalues ---    0.12321   0.15645   0.15911   0.17998   0.20187
     Eigenvalues ---    0.21300   0.26433   0.26870   0.27412   0.28989
     Eigenvalues ---    0.30924   0.32712   0.33118   0.33703   0.34046
     Eigenvalues ---    0.34161   0.34258   0.34961   0.35240   0.35655
     Eigenvalues ---    0.37723   0.54546
 Eigenvalue     1 is  -9.64D-02 should be greater than     0.000000 Eigenvector:
                          D34       D31       D42       D36       D21
   1                    0.27790   0.25538   0.24973   0.20184  -0.18833
                          D33       A29       D43       D30       D41
   1                    0.18661   0.18344   0.17768   0.16409   0.16351
 Eigenvalue     2 is   4.24D-06 Eigenvector:
                          D34       D28       D33       D27       D42
   1                    0.22915   0.22803   0.22592   0.22480  -0.22462
                          D32       D26       D31       D39       D30
   1                    0.22453   0.22341   0.22156  -0.21886   0.21833
 Quadratic step=3.755D+00 exceeds max=1.275D+00 adjusted using Lamda=-1.947D-04.
 Angle between NR and scaled steps=   2.29 degrees.
 Angle between quadratic step and forces=  83.67 degrees.
 Skip linear search -- no minimum in search direction.
 Iteration  1 RMS(Cart)=  0.10012066 RMS(Int)=  0.03645713
 Iteration  2 RMS(Cart)=  0.03400669 RMS(Int)=  0.00267751
 Iteration  3 RMS(Cart)=  0.00085766 RMS(Int)=  0.00257416
 Iteration  4 RMS(Cart)=  0.00000043 RMS(Int)=  0.00257416
 ITry= 1 IFail=0 DXMaxC= 4.96D-01 DCOld= 1.00D+10 DXMaxT= 1.28D+00 DXLimC= 3.00D+00 Rises=F
 Variable       Old X    -DE/DX   Delta X   Delta X   Delta X     New X
                                 (Linear)    (Quad)   (Total)
    R1        2.84267   0.00063   0.00000   0.00289   0.00402   2.84669
    R2        2.07216   0.00073   0.00000   0.00359   0.00359   2.07576
    R3        2.06922   0.00009   0.00000   0.00086   0.00086   2.07008
    R4        2.89713   0.00032   0.00000  -0.00232  -0.00133   2.89580
    R5        2.05262  -0.00023   0.00000   0.00055   0.00055   2.05317
    R6        2.53256   0.00076   0.00000   0.00261   0.00409   2.53665
    R7        2.84023   0.00144   0.00000   0.00615   0.00693   2.84716
    R8        2.05374  -0.00074   0.00000  -0.00464  -0.00464   2.04910
    R9        2.07474  -0.00057   0.00000  -0.00202  -0.00202   2.07272
   R10        2.08457  -0.00070   0.00000  -0.00235  -0.00235   2.08222
   R11        2.93811   0.00012   0.00000   0.00543   0.00365   2.94176
   R12        2.89723   0.00091   0.00000  -0.00497  -0.00734   2.88989
   R13        2.06980  -0.00096   0.00000  -0.00154  -0.00154   2.06826
   R14        2.06964   0.00010   0.00000   0.00244   0.00244   2.07208
   R15        2.07149   0.00093   0.00000   0.00718   0.00718   2.07867
   R16        2.06851   0.00082   0.00000   0.00098   0.00098   2.06949
    A1        1.92486   0.00024   0.00000   0.00871   0.00758   1.93244
    A2        1.93945   0.00024   0.00000  -0.00091   0.00123   1.94069
    A3        1.88901  -0.00092   0.00000  -0.02401  -0.02544   1.86357
    A4        1.85561  -0.00058   0.00000  -0.00458  -0.00487   1.85074
    A5        1.92104   0.00040   0.00000   0.00722   0.00749   1.92853
    A6        1.93418   0.00066   0.00000   0.01453   0.01500   1.94918
    A7        2.08020  -0.00014   0.00000  -0.00097   0.00076   2.08096
    A8        2.09170   0.00034   0.00000   0.01188   0.00821   2.09991
    A9        2.11126  -0.00020   0.00000  -0.01104  -0.00931   2.10195
   A10        2.11640   0.00088   0.00000   0.03550   0.03188   2.14828
   A11        2.10840  -0.00013   0.00000  -0.01246  -0.01053   2.09787
   A12        2.05246  -0.00069   0.00000  -0.02265  -0.02086   2.03160
   A13        1.93974   0.00019   0.00000  -0.00833  -0.00637   1.93337
   A14        1.87530   0.00078   0.00000   0.00887   0.01281   1.88811
   A15        2.00207  -0.00158   0.00000  -0.00537  -0.01454   1.98753
   A16        1.83252  -0.00079   0.00000  -0.02104  -0.02220   1.81032
   A17        1.93853   0.00082   0.00000   0.02093   0.02476   1.96328
   A18        1.86482   0.00068   0.00000   0.00341   0.00490   1.86972
   A19        1.96987   0.00056   0.00000  -0.01936  -0.02790   1.94196
   A20        1.94465  -0.00009   0.00000   0.01306   0.01507   1.95971
   A21        1.85852  -0.00010   0.00000   0.00231   0.00526   1.86378
   A22        1.92310  -0.00020   0.00000   0.00625   0.01068   1.93378
   A23        1.90300  -0.00026   0.00000  -0.00408  -0.00348   1.89951
   A24        1.85986   0.00005   0.00000   0.00248   0.00113   1.86099
   A25        1.98276   0.00093   0.00000  -0.00504  -0.01747   1.96529
   A26        1.94114  -0.00099   0.00000   0.00830   0.01130   1.95243
   A27        1.88217   0.00060   0.00000   0.01164   0.01602   1.89819
   A28        1.88920   0.00017   0.00000  -0.00027   0.00508   1.89427
   A29        1.92656  -0.00106   0.00000  -0.01192  -0.00950   1.91706
   A30        1.83664   0.00028   0.00000  -0.00277  -0.00480   1.83184
    D1        1.73610  -0.00027   0.00000  -0.05566  -0.05516   1.68094
    D2       -1.41228  -0.00027   0.00000  -0.07777  -0.07727  -1.48955
    D3       -0.31713   0.00015   0.00000  -0.05491  -0.05467  -0.37181
    D4        2.81768   0.00014   0.00000  -0.07702  -0.07679   2.74089
    D5       -2.44469  -0.00021   0.00000  -0.05655  -0.05734  -2.50203
    D6        0.69012  -0.00021   0.00000  -0.07866  -0.07945   0.61067
    D7       -1.02341   0.00044   0.00000  -0.08030  -0.07685  -1.10026
    D8        3.08526   0.00034   0.00000  -0.08397  -0.08117   3.00410
    D9        1.06396   0.00038   0.00000  -0.09503  -0.09363   0.97033
   D10        1.08137   0.00040   0.00000  -0.08020  -0.07892   1.00245
   D11       -1.09314   0.00030   0.00000  -0.08387  -0.08323  -1.17637
   D12       -3.11445   0.00034   0.00000  -0.09494  -0.09569   3.07304
   D13        3.12899   0.00033   0.00000  -0.07255  -0.07093   3.05806
   D14        0.95447   0.00023   0.00000  -0.07622  -0.07524   0.87923
   D15       -1.06683   0.00027   0.00000  -0.08729  -0.08770  -1.15454
   D16        0.10300  -0.00002   0.00000   0.04524   0.04442   0.14743
   D17        3.12503   0.00059   0.00000   0.04756   0.04801  -3.11014
   D18       -3.04550  -0.00002   0.00000   0.02276   0.02208  -3.02341
   D19       -0.02347   0.00059   0.00000   0.02509   0.02567   0.00220
   D20       -2.78540   0.00025   0.00000   0.12553   0.12800  -2.65741
   D21        1.50200   0.00065   0.00000   0.14990   0.15056   1.65256
   D22       -0.56834   0.00023   0.00000   0.14271   0.14448  -0.42386
   D23        0.47206  -0.00037   0.00000   0.12277   0.12402   0.59608
   D24       -1.52372   0.00003   0.00000   0.14714   0.14659  -1.37714
   D25        2.68912  -0.00040   0.00000   0.13995   0.14051   2.82963
   D26        0.18237  -0.00009   0.00000  -0.28451  -0.28203  -0.09967
   D27       -1.95428  -0.00024   0.00000  -0.28678  -0.28433  -2.23861
   D28        2.32354  -0.00039   0.00000  -0.29462  -0.29424   2.02930
   D29        2.40004  -0.00044   0.00000  -0.28229  -0.28161   2.11843
   D30        0.26340  -0.00059   0.00000  -0.28456  -0.28391  -0.02051
   D31       -1.74197  -0.00074   0.00000  -0.29240  -0.29382  -2.03579
   D32       -1.89386  -0.00058   0.00000  -0.29477  -0.29267  -2.18653
   D33        2.25268  -0.00073   0.00000  -0.29704  -0.29497   1.95771
   D34        0.24731  -0.00089   0.00000  -0.30488  -0.30487  -0.05756
   D35        0.58868   0.00006   0.00000   0.26021   0.26060   0.84929
   D36        2.75376  -0.00044   0.00000   0.26725   0.26683   3.02059
   D37       -1.52784  -0.00058   0.00000   0.25743   0.25888  -1.26897
   D38        2.77492   0.00022   0.00000   0.26779   0.26768   3.04259
   D39       -1.34319  -0.00029   0.00000   0.27482   0.27391  -1.06928
   D40        0.65839  -0.00043   0.00000   0.26501   0.26595   0.92434
   D41       -1.47283   0.00001   0.00000   0.27196   0.27310  -1.19973
   D42        0.69225  -0.00050   0.00000   0.27900   0.27933   0.97158
   D43        2.69384  -0.00063   0.00000   0.26918   0.27137   2.96521
         Item               Value     Threshold  Converged?
 Maximum Force            0.001581     0.000450     NO 
 RMS     Force            0.000560     0.000300     NO 
 Maximum Displacement     0.495716     0.001800     NO 
 RMS     Displacement     0.130612     0.001200     NO 
 Predicted change in Energy=-7.476873D-04
 GradGradGradGradGradGradGradGradGradGradGradGradGradGradGradGradGradGrad

 Leave Link  103 at Sat Jun 15 16:39:03 2024, MaxMem=   104857600 cpu:               1.6 elap:               0.9
 (Enter /mlatom/software/Gaussian/g16-avx2/l202.exe)
                          Input orientation:                          
 ---------------------------------------------------------------------
 Center     Atomic      Atomic             Coordinates (Angstroms)
 Number     Number       Type             X           Y           Z
 ---------------------------------------------------------------------
      1          6           0        0.613895   -0.317589    0.030913
      2          6           0       -0.625865   -1.026229   -0.448753
      3          1           0        0.683262   -0.354403    1.126545
      4          1           0        0.590894    0.744739   -0.235385
      5          1           0       -1.520616   -0.446693   -0.658560
      6          6           0       -0.613850   -2.353899   -0.646278
      7          6           0        0.537669   -3.235748   -0.238427
      8          1           0       -1.498505   -2.857847   -1.019383
      9          1           0        0.594313   -4.123319   -0.880346
     10          1           0        0.318090   -3.648372    0.759385
     11          6           0        1.808241   -1.035315   -0.606768
     12          6           0        1.898826   -2.487386   -0.135673
     13          1           0        2.751564   -0.509541   -0.429045
     14          1           0        1.642382   -1.024488   -1.690593
     15          1           0        2.688682   -2.992877   -0.710625
     16          1           0        2.241102   -2.520140    0.904078
 ---------------------------------------------------------------------
                    Distance matrix (angstroms):
                    1          2          3          4          5
     1  C    0.000000
     2  C    1.506405   0.000000
     3  H    1.098443   2.155627   0.000000
     4  H    1.095438   2.159249   1.752570   0.000000
     5  H    2.246815   1.086490   2.837639   2.461109   0.000000
     6  C    2.472349   1.342337   2.970418   3.349895   2.111826
     7  C    2.931554   2.505997   3.191628   3.980844   3.491687
     8  H    3.466738   2.107592   3.953776   4.237790   2.438103
     9  H    3.913357   3.356646   4.270860   4.910598   4.247316
    10  H    3.422322   3.037479   3.334424   4.512584   3.955016
    11  C    1.532394   2.439246   2.175683   2.188253   3.380894
    12  C    2.527215   2.933780   2.760508   3.488160   4.016269
    13  H    2.195002   3.416779   2.592644   2.505837   4.278802
    14  H    2.126282   2.585945   3.050441   2.520599   3.376906
    15  H    3.465803   3.862966   3.789254   4.312347   4.919751
    16  H    2.874275   3.504486   2.677083   3.831580   4.570727
                    6          7          8          9         10
     6  C    0.000000
     7  C    1.506651   0.000000
     8  H    1.084336   2.213302   0.000000
     9  H    2.155294   1.096837   2.449619   0.000000
    10  H    2.126043   1.101862   2.662510   1.729332   0.000000
    11  C    2.758034   2.567476   3.798216   3.329299   3.303784
    12  C    2.567504   1.556712   3.529878   2.220939   2.155862
    13  H    3.843808   3.517083   4.891434   4.232823   4.145650
    14  H    2.819310   2.866853   3.698228   3.370118   3.826343
    15  H    3.364395   2.215585   4.200726   2.386019   2.865364
    16  H    3.252998   2.172349   4.218817   2.909685   2.234238
                   11         12         13         14         15
    11  C    0.000000
    12  C    1.529263   0.000000
    13  H    1.094478   2.173729   0.000000
    14  H    1.096495   2.150258   1.756975   0.000000
    15  H    2.148956   1.099984   2.500039   2.435084   0.000000
    16  H    2.162113   1.095130   2.465826   3.054138   1.740999
                   16
    16  H    0.000000
 Stoichiometry    C6H10
 Framework group  C1[X(C6H10)]
 Deg. of freedom    42
 Full point group                 C1      NOp   1
 RotChk:  IX=0 Diff= 2.35D-01
 Largest Abelian subgroup         C1      NOp   1
 Largest concise Abelian subgroup C1      NOp   1
                         Standard orientation:                         
 ---------------------------------------------------------------------
 Center     Atomic      Atomic             Coordinates (Angstroms)
 Number     Number       Type             X           Y           Z
 ---------------------------------------------------------------------
      1          6           0        1.387270   -0.385377    0.328311
      2          6           0        1.049353    1.039419   -0.025278
      3          1           0        1.330862   -0.540138    1.414333
      4          1           0        2.415096   -0.631743    0.040453
      5          1           0        1.853791    1.755248   -0.169946
      6          6           0       -0.229672    1.411012   -0.192258
      7          6           0       -1.395909    0.514793    0.134358
      8          1           0       -0.469097    2.430002   -0.475313
      9          1           0       -2.263513    0.762516   -0.489299
     10          1           0       -1.733556    0.748811    1.156772
     11          6           0        0.368732   -1.273760   -0.393898
     12          6           0       -1.052694   -1.003249    0.101094
     13          1           0        0.613267   -2.337348   -0.311036
     14          1           0        0.426788   -1.020548   -1.459175
     15          1           0       -1.755660   -1.568502   -0.528423
     16          1           0       -1.180466   -1.415328    1.107659
 ---------------------------------------------------------------------
 Rotational constants (GHZ):           4.7328159           4.5324610           2.5897496
 Leave Link  202 at Sat Jun 15 16:39:04 2024, MaxMem=   104857600 cpu:               0.2 elap:               0.4
 (Enter /mlatom/software/Gaussian/g16-avx2/l301.exe)
 Standard basis: STO-3G (5D, 7F)
 Ernie: Thresh=  0.10000D-02 Tol=  0.10000D-05 Strict=F.
 There are    40 symmetry adapted cartesian basis functions of A   symmetry.
 There are    40 symmetry adapted basis functions of A   symmetry.
    40 basis functions,   120 primitive gaussians,    40 cartesian basis functions
    23 alpha electrons       23 beta electrons
       nuclear repulsion energy       236.7561162195 Hartrees.
 IExCor=    0 DFT=F Ex=HF Corr=None ExCW=0 ScaHFX=  1.000000
 ScaDFX=  1.000000  1.000000  1.000000  1.000000 ScalE2=  1.000000  1.000000
 IRadAn=      5 IRanWt=     -1 IRanGd=            0 ICorTp=0 IEmpDi=  4
 NAtoms=   16 NActive=   16 NUniq=   16 SFac= 1.00D+00 NAtFMM=   60 NAOKFM=F Big=F
 Integral buffers will be    131072 words long.
 Raffenetti 1 integral format.
 Two-electron integral symmetry is turned on.
 Leave Link  301 at Sat Jun 15 16:39:04 2024, MaxMem=   104857600 cpu:               0.3 elap:               0.5
 (Enter /mlatom/software/Gaussian/g16-avx2/l402.exe)
 External calculation of energy and first derivatives.
 Running external command "/mlatom/software/miniconda3/bin/python /mlatom/software/mlatom/mlatom/interfaces/gaussian_interface.py model_predict_kwargs R"
         input file       "/mlatom/home/qhzhang/git/ts-analysis/calculations/C60/irc/pro_opt/da_ani_opt_1/Gau-212676.EIn"
         output file      "/mlatom/home/qhzhang/git/ts-analysis/calculations/C60/irc/pro_opt/da_ani_opt_1/Gau-212676.EOu"
         message file     "/mlatom/home/qhzhang/git/ts-analysis/calculations/C60/irc/pro_opt/da_ani_opt_1/Gau-212676.EMs"
         fchk file        "/mlatom/home/qhzhang/git/ts-analysis/calculations/C60/irc/pro_opt/da_ani_opt_1/Gau-212676.EFC"
         mat. el file     "/mlatom/home/qhzhang/git/ts-analysis/calculations/C60/irc/pro_opt/da_ani_opt_1/Gau-212676.EUF"
model loaded from /mlatom/home/qhzhang/git/ts-analysis/calculations/C60/irc/pro_opt/da_ani_opt_1/da_energy_iteration27.npz
 Recovered energy= -234.659014651     dipole=      0.000000000000      0.000000000000      0.000000000000
 Energy=    -234.659015     NIter=   0.
 Dipole moment=       0.000000       0.000000       0.000000
 Leave Link  402 at Sat Jun 15 16:39:09 2024, MaxMem=   104857600 cpu:              11.2 elap:               4.3
 (Enter /mlatom/software/Gaussian/g16-avx2/l716.exe)
 Dipole        = 0.00000000D+00 0.00000000D+00 0.00000000D+00
 ***** Axes restored to original set *****
 -------------------------------------------------------------------
 Center     Atomic                   Forces (Hartrees/Bohr)
 Number     Number              X              Y              Z
 -------------------------------------------------------------------
      1        6           0.000157354   -0.000275505   -0.003433996
      2        6          -0.000193573   -0.002026058   -0.001234610
      3        1           0.000021779    0.000337951    0.000512143
      4        1          -0.001147934   -0.000042087   -0.000705336
      5        1          -0.000196420   -0.000067823    0.000858681
      6        6          -0.001629564    0.001250991    0.004364945
      7        6           0.001666815    0.001181301    0.002338802
      8        1          -0.000225943   -0.000010233   -0.000697341
      9        1          -0.000069813    0.001392770   -0.002803993
     10        1           0.000142649   -0.001764296   -0.000132586
     11        6           0.000873282    0.000417977    0.000978311
     12        6           0.000757739   -0.000738298   -0.001771981
     13        1          -0.000214245   -0.000269074    0.001601708
     14        1           0.002691270    0.000370473   -0.000102907
     15        1          -0.002595524   -0.001486574   -0.000154197
     16        1          -0.000037868    0.001728485    0.000382357
 -------------------------------------------------------------------
 Cartesian Forces:  Max     0.004364945 RMS     0.001408901
 Leave Link  716 at Sat Jun 15 16:39:09 2024, MaxMem=   104857600 cpu:               0.3 elap:               0.5
 (Enter /mlatom/software/Gaussian/g16-avx2/l103.exe)

 GradGradGradGradGradGradGradGradGradGradGradGradGradGradGradGradGradGrad
 Berny optimization.
 FormGI is forming the generalized inverse of G from B-inverse, IUseBI=4.
 Internal  Forces:  Max     0.001922073 RMS     0.000801845
 Search for a local minimum.
 Step number  13 out of a maximum of   99
 All quantities printed in internal units (Hartrees-Bohrs-Radians)
 Update second derivatives using D2CorX and points   12   13
 DE= -4.24D-04 DEPred=-7.48D-04 R= 5.66D-01
 TightC=F SS=  1.41D+00  RLast= 1.28D+00 DXNew= 2.1447D+00 3.8261D+00
 Trust test= 5.66D-01 RLast= 1.28D+00 DXMaxT set to 2.14D+00
 ITU=  1  1  1 -1  1  1  1 -1  1  1  1  1  0
     Eigenvalues ---    0.00028   0.00891   0.01264   0.01578   0.02325
     Eigenvalues ---    0.03141   0.03347   0.04246   0.04339   0.05117
     Eigenvalues ---    0.05333   0.05814   0.06580   0.07458   0.08121
     Eigenvalues ---    0.08421   0.09047   0.09650   0.11564   0.12206
     Eigenvalues ---    0.13957   0.15853   0.15992   0.19629   0.21662
     Eigenvalues ---    0.26288   0.26845   0.27597   0.28250   0.31173
     Eigenvalues ---    0.32335   0.32875   0.33673   0.34073   0.34141
     Eigenvalues ---    0.34286   0.34552   0.35268   0.35511   0.37037
     Eigenvalues ---    0.53394   2.34861
 Angle between quadratic step and forces=  86.10 degrees.
 Quartic linear search produced a step of -0.04077.
 Iteration  1 RMS(Cart)=  0.04377245 RMS(Int)=  0.00098064
 Iteration  2 RMS(Cart)=  0.00128971 RMS(Int)=  0.00019138
 Iteration  3 RMS(Cart)=  0.00000052 RMS(Int)=  0.00019138
 ITry= 1 IFail=0 DXMaxC= 1.76D-01 DCOld= 1.00D+10 DXMaxT= 2.14D+00 DXLimC= 3.00D+00 Rises=F
 Variable       Old X    -DE/DX   Delta X   Delta X   Delta X     New X
                                 (Linear)    (Quad)   (Total)
    R1        2.84669   0.00060  -0.00016   0.00554   0.00548   2.85218
    R2        2.07576   0.00050  -0.00015   0.00174   0.00159   2.07735
    R3        2.07008   0.00015  -0.00003   0.00012   0.00009   2.07016
    R4        2.89580   0.00058   0.00005  -0.00085  -0.00077   2.89504
    R5        2.05317  -0.00004  -0.00002  -0.00011  -0.00013   2.05303
    R6        2.53665  -0.00184  -0.00017  -0.00012  -0.00020   2.53645
    R7        2.84716   0.00029  -0.00028   0.00365   0.00337   2.85052
    R8        2.04910   0.00043   0.00019   0.00123   0.00142   2.05052
    R9        2.07272   0.00051   0.00008   0.00350   0.00358   2.07631
   R10        2.08222   0.00051   0.00010   0.00098   0.00108   2.08330
   R11        2.94176  -0.00082  -0.00015  -0.00426  -0.00453   2.93723
   R12        2.88989  -0.00028   0.00030  -0.00372  -0.00351   2.88638
   R13        2.06826  -0.00005   0.00006  -0.00360  -0.00353   2.06473
   R14        2.07208  -0.00030  -0.00010   0.00101   0.00091   2.07298
   R15        2.07867  -0.00110  -0.00029  -0.00261  -0.00290   2.07577
   R16        2.06949   0.00030  -0.00004   0.00483   0.00479   2.07428
    A1        1.93244  -0.00114  -0.00031  -0.00271  -0.00315   1.92929
    A2        1.94069  -0.00057  -0.00005   0.00066   0.00073   1.94142
    A3        1.86357   0.00162   0.00104  -0.00108  -0.00012   1.86344
    A4        1.85074   0.00030   0.00020  -0.00519  -0.00499   1.84575
    A5        1.92853  -0.00060  -0.00031  -0.00290  -0.00319   1.92534
    A6        1.94918   0.00032  -0.00061   0.01123   0.01063   1.95981
    A7        2.08096   0.00008  -0.00003   0.00249   0.00260   2.08356
    A8        2.09991  -0.00031  -0.00033   0.00318   0.00250   2.10241
    A9        2.10195   0.00024   0.00038  -0.00535  -0.00484   2.09711
   A10        2.14828  -0.00013  -0.00130   0.01117   0.00939   2.15767
   A11        2.09787   0.00003   0.00043  -0.00572  -0.00510   2.09277
   A12        2.03160   0.00020   0.00085  -0.00668  -0.00561   2.02599
   A13        1.93337  -0.00069   0.00026   0.00323   0.00378   1.93714
   A14        1.88811  -0.00032  -0.00052  -0.00258  -0.00288   1.88523
   A15        1.98753   0.00092   0.00059  -0.00813  -0.00830   1.97923
   A16        1.81032   0.00045   0.00091  -0.00225  -0.00146   1.80886
   A17        1.96328  -0.00032  -0.00101   0.00678   0.00596   1.96925
   A18        1.86972  -0.00007  -0.00020   0.00309   0.00312   1.87285
   A19        1.94196  -0.00080   0.00114  -0.01501  -0.01429   1.92767
   A20        1.95971   0.00067  -0.00061   0.00950   0.00901   1.96872
   A21        1.86378   0.00051  -0.00021  -0.00189  -0.00211   1.86167
   A22        1.93378   0.00047  -0.00044   0.01142   0.01128   1.94506
   A23        1.89951  -0.00050   0.00014  -0.00756  -0.00755   1.89196
   A24        1.86099  -0.00037  -0.00005   0.00324   0.00316   1.86415
   A25        1.96529   0.00046   0.00071  -0.00205  -0.00226   1.96303
   A26        1.95243  -0.00093  -0.00046   0.00032   0.00011   1.95254
   A27        1.89819  -0.00031  -0.00065   0.00837   0.00799   1.90618
   A28        1.89427   0.00040  -0.00021  -0.00187  -0.00178   1.89249
   A29        1.91706  -0.00030   0.00039   0.00726   0.00789   1.92495
   A30        1.83184   0.00069   0.00020  -0.01253  -0.01245   1.81939
    D1        1.68094  -0.00040   0.00225  -0.04450  -0.04228   1.63866
    D2       -1.48955  -0.00026   0.00315  -0.03198  -0.02872  -1.51827
    D3       -0.37181   0.00032   0.00223  -0.03674  -0.03455  -0.40636
    D4        2.74089   0.00046   0.00313  -0.02422  -0.02100   2.71989
    D5       -2.50203  -0.00078   0.00234  -0.05023  -0.04800  -2.55003
    D6        0.61067  -0.00064   0.00324  -0.03771  -0.03444   0.57622
    D7       -1.10026   0.00163   0.00313  -0.00826  -0.00482  -1.10509
    D8        3.00410   0.00112   0.00331  -0.01899  -0.01547   2.98862
    D9        0.97033   0.00089   0.00382  -0.02690  -0.02292   0.94741
   D10        1.00245   0.00090   0.00322  -0.01385  -0.01051   0.99194
   D11       -1.17637   0.00039   0.00339  -0.02459  -0.02116  -1.19753
   D12        3.07304   0.00016   0.00390  -0.03249  -0.02861   3.04444
   D13        3.05806   0.00109   0.00289  -0.01511  -0.01210   3.04595
   D14        0.87923   0.00057   0.00307  -0.02585  -0.02275   0.85648
   D15       -1.15454   0.00035   0.00358  -0.03375  -0.03020  -1.18474
   D16        0.14743  -0.00030  -0.00181   0.01204   0.01007   0.15749
   D17       -3.11014   0.00073  -0.00196  -0.00145  -0.00355  -3.11370
   D18       -3.02341  -0.00016  -0.00090   0.02485   0.02385  -2.99956
   D19        0.00220   0.00087  -0.00105   0.01135   0.01023   0.01244
   D20       -2.65741   0.00128  -0.00522   0.06183   0.05666  -2.60075
   D21        1.65256   0.00128  -0.00614   0.06425   0.05803   1.71059
   D22       -0.42386   0.00101  -0.00589   0.06718   0.06118  -0.36267
   D23        0.59608   0.00029  -0.00506   0.07485   0.06982   0.66590
   D24       -1.37714   0.00029  -0.00598   0.07727   0.07119  -1.30595
   D25        2.82963   0.00003  -0.00573   0.08020   0.07434   2.90397
   D26       -0.09967  -0.00071   0.01150  -0.11000  -0.09849  -0.19816
   D27       -2.23861  -0.00087   0.01159  -0.10626  -0.09456  -2.33317
   D28        2.02930  -0.00100   0.01200  -0.09626  -0.08428   1.94501
   D29        2.11843  -0.00116   0.01148  -0.10657  -0.09519   2.02324
   D30       -0.02051  -0.00132   0.01158  -0.10283  -0.09126  -0.11177
   D31       -2.03579  -0.00145   0.01198  -0.09283  -0.08099  -2.11677
   D32       -2.18653  -0.00082   0.01193  -0.10397  -0.09201  -2.27854
   D33        1.95771  -0.00099   0.01203  -0.10024  -0.08808   1.86963
   D34       -0.05756  -0.00112   0.01243  -0.09023  -0.07780  -0.13537
   D35        0.84929  -0.00134  -0.01063   0.08679   0.07621   0.92549
   D36        3.02059  -0.00192  -0.01088   0.08441   0.07348   3.09407
   D37       -1.26897  -0.00104  -0.01055   0.07235   0.06187  -1.20710
   D38        3.04259  -0.00070  -0.01091   0.09658   0.08569   3.12829
   D39       -1.06928  -0.00129  -0.01117   0.09420   0.08297  -0.98631
   D40        0.92434  -0.00041  -0.01084   0.08214   0.07136   0.99570
   D41       -1.19973  -0.00118  -0.01113   0.10255   0.09146  -1.10827
   D42        0.97158  -0.00177  -0.01139   0.10017   0.08873   1.06031
   D43        2.96521  -0.00089  -0.01106   0.08810   0.07712   3.04233
         Item               Value     Threshold  Converged?
 Maximum Force            0.001922     0.000450     NO 
 RMS     Force            0.000802     0.000300     NO 
 Maximum Displacement     0.176123     0.001800     NO 
 RMS     Displacement     0.043849     0.001200     NO 
 Predicted change in Energy=-1.105891D-04
 GradGradGradGradGradGradGradGradGradGradGradGradGradGradGradGradGradGrad

 Leave Link  103 at Sat Jun 15 16:39:10 2024, MaxMem=   104857600 cpu:               1.6 elap:               0.9
 (Enter /mlatom/software/Gaussian/g16-avx2/l202.exe)
                          Input orientation:                          
 ---------------------------------------------------------------------
 Center     Atomic      Atomic             Coordinates (Angstroms)
 Number     Number       Type             X           Y           Z
 ---------------------------------------------------------------------
      1          6           0        0.626793   -0.307755    0.019024
      2          6           0       -0.623697   -1.022813   -0.431507
      3          1           0        0.710169   -0.329937    1.114919
      4          1           0        0.598495    0.752340   -0.255715
      5          1           0       -1.533011   -0.452276   -0.598664
      6          6           0       -0.611193   -2.348426   -0.641701
      7          6           0        0.545285   -3.242373   -0.269163
      8          1           0       -1.508309   -2.849385   -0.990469
      9          1           0        0.622056   -4.094460   -0.958561
     10          1           0        0.314025   -3.712682    0.700727
     11          6           0        1.810115   -1.042053   -0.619363
     12          6           0        1.888301   -2.477641   -0.103668
     13          1           0        2.758161   -0.516365   -0.482773
     14          1           0        1.616599   -1.071890   -1.698722
     15          1           0        2.715059   -2.986678   -0.617425
     16          1           0        2.181235   -2.486713    0.954145
 ---------------------------------------------------------------------
                    Distance matrix (angstroms):
                    1          2          3          4          5
     1  C    0.000000
     2  C    1.509307   0.000000
     3  H    1.099286   2.156550   0.000000
     4  H    1.095483   2.162365   1.749981   0.000000
     5  H    2.251039   1.086419   2.825454   2.472253   0.000000
     6  C    2.476592   1.342233   2.984294   3.350684   2.108788
     7  C    2.949861   2.513826   3.228801   3.995090   3.494643
     8  H    3.469527   2.105076   3.962565   4.236851   2.429044
     9  H    3.910860   3.356293   4.298688   4.897552   4.247275
    10  H    3.486556   3.065399   3.430954   4.575164   3.966133
    11  C    1.531987   2.441127   2.173644   2.195475   3.394814
    12  C    2.512939   2.921324   2.735979   3.481306   4.006558
    13  H    2.199556   3.419952   2.604159   2.515019   4.293215
    14  H    2.124681   2.574328   3.047735   2.539019   3.393243
    15  H    3.455800   3.877966   3.752183   4.311720   4.946680
    16  H    2.835243   3.454081   2.615639   3.802669   4.510629
                    6          7          8          9         10
     6  C    0.000000
     7  C    1.508432   0.000000
     8  H    1.085087   2.211779   0.000000
     9  H    2.161003   1.098734   2.467728   0.000000
    10  H    2.125873   1.102433   2.631791   1.730282   0.000000
    11  C    2.751335   2.562001   3.796855   3.292982   3.333645
    12  C    2.560010   1.554316   3.530095   2.224483   2.156555
    13  H    3.838522   3.517608   4.889120   4.194291   4.194152
    14  H    2.776670   2.811112   3.664173   3.266938   3.798400
    15  H    3.387021   2.212371   4.242033   2.392534   2.833650
    16  H    3.219239   2.178035   4.186381   2.945223   2.248042
                   11         12         13         14         15
    11  C    0.000000
    12  C    1.527405   0.000000
    13  H    1.092609   2.178755   0.000000
    14  H    1.096975   2.143397   1.757925   0.000000
    15  H    2.144876   1.098450   2.474355   2.458095   0.000000
    16  H    2.168110   1.097662   2.505962   3.059124   1.733427
                   16
    16  H    0.000000
 Stoichiometry    C6H10
 Framework group  C1[X(C6H10)]
 Deg. of freedom    42
 Full point group                 C1      NOp   1
 RotChk:  IX=0 Diff= 6.68D-02
 Largest Abelian subgroup         C1      NOp   1
 Largest concise Abelian subgroup C1      NOp   1
                         Standard orientation:                         
 ---------------------------------------------------------------------
 Center     Atomic      Atomic             Coordinates (Angstroms)
 Number     Number       Type             X           Y           Z
 ---------------------------------------------------------------------
      1          6           0        1.410202   -0.331279    0.311144
      2          6           0        1.000854    1.085416   -0.010445
      3          1           0        1.375360   -0.506019    1.395893
      4          1           0        2.446648   -0.522374    0.012237
      5          1           0        1.765068    1.850765   -0.113043
      6          6           0       -0.292933    1.396589   -0.186160
      7          6           0       -1.427770    0.447395    0.108020
      8          1           0       -0.575037    2.412489   -0.442634
      9          1           0       -2.278308    0.630893   -0.562897
     10          1           0       -1.826632    0.691821    1.106280
     11          6           0        0.418962   -1.251781   -0.407956
     12          6           0       -0.993023   -1.044613    0.136423
     13          1           0        0.712201   -2.303539   -0.367850
     14          1           0        0.428722   -0.959858   -1.465329
     15          1           0       -1.682058   -1.682541   -0.433552
     16          1           0       -1.063720   -1.422001    1.164743
 ---------------------------------------------------------------------
 Rotational constants (GHZ):           4.7454511           4.5295578           2.5913111
 Leave Link  202 at Sat Jun 15 16:39:11 2024, MaxMem=   104857600 cpu:               0.2 elap:               0.4
 (Enter /mlatom/software/Gaussian/g16-avx2/l301.exe)
 Standard basis: STO-3G (5D, 7F)
 Ernie: Thresh=  0.10000D-02 Tol=  0.10000D-05 Strict=F.
 There are    40 symmetry adapted cartesian basis functions of A   symmetry.
 There are    40 symmetry adapted basis functions of A   symmetry.
    40 basis functions,   120 primitive gaussians,    40 cartesian basis functions
    23 alpha electrons       23 beta electrons
       nuclear repulsion energy       236.8160346844 Hartrees.
 IExCor=    0 DFT=F Ex=HF Corr=None ExCW=0 ScaHFX=  1.000000
 ScaDFX=  1.000000  1.000000  1.000000  1.000000 ScalE2=  1.000000  1.000000
 IRadAn=      5 IRanWt=     -1 IRanGd=            0 ICorTp=0 IEmpDi=  4
 NAtoms=   16 NActive=   16 NUniq=   16 SFac= 1.00D+00 NAtFMM=   60 NAOKFM=F Big=F
 Integral buffers will be    131072 words long.
 Raffenetti 1 integral format.
 Two-electron integral symmetry is turned on.
 Leave Link  301 at Sat Jun 15 16:39:12 2024, MaxMem=   104857600 cpu:               0.3 elap:               0.5
 (Enter /mlatom/software/Gaussian/g16-avx2/l402.exe)
 External calculation of energy and first derivatives.
 Running external command "/mlatom/software/miniconda3/bin/python /mlatom/software/mlatom/mlatom/interfaces/gaussian_interface.py model_predict_kwargs R"
         input file       "/mlatom/home/qhzhang/git/ts-analysis/calculations/C60/irc/pro_opt/da_ani_opt_1/Gau-212676.EIn"
         output file      "/mlatom/home/qhzhang/git/ts-analysis/calculations/C60/irc/pro_opt/da_ani_opt_1/Gau-212676.EOu"
         message file     "/mlatom/home/qhzhang/git/ts-analysis/calculations/C60/irc/pro_opt/da_ani_opt_1/Gau-212676.EMs"
         fchk file        "/mlatom/home/qhzhang/git/ts-analysis/calculations/C60/irc/pro_opt/da_ani_opt_1/Gau-212676.EFC"
         mat. el file     "/mlatom/home/qhzhang/git/ts-analysis/calculations/C60/irc/pro_opt/da_ani_opt_1/Gau-212676.EUF"
model loaded from /mlatom/home/qhzhang/git/ts-analysis/calculations/C60/irc/pro_opt/da_ani_opt_1/da_energy_iteration27.npz
 Recovered energy= -234.659165793     dipole=      0.000000000000      0.000000000000      0.000000000000
 Energy=    -234.659166     NIter=   0.
 Dipole moment=       0.000000       0.000000       0.000000
 Leave Link  402 at Sat Jun 15 16:39:17 2024, MaxMem=   104857600 cpu:              13.3 elap:               4.9
 (Enter /mlatom/software/Gaussian/g16-avx2/l716.exe)
 Dipole        = 0.00000000D+00 0.00000000D+00 0.00000000D+00
 ***** Axes restored to original set *****
 -------------------------------------------------------------------
 Center     Atomic                   Forces (Hartrees/Bohr)
 Number     Number              X              Y              Z
 -------------------------------------------------------------------
      1        6          -0.000917219   -0.000460949   -0.003023696
      2        6           0.001324868   -0.001951353   -0.000358574
      3        1          -0.000252603    0.000366692    0.000242542
      4        1          -0.001109246   -0.000181684   -0.001268997
      5        1           0.000150042    0.000360151    0.000488109
      6        6          -0.002488622   -0.000282077    0.005409308
      7        6           0.000998647    0.002227605    0.002843117
      8        1           0.000313311    0.000152972   -0.000878523
      9        1          -0.000266757    0.002808291   -0.002673345
     10        1           0.000461821   -0.002036186   -0.000727633
     11        6          -0.002168797   -0.000077910   -0.000047226
     12        6           0.003330655   -0.001615023   -0.000541923
     13        1           0.000682803    0.000032623    0.002305635
     14        1           0.003719167    0.000558041    0.000265571
     15        1          -0.002275661   -0.002636937   -0.001256705
     16        1          -0.001502412    0.002735747   -0.000777656
 -------------------------------------------------------------------
 Cartesian Forces:  Max     0.005409308 RMS     0.001783224
 Leave Link  716 at Sat Jun 15 16:39:17 2024, MaxMem=   104857600 cpu:               0.6 elap:               0.6
 (Enter /mlatom/software/Gaussian/g16-avx2/l103.exe)

 GradGradGradGradGradGradGradGradGradGradGradGradGradGradGradGradGradGrad
 Berny optimization.
 FormGI is forming the generalized inverse of G from B-inverse, IUseBI=4.
 Internal  Forces:  Max     0.002533573 RMS     0.000974884
 Search for a local minimum.
 Step number  14 out of a maximum of   99
 All quantities printed in internal units (Hartrees-Bohrs-Radians)
 Update second derivatives using D2CorX and points   13   14
 DE= -1.51D-04 DEPred=-1.11D-04 R= 1.37D+00
 TightC=F SS=  1.41D+00  RLast= 4.10D-01 DXNew= 3.6069D+00 1.2295D+00
 Trust test= 1.37D+00 RLast= 4.10D-01 DXMaxT set to 2.14D+00
 ITU=  1  1  1  1 -1  1  1  1 -1  1  1  1  1  0
     Eigenvalues ---    0.00029   0.00909   0.01206   0.01589   0.02221
     Eigenvalues ---    0.03023   0.03358   0.03885   0.04244   0.05101
     Eigenvalues ---    0.05170   0.05820   0.06568   0.07517   0.08074
     Eigenvalues ---    0.08429   0.09183   0.09626   0.11102   0.12220
     Eigenvalues ---    0.13857   0.15926   0.15954   0.19211   0.21759
     Eigenvalues ---    0.26048   0.26475   0.26916   0.27905   0.31246
     Eigenvalues ---    0.32792   0.33649   0.33676   0.34123   0.34172
     Eigenvalues ---    0.34395   0.34638   0.35379   0.35475   0.37083
     Eigenvalues ---    0.53526   2.29283
 Angle between quadratic step and forces=  84.76 degrees.
 Quartic linear search produced a step of  0.41839.
 Iteration  1 RMS(Cart)=  0.03188272 RMS(Int)=  0.00059542
 Iteration  2 RMS(Cart)=  0.00069122 RMS(Int)=  0.00028327
 Iteration  3 RMS(Cart)=  0.00000015 RMS(Int)=  0.00028327
 ITry= 1 IFail=0 DXMaxC= 1.31D-01 DCOld= 1.00D+10 DXMaxT= 2.14D+00 DXLimC= 3.00D+00 Rises=F
 Variable       Old X    -DE/DX   Delta X   Delta X   Delta X     New X
                                 (Linear)    (Quad)   (Total)
    R1        2.85218  -0.00087   0.00229  -0.00061   0.00188   2.85406
    R2        2.07735   0.00022   0.00067   0.00027   0.00094   2.07828
    R3        2.07016   0.00017   0.00004   0.00020   0.00024   2.07040
    R4        2.89504   0.00056  -0.00032  -0.00152  -0.00177   2.89326
    R5        2.05303  -0.00001  -0.00006  -0.00096  -0.00102   2.05202
    R6        2.53645  -0.00168  -0.00008  -0.00035  -0.00026   2.53619
    R7        2.85052  -0.00063   0.00141   0.00206   0.00346   2.85399
    R8        2.05052  -0.00005   0.00059   0.00051   0.00110   2.05162
    R9        2.07631  -0.00052   0.00150   0.00004   0.00154   2.07785
   R10        2.08330   0.00013   0.00045  -0.00057  -0.00012   2.08317
   R11        2.93723  -0.00108  -0.00189  -0.00767  -0.00979   2.92744
   R12        2.88638  -0.00034  -0.00147  -0.00060  -0.00226   2.88412
   R13        2.06473   0.00090  -0.00148  -0.00119  -0.00267   2.06206
   R14        2.07298  -0.00093   0.00038  -0.00418  -0.00380   2.06918
   R15        2.07577   0.00010  -0.00121   0.00100  -0.00021   2.07556
   R16        2.07428  -0.00117   0.00200   0.00017   0.00217   2.07645
    A1        1.92929  -0.00135  -0.00132  -0.00547  -0.00692   1.92237
    A2        1.94142  -0.00047   0.00031   0.00180   0.00227   1.94369
    A3        1.86344   0.00151  -0.00005   0.00214   0.00188   1.86532
    A4        1.84575   0.00045  -0.00209  -0.00335  -0.00545   1.84030
    A5        1.92534  -0.00029  -0.00133  -0.00024  -0.00152   1.92382
    A6        1.95981   0.00006   0.00445   0.00492   0.00938   1.96919
    A7        2.08356  -0.00053   0.00109  -0.00025   0.00103   2.08459
    A8        2.10241   0.00003   0.00105   0.00050   0.00111   2.10352
    A9        2.09711   0.00050  -0.00202  -0.00024  -0.00207   2.09504
   A10        2.15767  -0.00055   0.00393  -0.00057   0.00271   2.16038
   A11        2.09277   0.00036  -0.00213  -0.00025  -0.00207   2.09070
   A12        2.02599   0.00034  -0.00235   0.00127  -0.00076   2.02523
   A13        1.93714  -0.00115   0.00158   0.00204   0.00401   1.94115
   A14        1.88523  -0.00037  -0.00121  -0.00697  -0.00780   1.87743
   A15        1.97923   0.00161  -0.00347   0.00265  -0.00199   1.97723
   A16        1.80886   0.00059  -0.00061   0.00427   0.00351   1.81238
   A17        1.96925  -0.00056   0.00250  -0.00442  -0.00156   1.96769
   A18        1.87285  -0.00018   0.00131   0.00233   0.00393   1.87677
   A19        1.92767  -0.00033  -0.00598  -0.00475  -0.01145   1.91621
   A20        1.96872   0.00063   0.00377   0.00137   0.00539   1.97411
   A21        1.86167   0.00058  -0.00088   0.00123   0.00034   1.86201
   A22        1.94506   0.00005   0.00472   0.00597   0.01113   1.95618
   A23        1.89196  -0.00056  -0.00316  -0.00707  -0.01032   1.88164
   A24        1.86415  -0.00041   0.00132   0.00289   0.00414   1.86829
   A25        1.96303  -0.00030  -0.00095  -0.00334  -0.00567   1.95736
   A26        1.95254  -0.00088   0.00004  -0.00568  -0.00521   1.94732
   A27        1.90618  -0.00039   0.00334   0.00182   0.00557   1.91176
   A28        1.89249   0.00096  -0.00075   0.00676   0.00648   1.89897
   A29        1.92495  -0.00042   0.00330   0.00664   0.01030   1.93526
   A30        1.81939   0.00112  -0.00521  -0.00619  -0.01162   1.80777
    D1        1.63866  -0.00036  -0.01769  -0.00730  -0.02497   1.61369
    D2       -1.51827  -0.00046  -0.01202  -0.00646  -0.01835  -1.53662
    D3       -0.40636   0.00023  -0.01446  -0.00082  -0.01530  -0.42166
    D4        2.71989   0.00013  -0.00878   0.00002  -0.00868   2.71121
    D5       -2.55003  -0.00055  -0.02008  -0.00939  -0.02956  -2.57959
    D6        0.57622  -0.00065  -0.01441  -0.00854  -0.02294   0.55329
    D7       -1.10509   0.00162  -0.00202  -0.00126  -0.00288  -1.10797
    D8        2.98862   0.00133  -0.00647  -0.00648  -0.01268   2.97594
    D9        0.94741   0.00111  -0.00959  -0.01151  -0.02093   0.92648
   D10        0.99194   0.00074  -0.00440  -0.00671  -0.01094   0.98101
   D11       -1.19753   0.00045  -0.00885  -0.01193  -0.02074  -1.21827
   D12        3.04444   0.00024  -0.01197  -0.01696  -0.02899   3.01545
   D13        3.04595   0.00115  -0.00506  -0.00795  -0.01284   3.03312
   D14        0.85648   0.00086  -0.00952  -0.01317  -0.02264   0.83384
   D15       -1.18474   0.00064  -0.01264  -0.01820  -0.03089  -1.21563
   D16        0.15749  -0.00065   0.00421  -0.00286   0.00120   0.15870
   D17       -3.11370   0.00087  -0.00149   0.00152  -0.00006  -3.11375
   D18       -2.99956  -0.00077   0.00998  -0.00201   0.00789  -2.99167
   D19        0.01244   0.00076   0.00428   0.00237   0.00663   0.01907
   D20       -2.60075   0.00158   0.02370   0.02661   0.05045  -2.55030
   D21        1.71059   0.00168   0.02428   0.02434   0.04855   1.75915
   D22       -0.36267   0.00116   0.02560   0.02450   0.05008  -0.31260
   D23        0.66590   0.00010   0.02921   0.02247   0.05177   0.71766
   D24       -1.30595   0.00020   0.02978   0.02020   0.04988  -1.25607
   D25        2.90397  -0.00031   0.03110   0.02036   0.05140   2.95537
   D26       -0.19816  -0.00046  -0.04121  -0.03220  -0.07331  -0.27147
   D27       -2.33317  -0.00085  -0.03956  -0.03437  -0.07377  -2.40694
   D28        1.94501  -0.00148  -0.03526  -0.02469  -0.06000   1.88502
   D29        2.02324  -0.00116  -0.03983  -0.03092  -0.07081   1.95243
   D30       -0.11177  -0.00155  -0.03818  -0.03309  -0.07127  -0.18304
   D31       -2.11677  -0.00218  -0.03388  -0.02340  -0.05750  -2.17427
   D32       -2.27854  -0.00085  -0.03850  -0.02670  -0.06505  -2.34359
   D33        1.86963  -0.00124  -0.03685  -0.02886  -0.06551   1.80412
   D34       -0.13537  -0.00187  -0.03255  -0.01918  -0.05174  -0.18711
   D35        0.92549  -0.00171   0.03188   0.02205   0.05391   0.97940
   D36        3.09407  -0.00234   0.03074   0.01741   0.04804  -3.14107
   D37       -1.20710  -0.00070   0.02589   0.01725   0.04324  -1.16385
   D38        3.12829  -0.00110   0.03585   0.02471   0.06054  -3.09435
   D39       -0.98631  -0.00173   0.03471   0.02007   0.05468  -0.93164
   D40        0.99570  -0.00009   0.02986   0.01991   0.04987   1.04558
   D41       -1.10827  -0.00190   0.03826   0.02734   0.06561  -1.04266
   D42        1.06031  -0.00253   0.03712   0.02270   0.05975   1.12006
   D43        3.04233  -0.00089   0.03227   0.02254   0.05495   3.09727
         Item               Value     Threshold  Converged?
 Maximum Force            0.002534     0.000450     NO 
 RMS     Force            0.000975     0.000300     NO 
 Maximum Displacement     0.130716     0.001800     NO 
 RMS     Displacement     0.031935     0.001200     NO 
 Predicted change in Energy=-9.092356D-05
 GradGradGradGradGradGradGradGradGradGradGradGradGradGradGradGradGradGrad

 Leave Link  103 at Sat Jun 15 16:39:18 2024, MaxMem=   104857600 cpu:               1.6 elap:               0.9
 (Enter /mlatom/software/Gaussian/g16-avx2/l202.exe)
                          Input orientation:                          
 ---------------------------------------------------------------------
 Center     Atomic      Atomic             Coordinates (Angstroms)
 Number     Number       Type             X           Y           Z
 ---------------------------------------------------------------------
      1          6           0        0.635589   -0.302399    0.008824
      2          6           0       -0.622495   -1.020478   -0.418499
      3          1           0        0.726193   -0.316749    1.104773
      4          1           0        0.603703    0.757341   -0.267392
      5          1           0       -1.538757   -0.454664   -0.557979
      6          6           0       -0.611238   -2.344928   -0.635113
      7          6           0        0.553921   -3.242179   -0.291243
      8          1           0       -1.515981   -2.844870   -0.967044
      9          1           0        0.650737   -4.063874   -1.015433
     10          1           0        0.312884   -3.752327    0.655787
     11          6           0        1.811112   -1.047407   -0.629311
     12          6           0        1.880302   -2.469989   -0.080865
     13          1           0        2.760605   -0.520233   -0.523194
     14          1           0        1.597807   -1.111780   -1.701365
     15          1           0        2.728115   -2.988741   -0.548253
     16          1           0        2.137584   -2.465830    0.987394
 ---------------------------------------------------------------------
                    Distance matrix (angstroms):
                    1          2          3          4          5
     1  C    0.000000
     2  C    1.510304   0.000000
     3  H    1.099781   2.152801   0.000000
     4  H    1.095610   2.164957   1.746857   0.000000
     5  H    2.252161   1.085881   2.813141   2.478615   0.000000
     6  C    2.478136   1.342094   2.988216   3.351921   2.106975
     7  C    2.956183   2.517162   3.246025   3.999901   3.495811
     8  H    3.470696   2.104192   3.963731   4.237747   2.425065
     9  H    3.898465   3.352567   4.306032   4.879128   4.246122
    10  H    3.524869   3.080913   3.489357   4.612369   3.971950
    11  C    1.531049   2.442869   2.172086   2.201349   3.402655
    12  C    2.501160   2.911884   2.715538   3.475652   3.997391
    13  H    2.201406   3.421486   2.613525   2.519892   4.300003
    14  H    2.122665   2.565896   3.044042   2.556977   3.402524
    15  H    3.450426   3.888121   3.725551   4.315685   4.962645
    16  H    2.809630   3.418129   2.573781   3.783663   4.466368
                    6          7          8          9         10
     6  C    0.000000
     7  C    1.510265   0.000000
     8  H    1.085670   2.213381   0.000000
     9  H    2.166102   1.099549   2.486560   0.000000
    10  H    2.121602   1.102368   2.608027   1.733258   0.000000
    11  C    2.747977   2.551832   3.796642   3.254940   3.348546
    12  C    2.555504   1.549136   3.529955   2.219395   2.154958
    13  H    3.835539   3.511730   4.887753   4.153460   4.222294
    14  H    2.745438   2.759845   3.638476   3.175265   3.765592
    15  H    3.401958   2.203952   4.267135   2.385302   2.804660
    16  H    3.194239   2.178443   4.160773   2.962393   2.257114
                   11         12         13         14         15
    11  C    0.000000
    12  C    1.526211   0.000000
    13  H    1.091196   2.184522   0.000000
    14  H    1.094962   2.133203   1.757871   0.000000
    15  H    2.148545   1.098337   2.468849   2.475934   0.000000
    16  H    2.175372   1.098812   2.540744   3.058469   1.726376
                   16
    16  H    0.000000
 Stoichiometry    C6H10
 Framework group  C1[X(C6H10)]
 Deg. of freedom    42
 Full point group                 C1      NOp   1
 RotChk:  IX=0 Diff= 9.76D-03
 Largest Abelian subgroup         C1      NOp   1
 Largest concise Abelian subgroup C1      NOp   1
                         Standard orientation:                         
 ---------------------------------------------------------------------
 Center     Atomic      Atomic             Coordinates (Angstroms)
 Number     Number       Type             X           Y           Z
 ---------------------------------------------------------------------
      1          6           0        1.415017   -0.329200    0.297186
      2          6           0        0.994717    1.090575   -0.000475
      3          1           0        1.389792   -0.512259    1.381332
      4          1           0        2.452444   -0.510064   -0.005130
      5          1           0        1.750908    1.866112   -0.076992
      6          6           0       -0.300098    1.394772   -0.179739
      7          6           0       -1.433493    0.433309    0.088412
      8          1           0       -0.586521    2.414329   -0.418789
      9          1           0       -2.261918    0.587753   -0.617893
     10          1           0       -1.868460    0.696198    1.066629
     11          6           0        0.419446   -1.246616   -0.417865
     12          6           0       -0.977636   -1.045375    0.162637
     13          1           0        0.720458   -2.295429   -0.408308
     14          1           0        0.395760   -0.929029   -1.465491
     15          1           0       -1.677636   -1.710538   -0.360720
     16          1           0       -1.022541   -1.391863    1.204423
 ---------------------------------------------------------------------
 Rotational constants (GHZ):           4.7587452           4.5341945           2.5966186
 Leave Link  202 at Sat Jun 15 16:39:19 2024, MaxMem=   104857600 cpu:               0.2 elap:               0.4
 (Enter /mlatom/software/Gaussian/g16-avx2/l301.exe)
 Standard basis: STO-3G (5D, 7F)
 Ernie: Thresh=  0.10000D-02 Tol=  0.10000D-05 Strict=F.
 There are    40 symmetry adapted cartesian basis functions of A   symmetry.
 There are    40 symmetry adapted basis functions of A   symmetry.
    40 basis functions,   120 primitive gaussians,    40 cartesian basis functions
    23 alpha electrons       23 beta electrons
       nuclear repulsion energy       236.9968652778 Hartrees.
 IExCor=    0 DFT=F Ex=HF Corr=None ExCW=0 ScaHFX=  1.000000
 ScaDFX=  1.000000  1.000000  1.000000  1.000000 ScalE2=  1.000000  1.000000
 IRadAn=      5 IRanWt=     -1 IRanGd=            0 ICorTp=0 IEmpDi=  4
 NAtoms=   16 NActive=   16 NUniq=   16 SFac= 1.00D+00 NAtFMM=   60 NAOKFM=F Big=F
 Integral buffers will be    131072 words long.
 Raffenetti 1 integral format.
 Two-electron integral symmetry is turned on.
 Leave Link  301 at Sat Jun 15 16:39:20 2024, MaxMem=   104857600 cpu:               0.3 elap:               0.5
 (Enter /mlatom/software/Gaussian/g16-avx2/l402.exe)
 External calculation of energy and first derivatives.
 Running external command "/mlatom/software/miniconda3/bin/python /mlatom/software/mlatom/mlatom/interfaces/gaussian_interface.py model_predict_kwargs R"
         input file       "/mlatom/home/qhzhang/git/ts-analysis/calculations/C60/irc/pro_opt/da_ani_opt_1/Gau-212676.EIn"
         output file      "/mlatom/home/qhzhang/git/ts-analysis/calculations/C60/irc/pro_opt/da_ani_opt_1/Gau-212676.EOu"
         message file     "/mlatom/home/qhzhang/git/ts-analysis/calculations/C60/irc/pro_opt/da_ani_opt_1/Gau-212676.EMs"
         fchk file        "/mlatom/home/qhzhang/git/ts-analysis/calculations/C60/irc/pro_opt/da_ani_opt_1/Gau-212676.EFC"
         mat. el file     "/mlatom/home/qhzhang/git/ts-analysis/calculations/C60/irc/pro_opt/da_ani_opt_1/Gau-212676.EUF"
model loaded from /mlatom/home/qhzhang/git/ts-analysis/calculations/C60/irc/pro_opt/da_ani_opt_1/da_energy_iteration27.npz
 Recovered energy= -234.659257957     dipole=      0.000000000000      0.000000000000      0.000000000000
 Energy=    -234.659258     NIter=   0.
 Dipole moment=       0.000000       0.000000       0.000000
 Leave Link  402 at Sat Jun 15 16:39:24 2024, MaxMem=   104857600 cpu:              10.5 elap:               4.2
 (Enter /mlatom/software/Gaussian/g16-avx2/l716.exe)
 Dipole        = 0.00000000D+00 0.00000000D+00 0.00000000D+00
 ***** Axes restored to original set *****
 -------------------------------------------------------------------
 Center     Atomic                   Forces (Hartrees/Bohr)
 Number     Number              X              Y              Z
 -------------------------------------------------------------------
      1        6          -0.001746151   -0.000157554   -0.002009808
      2        6           0.001979869   -0.002023969   -0.000216231
      3        1          -0.000029424    0.000607329    0.000238281
      4        1          -0.001072990   -0.000416155   -0.001943163
      5        1          -0.000035205    0.000716539    0.000298081
      6        6          -0.002330567   -0.000849504    0.005454574
      7        6          -0.001021643    0.002398732    0.003126101
      8        1           0.000769852    0.000122571   -0.000802442
      9        1          -0.000941604    0.003116994   -0.002453180
     10        1           0.000965219   -0.002907165   -0.000936199
     11        6          -0.003522383   -0.000779304    0.000002261
     12        6           0.005794633   -0.002325531    0.000181672
     13        1           0.001374942    0.000068773    0.003025000
     14        1           0.004288104    0.001142114   -0.000820521
     15        1          -0.002108147   -0.002489734   -0.001999240
     16        1          -0.002364508    0.003775865   -0.001145187
 -------------------------------------------------------------------
 Cartesian Forces:  Max     0.005794633 RMS     0.002146501
 Leave Link  716 at Sat Jun 15 16:39:25 2024, MaxMem=   104857600 cpu:               0.3 elap:               0.5
 (Enter /mlatom/software/Gaussian/g16-avx2/l103.exe)

 GradGradGradGradGradGradGradGradGradGradGradGradGradGradGradGradGradGrad
 Berny optimization.
 FormGI is forming the generalized inverse of G from B-inverse, IUseBI=4.
 Internal  Forces:  Max     0.002847158 RMS     0.001086217
 Search for a local minimum.
 Step number  15 out of a maximum of   99
 All quantities printed in internal units (Hartrees-Bohrs-Radians)
 Update second derivatives using D2CorX and points   14   15
 DE= -9.22D-05 DEPred=-9.09D-05 R= 1.01D+00
 TightC=F SS=  1.41D+00  RLast= 2.98D-01 DXNew= 3.6069D+00 8.9500D-01
 Trust test= 1.01D+00 RLast= 2.98D-01 DXMaxT set to 2.14D+00
 ITU=  1  1  1  1  1 -1  1  1  1 -1  1  1  1  1  0
     Eigenvalues ---    0.00044   0.00861   0.01174   0.01649   0.02226
     Eigenvalues ---    0.02999   0.03363   0.03674   0.04243   0.05095
     Eigenvalues ---    0.05237   0.05822   0.06543   0.07483   0.08049
     Eigenvalues ---    0.08208   0.08894   0.09649   0.10926   0.12199
     Eigenvalues ---    0.14056   0.15896   0.15972   0.18885   0.21716
     Eigenvalues ---    0.25364   0.26243   0.26700   0.27943   0.31259
     Eigenvalues ---    0.32781   0.33630   0.33717   0.34130   0.34157
     Eigenvalues ---    0.34395   0.34512   0.35354   0.35515   0.37086
     Eigenvalues ---    0.53961   2.01897
 Angle between quadratic step and forces=  84.12 degrees.
 Quartic linear search produced a step of  0.06881.
 Iteration  1 RMS(Cart)=  0.00594063 RMS(Int)=  0.00002515
 Iteration  2 RMS(Cart)=  0.00002362 RMS(Int)=  0.00001483
 Iteration  3 RMS(Cart)=  0.00000000 RMS(Int)=  0.00001483
 ITry= 1 IFail=0 DXMaxC= 2.31D-02 DCOld= 1.00D+10 DXMaxT= 2.14D+00 DXLimC= 3.00D+00 Rises=F
 Variable       Old X    -DE/DX   Delta X   Delta X   Delta X     New X
                                 (Linear)    (Quad)   (Total)
    R1        2.85406  -0.00115   0.00013  -0.00095  -0.00081   2.85325
    R2        2.07828   0.00023   0.00006   0.00075   0.00082   2.07910
    R3        2.07040   0.00012   0.00002   0.00004   0.00006   2.07046
    R4        2.89326   0.00081  -0.00012   0.00069   0.00057   2.89383
    R5        2.05202   0.00036  -0.00007   0.00001  -0.00006   2.05196
    R6        2.53619  -0.00120  -0.00002  -0.00002  -0.00002   2.53617
    R7        2.85399  -0.00109   0.00024   0.00135   0.00159   2.85558
    R8        2.05162  -0.00045   0.00008  -0.00046  -0.00039   2.05123
    R9        2.07785  -0.00080   0.00011  -0.00019  -0.00009   2.07776
   R10        2.08317   0.00033  -0.00001   0.00027   0.00026   2.08344
   R11        2.92744   0.00043  -0.00067  -0.00290  -0.00358   2.92386
   R12        2.88412  -0.00037  -0.00016   0.00127   0.00110   2.88522
   R13        2.06206   0.00152  -0.00018  -0.00028  -0.00047   2.06160
   R14        2.06918  -0.00010  -0.00026  -0.00125  -0.00152   2.06766
   R15        2.07556   0.00040  -0.00001   0.00045   0.00044   2.07599
   R16        2.07645  -0.00165   0.00015   0.00016   0.00031   2.07676
    A1        1.92237  -0.00130  -0.00048  -0.00324  -0.00372   1.91865
    A2        1.94369  -0.00026   0.00016   0.00055   0.00071   1.94440
    A3        1.86532   0.00131   0.00013   0.00430   0.00441   1.86973
    A4        1.84030   0.00057  -0.00038  -0.00099  -0.00137   1.83893
    A5        1.92382  -0.00015  -0.00010   0.00040   0.00030   1.92413
    A6        1.96919  -0.00027   0.00065  -0.00125  -0.00061   1.96858
    A7        2.08459  -0.00078   0.00007  -0.00099  -0.00091   2.08368
    A8        2.10352   0.00022   0.00008  -0.00008  -0.00002   2.10350
    A9        2.09504   0.00057  -0.00014   0.00106   0.00092   2.09596
   A10        2.16038  -0.00022   0.00019  -0.00125  -0.00110   2.15928
   A11        2.09070   0.00046  -0.00014   0.00062   0.00048   2.09118
   A12        2.02523  -0.00006  -0.00005  -0.00004  -0.00008   2.02515
   A13        1.94115  -0.00149   0.00028   0.00238   0.00268   1.94382
   A14        1.87743   0.00023  -0.00054  -0.00516  -0.00568   1.87175
   A15        1.97723   0.00117  -0.00014   0.00239   0.00220   1.97943
   A16        1.81238   0.00022   0.00024   0.00113   0.00137   1.81375
   A17        1.96769   0.00003  -0.00011  -0.00266  -0.00275   1.96494
   A18        1.87677  -0.00017   0.00027   0.00156   0.00184   1.87861
   A19        1.91621  -0.00002  -0.00079   0.00204   0.00120   1.91742
   A20        1.97411   0.00061   0.00037  -0.00289  -0.00251   1.97160
   A21        1.86201   0.00054   0.00002   0.00114   0.00117   1.86318
   A22        1.95618  -0.00032   0.00077   0.00001   0.00080   1.95699
   A23        1.88164  -0.00038  -0.00071  -0.00262  -0.00333   1.87831
   A24        1.86829  -0.00046   0.00029   0.00234   0.00262   1.87091
   A25        1.95736  -0.00030  -0.00039   0.00400   0.00354   1.96090
   A26        1.94732  -0.00051  -0.00036  -0.00254  -0.00288   1.94444
   A27        1.91176  -0.00048   0.00038  -0.00272  -0.00233   1.90943
   A28        1.89897   0.00062   0.00045   0.00032   0.00080   1.89977
   A29        1.93526  -0.00080   0.00071   0.00204   0.00277   1.93802
   A30        1.80777   0.00159  -0.00080  -0.00152  -0.00234   1.80543
    D1        1.61369  -0.00027  -0.00172   0.00155  -0.00016   1.61353
    D2       -1.53662  -0.00037  -0.00126   0.00003  -0.00123  -1.53785
    D3       -0.42166  -0.00000  -0.00105   0.00446   0.00340  -0.41825
    D4        2.71121  -0.00010  -0.00060   0.00293   0.00234   2.71355
    D5       -2.57959  -0.00039  -0.00203   0.00278   0.00074  -2.57885
    D6        0.55329  -0.00049  -0.00158   0.00126  -0.00033   0.55296
    D7       -1.10797   0.00166  -0.00020   0.00811   0.00793  -1.10003
    D8        2.97594   0.00163  -0.00087   0.00867   0.00781   2.98376
    D9        0.92648   0.00151  -0.00144   0.00670   0.00526   0.93174
   D10        0.98101   0.00079  -0.00075   0.00700   0.00626   0.98727
   D11       -1.21827   0.00077  -0.00143   0.00756   0.00614  -1.21213
   D12        3.01545   0.00064  -0.00199   0.00559   0.00359   3.01904
   D13        3.03312   0.00124  -0.00088   0.00523   0.00435   3.03747
   D14        0.83384   0.00122  -0.00156   0.00579   0.00423   0.83807
   D15       -1.21563   0.00109  -0.00213   0.00381   0.00168  -1.21394
   D16        0.15870  -0.00088   0.00008  -0.00290  -0.00282   0.15588
   D17       -3.11375   0.00077  -0.00000  -0.00926  -0.00927  -3.12302
   D18       -2.99167  -0.00099   0.00054  -0.00445  -0.00391  -2.99557
   D19        0.01907   0.00066   0.00046  -0.01081  -0.01035   0.00872
   D20       -2.55030   0.00147   0.00347  -0.00399  -0.00051  -2.55081
   D21        1.75915   0.00184   0.00334  -0.00367  -0.00033   1.75881
   D22       -0.31260   0.00121   0.00345  -0.00361  -0.00015  -0.31275
   D23        0.71766  -0.00015   0.00356   0.00210   0.00567   0.72333
   D24       -1.25607   0.00022   0.00343   0.00242   0.00584  -1.25023
   D25        2.95537  -0.00042   0.00354   0.00248   0.00602   2.96139
   D26       -0.27147  -0.00022  -0.00504   0.01118   0.00614  -0.26532
   D27       -2.40694  -0.00044  -0.00508   0.00971   0.00465  -2.40229
   D28        1.88502  -0.00180  -0.00413   0.01461   0.01048   1.89549
   D29        1.95243  -0.00126  -0.00487   0.01423   0.00936   1.96179
   D30       -0.18304  -0.00148  -0.00490   0.01277   0.00787  -0.17517
   D31       -2.17427  -0.00285  -0.00396   0.01767   0.01370  -2.16057
   D32       -2.34359  -0.00109  -0.00448   0.01513   0.01066  -2.33293
   D33        1.80412  -0.00131  -0.00451   0.01366   0.00917   1.81329
   D34       -0.18711  -0.00267  -0.00356   0.01856   0.01499  -0.17211
   D35        0.97940  -0.00198   0.00371  -0.01511  -0.01140   0.96800
   D36       -3.14107  -0.00238   0.00331  -0.01539  -0.01209   3.13003
   D37       -1.16385  -0.00056   0.00298  -0.01594  -0.01296  -1.17681
   D38       -3.09435  -0.00142   0.00417  -0.01733  -0.01316  -3.10752
   D39       -0.93164  -0.00183   0.00376  -0.01761  -0.01385  -0.94549
   D40        1.04558  -0.00000   0.00343  -0.01815  -0.01472   1.03086
   D41       -1.04266  -0.00240   0.00451  -0.01609  -0.01158  -1.05424
   D42        1.12006  -0.00281   0.00411  -0.01637  -0.01226   1.10779
   D43        3.09727  -0.00098   0.00378  -0.01692  -0.01314   3.08414
         Item               Value     Threshold  Converged?
 Maximum Force            0.002847     0.000450     NO 
 RMS     Force            0.001086     0.000300     NO 
 Maximum Displacement     0.023108     0.001800     NO 
 RMS     Displacement     0.005939     0.001200     NO 
 Predicted change in Energy=-3.890801D-05
 GradGradGradGradGradGradGradGradGradGradGradGradGradGradGradGradGradGrad

 Leave Link  103 at Sat Jun 15 16:39:26 2024, MaxMem=   104857600 cpu:               1.6 elap:               0.9
 (Enter /mlatom/software/Gaussian/g16-avx2/l202.exe)
                          Input orientation:                          
 ---------------------------------------------------------------------
 Center     Atomic      Atomic             Coordinates (Angstroms)
 Number     Number       Type             X           Y           Z
 ---------------------------------------------------------------------
      1          6           0        0.633867   -0.302451    0.005987
      2          6           0       -0.623933   -1.020709   -0.420347
      3          1           0        0.719920   -0.315762    1.102748
      4          1           0        0.602141    0.757426   -0.269844
      5          1           0       -1.539205   -0.453886   -0.561970
      6          6           0       -0.613013   -2.345558   -0.634443
      7          6           0        0.554580   -3.241178   -0.290881
      8          1           0       -1.519609   -2.847568   -0.957403
      9          1           0        0.652742   -4.065730   -1.011564
     10          1           0        0.310854   -3.746196    0.658371
     11          6           0        1.813944   -1.045124   -0.627167
     12          6           0        1.880573   -2.470891   -0.085087
     13          1           0        2.761239   -0.516636   -0.510966
     14          1           0        1.608066   -1.107955   -1.699945
     15          1           0        2.724316   -2.991452   -0.558338
     16          1           0        2.143600   -2.475437    0.981937
 ---------------------------------------------------------------------
                    Distance matrix (angstroms):
                    1          2          3          4          5
     1  C    0.000000
     2  C    1.509873   0.000000
     3  H    1.100212   2.150048   0.000000
     4  H    1.095641   2.165103   1.746314   0.000000
     5  H    2.251167   1.085849   2.809628   2.477494   0.000000
     6  C    2.477730   1.342082   2.985735   3.352319   2.107489
     7  C    2.954748   2.517169   3.244626   3.998943   3.496631
     8  H    3.470332   2.104301   3.958504   4.239168   2.426204
     9  H    3.898466   3.354339   4.305472   4.880117   4.248786
    10  H    3.519847   3.076645   3.483200   4.607499   3.968786
    11  C    1.531348   2.446755   2.172893   2.201212   3.405499
    12  C    2.502939   2.913413   2.720781   3.477148   3.998826
    13  H    2.199733   3.423695   2.609867   2.518546   4.301204
    14  H    2.123230   2.574258   3.044908   2.556701   3.410002
    15  H    3.452414   3.887627   3.733112   4.317516   4.961539
    16  H    2.820219   3.426642   2.589528   3.794002   4.475866
                    6          7          8          9         10
     6  C    0.000000
     7  C    1.511106   0.000000
     8  H    1.085465   2.213920   0.000000
     9  H    2.168720   1.099502   2.491177   0.000000
    10  H    2.118180   1.102508   2.601702   1.734264   0.000000
    11  C    2.753416   2.553770   3.804003   3.258866   3.347787
    12  C    2.556456   1.547240   3.530448   2.215725   2.154797
    13  H    3.840023   3.512964   4.894713   4.158416   4.219217
    14  H    2.756837   2.765129   3.655131   3.183543   3.768917
    15  H    3.400108   2.200376   4.265074   2.377164   2.806210
    16  H    3.198197   2.175181   4.161565   2.953936   2.253549
                   11         12         13         14         15
    11  C    0.000000
    12  C    1.526794   0.000000
    13  H    1.090949   2.185420   0.000000
    14  H    1.094160   2.130639   1.758731   0.000000
    15  H    2.149816   1.098568   2.475545   2.469179   0.000000
    16  H    2.178000   1.098974   2.539122   3.057662   1.725094
                   16
    16  H    0.000000
 Stoichiometry    C6H10
 Framework group  C1[X(C6H10)]
 Deg. of freedom    42
 Full point group                 C1      NOp   1
 RotChk:  IX=0 Diff= 9.65D-03
 Largest Abelian subgroup         C1      NOp   1
 Largest concise Abelian subgroup C1      NOp   1
                         Standard orientation:                         
 ---------------------------------------------------------------------
 Center     Atomic      Atomic             Coordinates (Angstroms)
 Number     Number       Type             X           Y           Z
 ---------------------------------------------------------------------
      1          6           0        1.412831   -0.336486    0.296026
      2          6           0        1.001907    1.085362   -0.002650
      3          1           0        1.388094   -0.513863    1.381563
      4          1           0        2.449223   -0.524899   -0.005339
      5          1           0        1.764031    1.854721   -0.082162
      6          6           0       -0.291076    1.398178   -0.180198
      7          6           0       -1.429947    0.441963    0.088257
      8          1           0       -0.572109    2.420796   -0.411517
      9          1           0       -2.260152    0.600071   -0.615069
     10          1           0       -1.857838    0.710256    1.068284
     11          6           0        0.412634   -1.253536   -0.413660
     12          6           0       -0.985815   -1.038423    0.160071
     13          1           0        0.708480   -2.303391   -0.392450
     14          1           0        0.391195   -0.944647   -1.463096
     15          1           0       -1.690939   -1.694686   -0.368106
     16          1           0       -1.043187   -1.386709    1.200816
 ---------------------------------------------------------------------
 Rotational constants (GHZ):           4.7537901           4.5349681           2.5931013
 Leave Link  202 at Sat Jun 15 16:39:26 2024, MaxMem=   104857600 cpu:               0.3 elap:               0.5
 (Enter /mlatom/software/Gaussian/g16-avx2/l301.exe)
 Standard basis: STO-3G (5D, 7F)
 Ernie: Thresh=  0.10000D-02 Tol=  0.10000D-05 Strict=F.
 There are    40 symmetry adapted cartesian basis functions of A   symmetry.
 There are    40 symmetry adapted basis functions of A   symmetry.
    40 basis functions,   120 primitive gaussians,    40 cartesian basis functions
    23 alpha electrons       23 beta electrons
       nuclear repulsion energy       236.9469209284 Hartrees.
 IExCor=    0 DFT=F Ex=HF Corr=None ExCW=0 ScaHFX=  1.000000
 ScaDFX=  1.000000  1.000000  1.000000  1.000000 ScalE2=  1.000000  1.000000
 IRadAn=      5 IRanWt=     -1 IRanGd=            0 ICorTp=0 IEmpDi=  4
 NAtoms=   16 NActive=   16 NUniq=   16 SFac= 1.00D+00 NAtFMM=   60 NAOKFM=F Big=F
 Integral buffers will be    131072 words long.
 Raffenetti 1 integral format.
 Two-electron integral symmetry is turned on.
 Leave Link  301 at Sat Jun 15 16:39:27 2024, MaxMem=   104857600 cpu:               0.3 elap:               0.5
 (Enter /mlatom/software/Gaussian/g16-avx2/l402.exe)
 External calculation of energy and first derivatives.
 Running external command "/mlatom/software/miniconda3/bin/python /mlatom/software/mlatom/mlatom/interfaces/gaussian_interface.py model_predict_kwargs R"
         input file       "/mlatom/home/qhzhang/git/ts-analysis/calculations/C60/irc/pro_opt/da_ani_opt_1/Gau-212676.EIn"
         output file      "/mlatom/home/qhzhang/git/ts-analysis/calculations/C60/irc/pro_opt/da_ani_opt_1/Gau-212676.EOu"
         message file     "/mlatom/home/qhzhang/git/ts-analysis/calculations/C60/irc/pro_opt/da_ani_opt_1/Gau-212676.EMs"
         fchk file        "/mlatom/home/qhzhang/git/ts-analysis/calculations/C60/irc/pro_opt/da_ani_opt_1/Gau-212676.EFC"
         mat. el file     "/mlatom/home/qhzhang/git/ts-analysis/calculations/C60/irc/pro_opt/da_ani_opt_1/Gau-212676.EUF"
model loaded from /mlatom/home/qhzhang/git/ts-analysis/calculations/C60/irc/pro_opt/da_ani_opt_1/da_energy_iteration27.npz
 Recovered energy= -234.659313002     dipole=      0.000000000000      0.000000000000      0.000000000000
 Energy=    -234.659313     NIter=   0.
 Dipole moment=       0.000000       0.000000       0.000000
 Leave Link  402 at Sat Jun 15 16:39:31 2024, MaxMem=   104857600 cpu:              10.5 elap:               4.1
 (Enter /mlatom/software/Gaussian/g16-avx2/l716.exe)
 Dipole        = 0.00000000D+00 0.00000000D+00 0.00000000D+00
 ***** Axes restored to original set *****
 -------------------------------------------------------------------
 Center     Atomic                   Forces (Hartrees/Bohr)
 Number     Number              X              Y              Z
 -------------------------------------------------------------------
      1        6          -0.001712055   -0.000021701   -0.001300982
      2        6           0.002316010   -0.002141785   -0.000866408
      3        1           0.000253401    0.000598638   -0.000008985
      4        1          -0.001048255   -0.000422625   -0.002007859
      5        1          -0.000084967    0.000655027    0.000336717
      6        6          -0.001938557   -0.000774558    0.005650067
      7        6          -0.002134831    0.002396017    0.002951706
      8        1           0.000694003    0.000038324   -0.001135686
      9        1          -0.001268489    0.003078464   -0.002412191
     10        1           0.001310209   -0.003094483   -0.001009018
     11        6          -0.004105968   -0.001369156    0.000699703
     12        6           0.006500590   -0.002363919    0.000851556
     13        1           0.001515925   -0.000028847    0.002758186
     14        1           0.003972005    0.001420038   -0.001295099
     15        1          -0.001983759   -0.002096138   -0.002058252
     16        1          -0.002285264    0.004126706   -0.001153454
 -------------------------------------------------------------------
 Cartesian Forces:  Max     0.006500590 RMS     0.002241683
 Leave Link  716 at Sat Jun 15 16:39:32 2024, MaxMem=   104857600 cpu:               0.3 elap:               0.5
 (Enter /mlatom/software/Gaussian/g16-avx2/l103.exe)

 GradGradGradGradGradGradGradGradGradGradGradGradGradGradGradGradGradGrad
 Berny optimization.
 FormGI is forming the generalized inverse of G from B-inverse, IUseBI=4.
 Internal  Forces:  Max     0.003028369 RMS     0.001069832
 Search for a local minimum.
 Step number  16 out of a maximum of   99
 All quantities printed in internal units (Hartrees-Bohrs-Radians)
 Update second derivatives using D2CorX and points   14   15   16
 DE= -5.50D-05 DEPred=-3.89D-05 R= 1.41D+00
 TightC=F SS=  1.41D+00  RLast= 5.67D-02 DXNew= 3.6069D+00 1.7015D-01
 Trust test= 1.41D+00 RLast= 5.67D-02 DXMaxT set to 2.14D+00
 ITU=  1  1  1  1  1  1 -1  1  1  1 -1  1  1  1  1  0
     Eigenvalues ---    0.00039   0.00998   0.01090   0.01604   0.02233
     Eigenvalues ---    0.02908   0.03345   0.04144   0.04486   0.05163
     Eigenvalues ---    0.05274   0.05899   0.06566   0.07499   0.08092
     Eigenvalues ---    0.08654   0.08844   0.09791   0.10834   0.12186
     Eigenvalues ---    0.14270   0.15811   0.15957   0.19390   0.21829
     Eigenvalues ---    0.23384   0.26232   0.26700   0.28353   0.31216
     Eigenvalues ---    0.32915   0.33594   0.33745   0.34117   0.34142
     Eigenvalues ---    0.34414   0.34603   0.35392   0.35565   0.37236
     Eigenvalues ---    0.53676   1.12567
 Angle between quadratic step and forces=  87.52 degrees.
 Quartic linear search produced a step of  0.73450.
 Iteration  1 RMS(Cart)=  0.06514017 RMS(Int)=  0.00235539
 Iteration  2 RMS(Cart)=  0.00292057 RMS(Int)=  0.00070582
 Iteration  3 RMS(Cart)=  0.00000258 RMS(Int)=  0.00070581
 Iteration  4 RMS(Cart)=  0.00000000 RMS(Int)=  0.00070581
 ITry= 1 IFail=0 DXMaxC= 2.63D-01 DCOld= 1.00D+10 DXMaxT= 2.14D+00 DXLimC= 3.00D+00 Rises=F
 Variable       Old X    -DE/DX   Delta X   Delta X   Delta X     New X
                                 (Linear)    (Quad)   (Total)
    R1        2.85325  -0.00114  -0.00060   0.00084   0.00084   2.85408
    R2        2.07910   0.00000   0.00060   0.00487   0.00546   2.08456
    R3        2.07046   0.00013   0.00004   0.00093   0.00098   2.07144
    R4        2.89383   0.00042   0.00042  -0.00134  -0.00072   2.89311
    R5        2.05196   0.00037  -0.00004  -0.00034  -0.00038   2.05158
    R6        2.53617  -0.00134  -0.00002   0.00153   0.00194   2.53811
    R7        2.85558  -0.00143   0.00117   0.00875   0.00984   2.86542
    R8        2.05123  -0.00026  -0.00028  -0.00134  -0.00162   2.04961
    R9        2.07776  -0.00084  -0.00006   0.00002  -0.00005   2.07771
   R10        2.08344   0.00026   0.00019   0.00060   0.00080   2.08423
   R11        2.92386   0.00125  -0.00263  -0.01492  -0.01817   2.90569
   R12        2.88522  -0.00064   0.00081  -0.00418  -0.00385   2.88138
   R13        2.06160   0.00160  -0.00034  -0.00255  -0.00289   2.05870
   R14        2.06766   0.00044  -0.00111  -0.00453  -0.00564   2.06202
   R15        2.07599   0.00036   0.00032   0.00338   0.00370   2.07969
   R16        2.07676  -0.00168   0.00023   0.00272   0.00295   2.07971
    A1        1.91865  -0.00090  -0.00273  -0.00902  -0.01199   1.90666
    A2        1.94440  -0.00023   0.00052   0.00455   0.00551   1.94991
    A3        1.86973   0.00092   0.00324   0.00065   0.00337   1.87310
    A4        1.83893   0.00055  -0.00101  -0.00771  -0.00878   1.83015
    A5        1.92413  -0.00021   0.00022   0.00102   0.00141   1.92554
    A6        1.96858  -0.00020  -0.00045   0.01000   0.00959   1.97817
    A7        2.08368  -0.00082  -0.00067  -0.00098  -0.00118   2.08250
    A8        2.10350   0.00042  -0.00001   0.00207   0.00110   2.10460
    A9        2.09596   0.00040   0.00068  -0.00112   0.00003   2.09600
   A10        2.15928  -0.00013  -0.00081   0.00681   0.00432   2.16360
   A11        2.09118   0.00044   0.00036  -0.00017   0.00098   2.09216
   A12        2.02515  -0.00012  -0.00006  -0.00727  -0.00650   2.01865
   A13        1.94382  -0.00173   0.00197   0.00518   0.00814   1.95196
   A14        1.87175   0.00064  -0.00417  -0.01274  -0.01587   1.85589
   A15        1.97943   0.00097   0.00161  -0.00773  -0.00913   1.97030
   A16        1.81375   0.00008   0.00101  -0.00052   0.00007   1.81382
   A17        1.96494   0.00031  -0.00202   0.00387   0.00279   1.96774
   A18        1.87861  -0.00027   0.00135   0.01197   0.01400   1.89262
   A19        1.91742   0.00030   0.00088  -0.02422  -0.02503   1.89238
   A20        1.97160   0.00060  -0.00184   0.00671   0.00553   1.97713
   A21        1.86318   0.00030   0.00086   0.00578   0.00658   1.86975
   A22        1.95699  -0.00057   0.00059   0.01556   0.01713   1.97412
   A23        1.87831  -0.00017  -0.00245  -0.01450  -0.01698   1.86133
   A24        1.87091  -0.00047   0.00193   0.01013   0.01183   1.88275
   A25        1.96090  -0.00056   0.00260  -0.01564  -0.01635   1.94454
   A26        1.94444  -0.00035  -0.00212  -0.00164  -0.00264   1.94180
   A27        1.90943  -0.00004  -0.00171   0.00745   0.00679   1.91622
   A28        1.89977   0.00049   0.00059   0.00962   0.01133   1.91110
   A29        1.93802  -0.00097   0.00203   0.01312   0.01607   1.95409
   A30        1.80543   0.00158  -0.00172  -0.01224  -0.01456   1.79087
    D1        1.61353  -0.00014  -0.00012  -0.03477  -0.03482   1.57871
    D2       -1.53785  -0.00015  -0.00090  -0.03879  -0.03943  -1.57728
    D3       -0.41825  -0.00013   0.00250  -0.02244  -0.01995  -0.43820
    D4        2.71355  -0.00014   0.00172  -0.02646  -0.02456   2.68899
    D5       -2.57885  -0.00036   0.00054  -0.03823  -0.03786  -2.61670
    D6        0.55296  -0.00037  -0.00024  -0.04225  -0.04247   0.51049
    D7       -1.10003   0.00136   0.00583  -0.01235  -0.00559  -1.10562
    D8        2.98376   0.00143   0.00574  -0.01895  -0.01264   2.97112
    D9        0.93174   0.00148   0.00387  -0.03877  -0.03463   0.89711
   D10        0.98727   0.00071   0.00460  -0.02227  -0.01723   0.97004
   D11       -1.21213   0.00077   0.00451  -0.02887  -0.02428  -1.23641
   D12        3.01904   0.00082   0.00264  -0.04868  -0.04627   2.97277
   D13        3.03747   0.00114   0.00320  -0.02493  -0.02123   3.01624
   D14        0.83807   0.00120   0.00311  -0.03153  -0.02829   0.80979
   D15       -1.21394   0.00125   0.00124  -0.05135  -0.05027  -1.26421
   D16        0.15588  -0.00094  -0.00207  -0.00277  -0.00513   0.15074
   D17       -3.12302   0.00078  -0.00681  -0.00905  -0.01608  -3.13910
   D18       -2.99557  -0.00096  -0.00287  -0.00681  -0.00978  -3.00536
   D19        0.00872   0.00076  -0.00760  -0.01310  -0.02073  -0.01201
   D20       -2.55081   0.00140  -0.00037   0.10471   0.10471  -2.44611
   D21        1.75881   0.00181  -0.00024   0.10982   0.10944   1.86825
   D22       -0.31275   0.00115  -0.00011   0.10801   0.10783  -0.20492
   D23        0.72333  -0.00031   0.00416   0.11032   0.11473   0.83807
   D24       -1.25023   0.00011   0.00429   0.11542   0.11947  -1.13076
   D25        2.96139  -0.00055   0.00442   0.11361   0.11786   3.07925
   D26       -0.26532  -0.00006   0.00451  -0.15606  -0.15119  -0.41652
   D27       -2.40229  -0.00004   0.00342  -0.15603  -0.15221  -2.55450
   D28        1.89549  -0.00173   0.00770  -0.14465  -0.13708   1.75842
   D29        1.96179  -0.00136   0.00688  -0.15214  -0.14535   1.81644
   D30       -0.17517  -0.00133   0.00578  -0.15212  -0.14637  -0.32154
   D31       -2.16057  -0.00303   0.01006  -0.14074  -0.13123  -2.29181
   D32       -2.33293  -0.00125   0.00783  -0.14358  -0.13528  -2.46821
   D33        1.81329  -0.00123   0.00673  -0.14355  -0.13630   1.67699
   D34       -0.17211  -0.00292   0.01101  -0.13217  -0.12116  -0.29327
   D35        0.96800  -0.00174  -0.00838   0.11759   0.10896   1.07696
   D36        3.13003  -0.00222  -0.00888   0.11172   0.10248  -3.05067
   D37       -1.17681  -0.00057  -0.00952   0.10953   0.10026  -1.07656
   D38       -3.10752  -0.00115  -0.00967   0.11937   0.10949  -2.99803
   D39       -0.94549  -0.00163  -0.01017   0.11349   0.10301  -0.84248
   D40        1.03086   0.00002  -0.01081   0.11131   0.10078   1.13164
   D41       -1.05424  -0.00216  -0.00850   0.13156   0.12295  -0.93128
   D42        1.10779  -0.00264  -0.00901   0.12569   0.11647   1.22427
   D43        3.08414  -0.00099  -0.00965   0.12350   0.11425  -3.08480
         Item               Value     Threshold  Converged?
 Maximum Force            0.003028     0.000450     NO 
 RMS     Force            0.001070     0.000300     NO 
 Maximum Displacement     0.262710     0.001800     NO 
 RMS     Displacement     0.065453     0.001200     NO 
 Predicted change in Energy=-1.679696D-04
 GradGradGradGradGradGradGradGradGradGradGradGradGradGradGradGradGradGrad

 Leave Link  103 at Sat Jun 15 16:39:33 2024, MaxMem=   104857600 cpu:               1.6 elap:               0.9
 (Enter /mlatom/software/Gaussian/g16-avx2/l202.exe)
                          Input orientation:                          
 ---------------------------------------------------------------------
 Center     Atomic      Atomic             Coordinates (Angstroms)
 Number     Number       Type             X           Y           Z
 ---------------------------------------------------------------------
      1          6           0        0.650161   -0.294472   -0.012793
      2          6           0       -0.621341   -1.016681   -0.390617
      3          1           0        0.751663   -0.287492    1.085609
      4          1           0        0.616240    0.763199   -0.298699
      5          1           0       -1.543199   -0.452311   -0.492079
      6          6           0       -0.614023   -2.340693   -0.616187
      7          6           0        0.574012   -3.240893   -0.337942
      8          1           0       -1.533400   -2.847271   -0.889124
      9          1           0        0.707323   -3.997117   -1.124837
     10          1           0        0.313004   -3.831466    0.556235
     11          6           0        1.814427   -1.057910   -0.649589
     12          6           0        1.862997   -2.456072   -0.043227
     13          1           0        2.764502   -0.529161   -0.581658
     14          1           0        1.576112   -1.183866   -1.706947
     15          1           0        2.749415   -2.988968   -0.419317
     16          1           0        2.042187   -2.427933    1.042259
 ---------------------------------------------------------------------
                    Distance matrix (angstroms):
                    1          2          3          4          5
     1  C    0.000000
     2  C    1.510315   0.000000
     3  H    1.103104   2.143851   0.000000
     4  H    1.096157   2.169799   1.743158   0.000000
     5  H    2.250656   1.085648   2.789741   2.485566   0.000000
     6  C    2.479771   1.343109   2.996137   3.353877   2.108259
     7  C    2.965286   2.525621   3.283388   4.004508   3.504644
     8  H    3.471696   2.105094   3.958983   4.243235   2.427669
     9  H    3.866457   3.344761   4.318490   4.832330   4.246279
    10  H    3.598305   3.113285   3.610043   4.683355   3.995390
    11  C    1.530968   2.449843   2.175758   2.207989   3.415437
    12  C    2.478793   2.892138   2.685530   3.461701   3.977273
    13  H    2.202073   3.426091   2.624824   2.522952   4.309317
    14  H    2.125692   2.566997   3.046567   2.587582   3.426541
    15  H    3.439831   3.905475   3.681547   4.317840   4.986628
    16  H    2.757269   3.337536   2.499764   3.743637   4.371758
                    6          7          8          9         10
     6  C    0.000000
     7  C    1.516314   0.000000
     8  H    1.084606   2.213577   0.000000
     9  H    2.179087   1.099477   2.529534   0.000000
    10  H    2.111009   1.102929   2.543012   1.734627   0.000000
    11  C    2.746637   2.530053   3.803568   3.176551   3.376521
    12  C    2.545039   1.537623   3.521944   2.209136   2.157207
    13  H    3.833701   3.494444   4.892865   4.068630   4.267301
    14  H    2.706418   2.666410   3.620058   3.001338   3.705027
    15  H    3.430996   2.191453   4.310835   2.384169   2.756375
    16  H    3.132651   2.172878   4.085450   2.990067   2.279517
                   11         12         13         14         15
    11  C    0.000000
    12  C    1.524759   0.000000
    13  H    1.089418   2.194449   0.000000
    14  H    1.091176   2.113948   1.762721   0.000000
    15  H    2.157826   1.100527   2.465205   2.508590   0.000000
    16  H    2.188878   1.100536   2.600803   3.053369   1.717887
                   16
    16  H    0.000000
 Stoichiometry    C6H10
 Framework group  C1[X(C6H10)]
 Deg. of freedom    42
 Full point group                 C1      NOp   1
 RotChk:  IX=0 Diff= 3.36D-02
 Largest Abelian subgroup         C1      NOp   1
 Largest concise Abelian subgroup C1      NOp   1
                         Standard orientation:                         
 ---------------------------------------------------------------------
 Center     Atomic      Atomic             Coordinates (Angstroms)
 Number     Number       Type             X           Y           Z
 ---------------------------------------------------------------------
      1          6           0        1.424337   -0.316620    0.268595
      2          6           0        0.979383    1.104389    0.016004
      3          1           0        1.426773   -0.509206    1.354754
      4          1           0        2.461033   -0.479477   -0.048108
      5          1           0        1.723053    1.893943   -0.030796
      6          6           0       -0.319982    1.391492   -0.166113
      7          6           0       -1.445109    0.397526    0.046790
      8          1           0       -0.626433    2.415702   -0.349009
      9          1           0       -2.224496    0.490912   -0.723070
     10          1           0       -1.953893    0.699611    0.977562
     11          6           0        0.423804   -1.239037   -0.432792
     12          6           0       -0.943895   -1.046563    0.213153
     13          1           0        0.742328   -2.280562   -0.457298
     14          1           0        0.334407   -0.891831   -1.463385
     15          1           0       -1.656713   -1.768030   -0.214089
     16          1           0       -0.937281   -1.318174    1.279625
 ---------------------------------------------------------------------
 Rotational constants (GHZ):           4.7818494           4.5422063           2.6070261
 Leave Link  202 at Sat Jun 15 16:39:34 2024, MaxMem=   104857600 cpu:               0.2 elap:               0.4
 (Enter /mlatom/software/Gaussian/g16-avx2/l301.exe)
 Standard basis: STO-3G (5D, 7F)
 Ernie: Thresh=  0.10000D-02 Tol=  0.10000D-05 Strict=F.
 There are    40 symmetry adapted cartesian basis functions of A   symmetry.
 There are    40 symmetry adapted basis functions of A   symmetry.
    40 basis functions,   120 primitive gaussians,    40 cartesian basis functions
    23 alpha electrons       23 beta electrons
       nuclear repulsion energy       237.2973593591 Hartrees.
 IExCor=    0 DFT=F Ex=HF Corr=None ExCW=0 ScaHFX=  1.000000
 ScaDFX=  1.000000  1.000000  1.000000  1.000000 ScalE2=  1.000000  1.000000
 IRadAn=      5 IRanWt=     -1 IRanGd=            0 ICorTp=0 IEmpDi=  4
 NAtoms=   16 NActive=   16 NUniq=   16 SFac= 1.00D+00 NAtFMM=   60 NAOKFM=F Big=F
 Integral buffers will be    131072 words long.
 Raffenetti 1 integral format.
 Two-electron integral symmetry is turned on.
 Leave Link  301 at Sat Jun 15 16:39:34 2024, MaxMem=   104857600 cpu:               0.3 elap:               0.5
 (Enter /mlatom/software/Gaussian/g16-avx2/l402.exe)
 External calculation of energy and first derivatives.
 Running external command "/mlatom/software/miniconda3/bin/python /mlatom/software/mlatom/mlatom/interfaces/gaussian_interface.py model_predict_kwargs R"
         input file       "/mlatom/home/qhzhang/git/ts-analysis/calculations/C60/irc/pro_opt/da_ani_opt_1/Gau-212676.EIn"
         output file      "/mlatom/home/qhzhang/git/ts-analysis/calculations/C60/irc/pro_opt/da_ani_opt_1/Gau-212676.EOu"
         message file     "/mlatom/home/qhzhang/git/ts-analysis/calculations/C60/irc/pro_opt/da_ani_opt_1/Gau-212676.EMs"
         fchk file        "/mlatom/home/qhzhang/git/ts-analysis/calculations/C60/irc/pro_opt/da_ani_opt_1/Gau-212676.EFC"
         mat. el file     "/mlatom/home/qhzhang/git/ts-analysis/calculations/C60/irc/pro_opt/da_ani_opt_1/Gau-212676.EUF"
model loaded from /mlatom/home/qhzhang/git/ts-analysis/calculations/C60/irc/pro_opt/da_ani_opt_1/da_energy_iteration27.npz
 Recovered energy= -234.659354472     dipole=      0.000000000000      0.000000000000      0.000000000000
 Energy=    -234.659354     NIter=   0.
 Dipole moment=       0.000000       0.000000       0.000000
 Leave Link  402 at Sat Jun 15 16:39:40 2024, MaxMem=   104857600 cpu:              16.2 elap:               6.0
 (Enter /mlatom/software/Gaussian/g16-avx2/l716.exe)
 Dipole        = 0.00000000D+00 0.00000000D+00 0.00000000D+00
 ***** Axes restored to original set *****
 -------------------------------------------------------------------
 Center     Atomic                   Forces (Hartrees/Bohr)
 Number     Number              X              Y              Z
 -------------------------------------------------------------------
      1        6          -0.002401688    0.000832616    0.000310370
      2        6           0.002992727   -0.003404935   -0.002122144
      3        1           0.000959577    0.000708978   -0.001493866
      4        1          -0.001469059   -0.000832394   -0.002869386
      5        1          -0.000250723    0.000559178    0.000533300
      6        6          -0.000283066   -0.000936452    0.007180894
      7        6          -0.006875076    0.003570371    0.004579687
      8        1           0.000256093   -0.000001907   -0.001994641
      9        1          -0.002021031    0.003333060   -0.002917588
     10        1           0.002963246   -0.003870950   -0.001347189
     11        6          -0.005801999   -0.001835263    0.003022903
     12        6           0.011334105   -0.004828516    0.001671530
     13        1           0.002448003    0.000023587    0.003524133
     14        1           0.004766585    0.002734949   -0.003247023
     15        1          -0.003154652   -0.001667976   -0.002640592
     16        1          -0.003463048    0.005615654   -0.002190387
 -------------------------------------------------------------------
 Cartesian Forces:  Max     0.011334105 RMS     0.003421074
 Leave Link  716 at Sat Jun 15 16:39:41 2024, MaxMem=   104857600 cpu:               0.3 elap:               0.5
 (Enter /mlatom/software/Gaussian/g16-avx2/l103.exe)

 GradGradGradGradGradGradGradGradGradGradGradGradGradGradGradGradGradGrad
 Berny optimization.
 FormGI is forming the generalized inverse of G from B-inverse, IUseBI=4.
 Internal  Forces:  Max     0.004293492 RMS     0.001506494
 Search for a local minimum.
 Step number  17 out of a maximum of   99
 All quantities printed in internal units (Hartrees-Bohrs-Radians)
 Update second derivatives using D2CorX and points   15   16   17
 DE= -4.15D-05 DEPred=-1.68D-04 R= 2.47D-01
 Trust test= 2.47D-01 RLast= 6.16D-01 DXMaxT set to 2.14D+00
 ITU=  0  1  1  1  1  1  1 -1  1  1  1 -1  1  1  1  1  0
     Eigenvalues ---    0.00120   0.00801   0.01073   0.01528   0.02493
     Eigenvalues ---    0.02892   0.03380   0.04168   0.04365   0.05104
     Eigenvalues ---    0.05256   0.05912   0.06655   0.07294   0.07847
     Eigenvalues ---    0.08085   0.08681   0.09732   0.10732   0.12132
     Eigenvalues ---    0.13923   0.15698   0.15934   0.18573   0.21100
     Eigenvalues ---    0.22811   0.26098   0.26708   0.28418   0.31290
     Eigenvalues ---    0.32902   0.33613   0.33802   0.34133   0.34235
     Eigenvalues ---    0.34418   0.34571   0.35364   0.35573   0.37209
     Eigenvalues ---    0.53596   1.06206
 Angle between quadratic step and forces=  77.54 degrees.
 Quartic linear search produced a step of -0.40226.
 Iteration  1 RMS(Cart)=  0.02487701 RMS(Int)=  0.00036052
 Iteration  2 RMS(Cart)=  0.00040267 RMS(Int)=  0.00019342
 Iteration  3 RMS(Cart)=  0.00000007 RMS(Int)=  0.00019342
 ITry= 1 IFail=0 DXMaxC= 1.01D-01 DCOld= 1.00D+10 DXMaxT= 2.14D+00 DXLimC= 3.00D+00 Rises=F
 Variable       Old X    -DE/DX   Delta X   Delta X   Delta X     New X
                                 (Linear)    (Quad)   (Total)
    R1        2.85408  -0.00092  -0.00034  -0.00345  -0.00400   2.85009
    R2        2.08456  -0.00139  -0.00220  -0.00034  -0.00254   2.08203
    R3        2.07144  -0.00001  -0.00039   0.00018  -0.00021   2.07123
    R4        2.89311   0.00006   0.00029  -0.00230  -0.00208   2.89103
    R5        2.05158   0.00045   0.00015  -0.00007   0.00009   2.05166
    R6        2.53811  -0.00208  -0.00078  -0.00094  -0.00183   2.53627
    R7        2.86542  -0.00287  -0.00396   0.00109  -0.00279   2.86263
    R8        2.04961   0.00029   0.00065   0.00131   0.00196   2.05157
    R9        2.07771  -0.00045   0.00002   0.00103   0.00104   2.07876
   R10        2.08423   0.00028  -0.00032   0.00175   0.00143   2.08566
   R11        2.90569   0.00309   0.00731  -0.00927  -0.00175   2.90393
   R12        2.88138  -0.00022   0.00155   0.00227   0.00390   2.88528
   R13        2.05870   0.00237   0.00116   0.00116   0.00233   2.06103
   R14        2.06202   0.00179   0.00227  -0.00264  -0.00037   2.06166
   R15        2.07969  -0.00083  -0.00149  -0.00118  -0.00267   2.07703
   R16        2.07971  -0.00258  -0.00119  -0.00091  -0.00210   2.07761
    A1        1.90666  -0.00075   0.00482  -0.00482   0.00003   1.90670
    A2        1.94991  -0.00002  -0.00222   0.00150  -0.00077   1.94914
    A3        1.87310   0.00068  -0.00136   0.00840   0.00717   1.88028
    A4        1.83015   0.00081   0.00353  -0.00008   0.00345   1.83360
    A5        1.92554  -0.00048  -0.00057  -0.00190  -0.00251   1.92303
    A6        1.97817  -0.00030  -0.00386  -0.00366  -0.00753   1.97064
    A7        2.08250  -0.00098   0.00047  -0.00276  -0.00239   2.08011
    A8        2.10460   0.00099  -0.00044   0.00126   0.00103   2.10563
    A9        2.09600  -0.00001  -0.00001   0.00146   0.00135   2.09734
   A10        2.16360   0.00016  -0.00174  -0.00418  -0.00539   2.15821
   A11        2.09216   0.00015  -0.00040   0.00273   0.00209   2.09425
   A12        2.01865  -0.00006   0.00261   0.00074   0.00309   2.02175
   A13        1.95196  -0.00251  -0.00327   0.00342  -0.00018   1.95178
   A14        1.85589   0.00194   0.00638  -0.01180  -0.00568   1.85020
   A15        1.97030   0.00088   0.00367   0.00769   0.01230   1.98260
   A16        1.81382  -0.00008  -0.00003   0.00434   0.00442   1.81825
   A17        1.96774   0.00083  -0.00112  -0.00746  -0.00887   1.95886
   A18        1.89262  -0.00101  -0.00563   0.00315  -0.00268   1.88993
   A19        1.89238   0.00065   0.01007  -0.00083   0.00958   1.90197
   A20        1.97713   0.00091  -0.00222  -0.00489  -0.00730   1.96983
   A21        1.86975  -0.00023  -0.00265   0.00010  -0.00244   1.86731
   A22        1.97412  -0.00095  -0.00689   0.00205  -0.00502   1.96910
   A23        1.86133   0.00035   0.00683  -0.00306   0.00378   1.86511
   A24        1.88275  -0.00074  -0.00476   0.00669   0.00197   1.88471
   A25        1.94454  -0.00065   0.00658   0.00082   0.00825   1.95280
   A26        1.94180  -0.00000   0.00106   0.00099   0.00169   1.94350
   A27        1.91622  -0.00024  -0.00273  -0.00890  -0.01188   1.90434
   A28        1.91110   0.00037  -0.00456   0.00246  -0.00236   1.90874
   A29        1.95409  -0.00157  -0.00646   0.00633  -0.00040   1.95369
   A30        1.79087   0.00230   0.00586  -0.00178   0.00424   1.79511
    D1        1.57871   0.00012   0.01401   0.00592   0.01992   1.59863
    D2       -1.57728   0.00049   0.01586   0.00319   0.01900  -1.55828
    D3       -0.43820  -0.00040   0.00802   0.00809   0.01613  -0.42208
    D4        2.68899  -0.00003   0.00988   0.00536   0.01521   2.70420
    D5       -2.61670  -0.00048   0.01523   0.00583   0.02110  -2.59561
    D6        0.51049  -0.00011   0.01708   0.00310   0.02018   0.53067
    D7       -1.10562   0.00183   0.00225   0.01020   0.01226  -1.09336
    D8        2.97112   0.00190   0.00509   0.01174   0.01674   2.98786
    D9        0.89711   0.00244   0.01393   0.00628   0.02017   0.91728
   D10        0.97004   0.00106   0.00693   0.00833   0.01516   0.98520
   D11       -1.23641   0.00114   0.00977   0.00988   0.01964  -1.21677
   D12        2.97277   0.00167   0.01861   0.00441   0.02307   2.99584
   D13        3.01624   0.00156   0.00854   0.00460   0.01305   3.02929
   D14        0.80979   0.00164   0.01138   0.00615   0.01753   0.82732
   D15       -1.26421   0.00217   0.02022   0.00068   0.02096  -1.24326
   D16        0.15074  -0.00137   0.00206  -0.02022  -0.01810   0.13264
   D17       -3.13910   0.00076   0.00647  -0.02612  -0.01959   3.12450
   D18       -3.00536  -0.00101   0.00394  -0.02300  -0.01905  -3.02441
   D19       -0.01201   0.00112   0.00834  -0.02890  -0.02054  -0.03256
   D20       -2.44611   0.00150  -0.04212   0.02644  -0.01576  -2.46187
   D21        1.86825   0.00174  -0.04402   0.02623  -0.01773   1.85052
   D22       -0.20492   0.00123  -0.04338   0.02560  -0.01772  -0.22264
   D23        0.83807  -0.00056  -0.04615   0.03193  -0.01429   0.82377
   D24       -1.13076  -0.00033  -0.04806   0.03173  -0.01626  -1.14702
   D25        3.07925  -0.00083  -0.04741   0.03110  -0.01625   3.06301
   D26       -0.41652   0.00062   0.06082  -0.01259   0.04825  -0.36827
   D27       -2.55450   0.00061   0.06123  -0.01704   0.04416  -2.51034
   D28        1.75842  -0.00203   0.05514  -0.01032   0.04492   1.80334
   D29        1.81644  -0.00139   0.05847  -0.00766   0.05088   1.86732
   D30       -0.32154  -0.00140   0.05888  -0.01211   0.04679  -0.27476
   D31       -2.29181  -0.00404   0.05279  -0.00539   0.04755  -2.24426
   D32       -2.46821  -0.00165   0.05442  -0.00461   0.04972  -2.41849
   D33        1.67699  -0.00166   0.05483  -0.00906   0.04563   1.72262
   D34       -0.29327  -0.00429   0.04874  -0.00234   0.04639  -0.24689
   D35        1.07696  -0.00271  -0.04383  -0.00672  -0.05043   1.02653
   D36       -3.05067  -0.00290  -0.04122  -0.00317  -0.04426  -3.09494
   D37       -1.07656  -0.00077  -0.04033  -0.00036  -0.04073  -1.11729
   D38       -2.99803  -0.00170  -0.04404  -0.01229  -0.05624  -3.05427
   D39       -0.84248  -0.00189  -0.04144  -0.00874  -0.05007  -0.89255
   D40        1.13164   0.00024  -0.04054  -0.00593  -0.04654   1.08510
   D41       -0.93128  -0.00294  -0.04946  -0.00487  -0.05425  -0.98553
   D42        1.22427  -0.00313  -0.04685  -0.00133  -0.04809   1.17618
   D43       -3.08480  -0.00100  -0.04596   0.00148  -0.04455  -3.12935
         Item               Value     Threshold  Converged?
 Maximum Force            0.004293     0.000450     NO 
 RMS     Force            0.001506     0.000300     NO 
 Maximum Displacement     0.100629     0.001800     NO 
 RMS     Displacement     0.024868     0.001200     NO 
 Predicted change in Energy=-1.988408D-04
 GradGradGradGradGradGradGradGradGradGradGradGradGradGradGradGradGradGrad

 Leave Link  103 at Sat Jun 15 16:39:42 2024, MaxMem=   104857600 cpu:               1.6 elap:               0.9
 (Enter /mlatom/software/Gaussian/g16-avx2/l202.exe)
                          Input orientation:                          
 ---------------------------------------------------------------------
 Center     Atomic      Atomic             Coordinates (Angstroms)
 Number     Number       Type             X           Y           Z
 ---------------------------------------------------------------------
      1          6           0        0.642791   -0.299186   -0.012433
      2          6           0       -0.623569   -1.018883   -0.403636
      3          1           0        0.735141   -0.297410    1.085449
      4          1           0        0.611720    0.758745   -0.297277
      5          1           0       -1.539465   -0.449239   -0.527612
      6          6           0       -0.619896   -2.344366   -0.614388
      7          6           0        0.569065   -3.237216   -0.324696
      8          1           0       -1.540835   -2.854179   -0.880069
      9          1           0        0.694686   -4.013477   -1.093918
     10          1           0        0.311135   -3.800809    0.588518
     11          6           0        1.818534   -1.050563   -0.639776
     12          6           0        1.870185   -2.462919   -0.062041
     13          1           0        2.764572   -0.517344   -0.538758
     14          1           0        1.600821   -1.151733   -1.704016
     15          1           0        2.741159   -2.992942   -0.472568
     16          1           0        2.074036   -2.457586    1.018307
 ---------------------------------------------------------------------
                    Distance matrix (angstroms):
                    1          2          3          4          5
     1  C    0.000000
     2  C    1.508201   0.000000
     3  H    1.101760   2.141025   0.000000
     4  H    1.096047   2.167305   1.744313   0.000000
     5  H    2.247257   1.085694   2.792642   2.477877   0.000000
     6  C    2.477800   1.342138   2.985901   3.353615   2.108233
     7  C    2.955497   2.519842   3.264743   3.996282   3.501413
     8  H    3.471167   2.106342   3.947201   4.245745   2.430631
     9  H    3.868884   3.343932   4.308182   4.838969   4.244518
    10  H    3.568262   3.097926   3.563780   4.654515   3.987918
    11  C    1.529869   2.453698   2.171954   2.201659   3.413258
    12  C    2.488111   2.901850   2.700831   3.466726   3.987151
    13  H    2.196945   3.427725   2.608641   2.514257   4.304590
    14  H    2.122760   2.580028   3.043088   2.570439   3.426196
    15  H    3.445459   3.901673   3.703703   4.317452   4.979678
    16  H    2.787396   3.371774   2.542344   3.770135   4.413697
                    6          7          8          9         10
     6  C    0.000000
     7  C    1.514837   0.000000
     8  H    1.085644   2.215138   0.000000
     9  H    2.178074   1.100030   2.527302   0.000000
    10  H    2.105950   1.103686   2.546104   1.738657   0.000000
    11  C    2.760528   2.538089   3.820488   3.201272   3.368205
    12  C    2.553359   1.536696   3.529491   2.202453   2.154950
    13  H    3.846863   3.501968   4.910583   4.100681   4.251029
    14  H    2.746133   2.704863   3.667044   3.063149   3.733176
    15  H    3.425997   2.190782   4.303578   2.369730   2.771925
    16  H    3.152108   2.162502   4.102245   2.963933   2.257606
                   11         12         13         14         15
    11  C    0.000000
    12  C    1.526825   0.000000
    13  H    1.090649   2.193730   0.000000
    14  H    1.090982   2.118454   1.764821   0.000000
    15  H    2.156856   1.099114   2.476594   2.491362   0.000000
    16  H    2.189574   1.099426   2.581828   3.056179   1.718828
                   16
    16  H    0.000000
 Stoichiometry    C6H10
 Framework group  C1[X(C6H10)]
 Deg. of freedom    42
 Full point group                 C1      NOp   1
 RotChk:  IX=0 Diff= 2.39D-02
 Largest Abelian subgroup         C1      NOp   1
 Largest concise Abelian subgroup C1      NOp   1
                         Standard orientation:                         
 ---------------------------------------------------------------------
 Center     Atomic      Atomic             Coordinates (Angstroms)
 Number     Number       Type             X           Y           Z
 ---------------------------------------------------------------------
      1          6           0        1.415519   -0.332481    0.275920
      2          6           0        0.995991    1.090756    0.005616
      3          1           0        1.407907   -0.513155    1.362738
      4          1           0        2.450149   -0.515765   -0.035958
      5          1           0        1.756235    1.862813   -0.062845
      6          6           0       -0.298285    1.401470   -0.166548
      7          6           0       -1.433250    0.422960    0.055044
      8          1           0       -0.589959    2.431902   -0.344764
      9          1           0       -2.225847    0.538318   -0.698976
     10          1           0       -1.914541    0.724313    1.001442
     11          6           0        0.411756   -1.254170   -0.419385
     12          6           0       -0.969720   -1.035653    0.192962
     13          1           0        0.718847   -2.300631   -0.407894
     14          1           0        0.351175   -0.932269   -1.460034
     15          1           0       -1.686826   -1.728856   -0.268863
     16          1           0       -0.999204   -1.323956    1.253504
 ---------------------------------------------------------------------
 Rotational constants (GHZ):           4.7632863           4.5510798           2.5980467
 Leave Link  202 at Sat Jun 15 16:39:43 2024, MaxMem=   104857600 cpu:               0.2 elap:               0.4
 (Enter /mlatom/software/Gaussian/g16-avx2/l301.exe)
 Standard basis: STO-3G (5D, 7F)
 Ernie: Thresh=  0.10000D-02 Tol=  0.10000D-05 Strict=F.
 There are    40 symmetry adapted cartesian basis functions of A   symmetry.
 There are    40 symmetry adapted basis functions of A   symmetry.
    40 basis functions,   120 primitive gaussians,    40 cartesian basis functions
    23 alpha electrons       23 beta electrons
       nuclear repulsion energy       237.1960166088 Hartrees.
 IExCor=    0 DFT=F Ex=HF Corr=None ExCW=0 ScaHFX=  1.000000
 ScaDFX=  1.000000  1.000000  1.000000  1.000000 ScalE2=  1.000000  1.000000
 IRadAn=      5 IRanWt=     -1 IRanGd=            0 ICorTp=0 IEmpDi=  4
 NAtoms=   16 NActive=   16 NUniq=   16 SFac= 1.00D+00 NAtFMM=   60 NAOKFM=F Big=F
 Integral buffers will be    131072 words long.
 Raffenetti 1 integral format.
 Two-electron integral symmetry is turned on.
 Leave Link  301 at Sat Jun 15 16:39:44 2024, MaxMem=   104857600 cpu:               0.4 elap:               0.5
 (Enter /mlatom/software/Gaussian/g16-avx2/l402.exe)
 External calculation of energy and first derivatives.
 Running external command "/mlatom/software/miniconda3/bin/python /mlatom/software/mlatom/mlatom/interfaces/gaussian_interface.py model_predict_kwargs R"
         input file       "/mlatom/home/qhzhang/git/ts-analysis/calculations/C60/irc/pro_opt/da_ani_opt_1/Gau-212676.EIn"
         output file      "/mlatom/home/qhzhang/git/ts-analysis/calculations/C60/irc/pro_opt/da_ani_opt_1/Gau-212676.EOu"
         message file     "/mlatom/home/qhzhang/git/ts-analysis/calculations/C60/irc/pro_opt/da_ani_opt_1/Gau-212676.EMs"
         fchk file        "/mlatom/home/qhzhang/git/ts-analysis/calculations/C60/irc/pro_opt/da_ani_opt_1/Gau-212676.EFC"
         mat. el file     "/mlatom/home/qhzhang/git/ts-analysis/calculations/C60/irc/pro_opt/da_ani_opt_1/Gau-212676.EUF"
model loaded from /mlatom/home/qhzhang/git/ts-analysis/calculations/C60/irc/pro_opt/da_ani_opt_1/da_energy_iteration27.npz
 Recovered energy= -234.659593069     dipole=      0.000000000000      0.000000000000      0.000000000000
 Energy=    -234.659593     NIter=   0.
 Dipole moment=       0.000000       0.000000       0.000000
 Leave Link  402 at Sat Jun 15 16:39:48 2024, MaxMem=   104857600 cpu:              11.3 elap:               4.4
 (Enter /mlatom/software/Gaussian/g16-avx2/l716.exe)
 Dipole        = 0.00000000D+00 0.00000000D+00 0.00000000D+00
 ***** Axes restored to original set *****
 -------------------------------------------------------------------
 Center     Atomic                   Forces (Hartrees/Bohr)
 Number     Number              X              Y              Z
 -------------------------------------------------------------------
      1        6          -0.001613729    0.001355600    0.000278580
      2        6           0.002078471   -0.002625747   -0.002534940
      3        1           0.000839063    0.000977597   -0.000541613
      4        1          -0.001530087   -0.000616946   -0.002464509
      5        1          -0.000472691    0.000410693    0.000754560
      6        6          -0.000127870   -0.000560481    0.006524638
      7        6          -0.006973451    0.001305403    0.003333646
      8        1           0.000978439    0.000198692   -0.002107631
      9        1          -0.002590353    0.002982562   -0.002241380
     10        1           0.003072091   -0.004321745   -0.001833139
     11        6          -0.004939262   -0.002626025    0.003088865
     12        6           0.009564888   -0.002356944    0.002425041
     13        1           0.001749055   -0.000603040    0.002617123
     14        1           0.004528266    0.002406006   -0.003169810
     15        1          -0.002304932   -0.001878638   -0.002692576
     16        1          -0.002257898    0.005953011   -0.001436855
 -------------------------------------------------------------------
 Cartesian Forces:  Max     0.009564888 RMS     0.003044206
 Leave Link  716 at Sat Jun 15 16:39:49 2024, MaxMem=   104857600 cpu:               0.3 elap:               0.5
 (Enter /mlatom/software/Gaussian/g16-avx2/l103.exe)

 GradGradGradGradGradGradGradGradGradGradGradGradGradGradGradGradGradGrad
 Berny optimization.
 FormGI is forming the generalized inverse of G from B-inverse, IUseBI=4.
 Internal  Forces:  Max     0.004600867 RMS     0.001425086
 Search for a local minimum.
 Step number  18 out of a maximum of   99
 All quantities printed in internal units (Hartrees-Bohrs-Radians)
 Update second derivatives using D2CorX and points   15   16   17   18
 DE= -2.39D-04 DEPred=-1.99D-04 R= 1.20D+00
 TightC=F SS=  1.41D+00  RLast= 2.24D-01 DXNew= 3.6069D+00 6.7327D-01
 Trust test= 1.20D+00 RLast= 2.24D-01 DXMaxT set to 2.14D+00
 ITU=  1  0  1  1  1  1  1  1 -1  1  1  1 -1  1  1  1  1  0
     Eigenvalues ---    0.00118   0.00802   0.01082   0.01479   0.02720
     Eigenvalues ---    0.02857   0.03366   0.03941   0.04221   0.05113
     Eigenvalues ---    0.05538   0.05988   0.06686   0.07505   0.07575
     Eigenvalues ---    0.08499   0.08768   0.09910   0.10709   0.12207
     Eigenvalues ---    0.15165   0.15925   0.16283   0.17719   0.20294
     Eigenvalues ---    0.22461   0.26459   0.26830   0.28552   0.31206
     Eigenvalues ---    0.33044   0.33710   0.33840   0.34133   0.34287
     Eigenvalues ---    0.34406   0.35149   0.35411   0.35698   0.37395
     Eigenvalues ---    0.53893   0.73302
 Angle between quadratic step and forces=  80.73 degrees.
 Quartic linear search produced a step of  0.32620.
 Iteration  1 RMS(Cart)=  0.02545425 RMS(Int)=  0.00040308
 Iteration  2 RMS(Cart)=  0.00049744 RMS(Int)=  0.00014050
 Iteration  3 RMS(Cart)=  0.00000011 RMS(Int)=  0.00014050
 ITry= 1 IFail=0 DXMaxC= 1.32D-01 DCOld= 1.00D+10 DXMaxT= 2.14D+00 DXLimC= 3.00D+00 Rises=F
 Variable       Old X    -DE/DX   Delta X   Delta X   Delta X     New X
                                 (Linear)    (Quad)   (Total)
    R1        2.85009  -0.00034  -0.00130  -0.00228  -0.00349   2.84660
    R2        2.08203  -0.00047  -0.00083   0.00742   0.00659   2.08862
    R3        2.07123   0.00009  -0.00007   0.00184   0.00177   2.07300
    R4        2.89103   0.00075  -0.00068   0.00846   0.00789   2.89892
    R5        2.05166   0.00053   0.00003  -0.00038  -0.00035   2.05131
    R6        2.53627  -0.00132  -0.00060   0.00066   0.00005   2.53633
    R7        2.86263  -0.00229  -0.00091   0.01641   0.01540   2.87803
    R8        2.05157  -0.00041   0.00064  -0.00751  -0.00687   2.04470
    R9        2.07876  -0.00083   0.00034  -0.00472  -0.00438   2.07437
   R10        2.08566  -0.00003   0.00047  -0.00170  -0.00124   2.08443
   R11        2.90393   0.00460  -0.00057  -0.01370  -0.01436   2.88958
   R12        2.88528  -0.00084   0.00127   0.00804   0.00931   2.89459
   R13        2.06103   0.00146   0.00076  -0.00358  -0.00282   2.05821
   R14        2.06166   0.00197  -0.00012  -0.00330  -0.00342   2.05824
   R15        2.07703   0.00009  -0.00087   0.00650   0.00563   2.08266
   R16        2.07761  -0.00180  -0.00068  -0.00005  -0.00073   2.07688
    A1        1.90670  -0.00029   0.00001  -0.01531  -0.01533   1.89136
    A2        1.94914  -0.00009  -0.00025   0.00439   0.00408   1.95322
    A3        1.88028  -0.00011   0.00234   0.01216   0.01441   1.89469
    A4        1.83360   0.00046   0.00113  -0.00879  -0.00767   1.82593
    A5        1.92303  -0.00021  -0.00082   0.00073  -0.00004   1.92298
    A6        1.97064   0.00022  -0.00246   0.00538   0.00285   1.97349
    A7        2.08011  -0.00071  -0.00078  -0.00383  -0.00448   2.07563
    A8        2.10563   0.00082   0.00034   0.00008   0.00009   2.10573
    A9        2.09734  -0.00011   0.00044   0.00360   0.00416   2.10150
   A10        2.15821   0.00106  -0.00176   0.00708   0.00484   2.16305
   A11        2.09425  -0.00016   0.00068   0.00280   0.00371   2.09796
   A12        2.02175  -0.00064   0.00101  -0.00961  -0.00836   2.01338
   A13        1.95178  -0.00226  -0.00006   0.00616   0.00629   1.95807
   A14        1.85020   0.00242  -0.00185  -0.00964  -0.01125   1.83896
   A15        1.98260  -0.00040   0.00401  -0.00557  -0.00217   1.98042
   A16        1.81825  -0.00071   0.00144  -0.00851  -0.00715   1.81109
   A17        1.95886   0.00159  -0.00289   0.00294   0.00024   1.95910
   A18        1.88993  -0.00053  -0.00088   0.01399   0.01327   1.90320
   A19        1.90197   0.00109   0.00313  -0.00797  -0.00510   1.89687
   A20        1.96983   0.00082  -0.00238  -0.00347  -0.00578   1.96405
   A21        1.86731  -0.00009  -0.00080   0.00729   0.00649   1.87381
   A22        1.96910  -0.00122  -0.00164   0.00954   0.00805   1.97715
   A23        1.86511   0.00017   0.00123  -0.01482  -0.01356   1.85155
   A24        1.88471  -0.00078   0.00064   0.00894   0.00958   1.89429
   A25        1.95280  -0.00046   0.00269   0.00383   0.00602   1.95881
   A26        1.94350  -0.00047   0.00055  -0.01664  -0.01598   1.92751
   A27        1.90434   0.00083  -0.00387   0.00037  -0.00335   1.90099
   A28        1.90874   0.00024  -0.00077   0.01358   0.01305   1.92179
   A29        1.95369  -0.00202  -0.00013   0.00086   0.00086   1.95455
   A30        1.79511   0.00204   0.00138  -0.00293  -0.00172   1.79339
    D1        1.59863  -0.00007   0.00650  -0.00111   0.00540   1.60403
    D2       -1.55828   0.00027   0.00620  -0.01282  -0.00656  -1.56483
    D3       -0.42208  -0.00040   0.00526   0.01642   0.02168  -0.40040
    D4        2.70420  -0.00006   0.00496   0.00472   0.00972   2.71392
    D5       -2.59561  -0.00054   0.00688  -0.00182   0.00493  -2.59068
    D6        0.53067  -0.00020   0.00658  -0.01352  -0.00703   0.52364
    D7       -1.09336   0.00132   0.00400   0.01954   0.02370  -1.06966
    D8        2.98786   0.00148   0.00546   0.01575   0.02132   3.00917
    D9        0.91728   0.00202   0.00658   0.00205   0.00869   0.92597
   D10        0.98520   0.00080   0.00495   0.00873   0.01375   0.99894
   D11       -1.21677   0.00095   0.00641   0.00494   0.01136  -1.20541
   D12        2.99584   0.00149   0.00753  -0.00876  -0.00127   2.99457
   D13        3.02929   0.00137   0.00426   0.00157   0.00588   3.03516
   D14        0.82732   0.00153   0.00572  -0.00222   0.00349   0.83081
   D15       -1.24326   0.00207   0.00684  -0.01592  -0.00914  -1.25240
   D16        0.13264  -0.00117  -0.00590  -0.02723  -0.03321   0.09943
   D17        3.12450   0.00086  -0.00639  -0.02590  -0.03232   3.09218
   D18       -3.02441  -0.00083  -0.00622  -0.03912  -0.04542  -3.06984
   D19       -0.03256   0.00120  -0.00670  -0.03779  -0.04453  -0.07708
   D20       -2.46187   0.00112  -0.00514   0.06472   0.05967  -2.40220
   D21        1.85052   0.00170  -0.00578   0.07715   0.07135   1.92187
   D22       -0.22264   0.00100  -0.00578   0.06942   0.06364  -0.15899
   D23        0.82377  -0.00087  -0.00466   0.06253   0.05792   0.88169
   D24       -1.14702  -0.00028  -0.00530   0.07496   0.06960  -1.07742
   D25        3.06301  -0.00099  -0.00530   0.06723   0.06189   3.12490
   D26       -0.36827   0.00045   0.01574  -0.06671  -0.05088  -0.41915
   D27       -2.51034   0.00082   0.01441  -0.07498  -0.06043  -2.57078
   D28        1.80334  -0.00185   0.01465  -0.06267  -0.04803   1.75531
   D29        1.86732  -0.00165   0.01660  -0.06036  -0.04379   1.82353
   D30       -0.27476  -0.00129   0.01526  -0.06862  -0.05334  -0.32810
   D31       -2.24426  -0.00395   0.01551  -0.05632  -0.04094  -2.28520
   D32       -2.41849  -0.00196   0.01622  -0.06067  -0.04435  -2.46284
   D33        1.72262  -0.00160   0.01488  -0.06893  -0.05390   1.66871
   D34       -0.24689  -0.00427   0.01513  -0.05663  -0.04150  -0.28839
   D35        1.02653  -0.00171  -0.01645   0.02394   0.00749   1.03402
   D36       -3.09494  -0.00246  -0.01444   0.01505   0.00061  -3.09433
   D37       -1.11729  -0.00097  -0.01329   0.01999   0.00678  -1.11051
   D38       -3.05427  -0.00069  -0.01835   0.02023   0.00186  -3.05241
   D39       -0.89255  -0.00144  -0.01633   0.01134  -0.00502  -0.89757
   D40        1.08510   0.00005  -0.01518   0.01628   0.00115   1.08625
   D41       -0.98553  -0.00224  -0.01770   0.02715   0.00943  -0.97611
   D42        1.17618  -0.00299  -0.01569   0.01826   0.00255   1.17873
   D43       -3.12935  -0.00149  -0.01453   0.02320   0.00871  -3.12064
         Item               Value     Threshold  Converged?
 Maximum Force            0.004601     0.000450     NO 
 RMS     Force            0.001425     0.000300     NO 
 Maximum Displacement     0.132018     0.001800     NO 
 RMS     Displacement     0.025448     0.001200     NO 
 Predicted change in Energy=-3.287390D-04
 GradGradGradGradGradGradGradGradGradGradGradGradGradGradGradGradGradGrad

 Leave Link  103 at Sat Jun 15 16:39:50 2024, MaxMem=   104857600 cpu:               1.6 elap:               0.9
 (Enter /mlatom/software/Gaussian/g16-avx2/l202.exe)
                          Input orientation:                          
 ---------------------------------------------------------------------
 Center     Atomic      Atomic             Coordinates (Angstroms)
 Number     Number       Type             X           Y           Z
 ---------------------------------------------------------------------
      1          6           0        0.641692   -0.293297   -0.028292
      2          6           0       -0.627704   -1.015602   -0.397086
      3          1           0        0.727159   -0.279775    1.073565
      4          1           0        0.609197    0.764663   -0.316453
      5          1           0       -1.539170   -0.441115   -0.529435
      6          6           0       -0.627704   -2.343760   -0.590494
      7          6           0        0.578668   -3.239245   -0.340968
      8          1           0       -1.551853   -2.861846   -0.810208
      9          1           0        0.710579   -3.987400   -1.133328
     10          1           0        0.318066   -3.840050    0.546613
     11          6           0        1.828374   -1.047339   -0.641884
     12          6           0        1.865214   -2.462874   -0.057788
     13          1           0        2.768682   -0.509777   -0.527392
     14          1           0        1.624005   -1.164870   -1.705237
     15          1           0        2.738825   -3.010696   -0.446775
     16          1           0        2.046050   -2.456124    1.026249
 ---------------------------------------------------------------------
                    Distance matrix (angstroms):
                    1          2          3          4          5
     1  C    0.000000
     2  C    1.506353   0.000000
     3  H    1.105249   2.130706   0.000000
     4  H    1.096983   2.169279   1.742675   0.000000
     5  H    2.242578   1.085506   2.780627   2.472801   0.000000
     6  C    2.476255   1.342166   2.977378   3.356683   2.110582
     7  C    2.963165   2.530429   3.283506   4.004100   3.514298
     8  H    3.467056   2.105549   3.925504   4.250352   2.436992
     9  H    3.856456   3.341353   4.314758   4.822829   4.242900
    10  H    3.607590   3.124508   3.622236   4.693935   4.019946
    11  C    1.534044   2.468451   2.178209   2.208088   3.423523
    12  C    2.490972   2.902475   2.709437   3.472965   3.987455
    13  H    2.195461   3.436317   2.604569   2.516360   4.308400
    14  H    2.129959   2.608396   3.051142   2.584890   3.451378
    15  H    3.457940   3.913614   3.717009   4.336546   4.991074
    16  H    2.786054   3.354093   2.545232   3.773707   4.397069
                    6          7          8          9         10
     6  C    0.000000
     7  C    1.522987   0.000000
     8  H    1.082006   2.213986   0.000000
     9  H    2.187973   1.097712   2.547524   0.000000
    10  H    2.103896   1.103032   2.508873   1.731467   0.000000
    11  C    2.777709   2.541017   3.840143   3.183542   3.390102
    12  C    2.551981   1.529099   3.521599   2.194117   2.157680
    13  H    3.860429   3.504413   4.927396   4.086173   4.271970
    14  H    2.775361   2.693880   3.710374   3.021276   3.732680
    15  H    3.434963   2.174788   4.308614   2.353526   2.744945
    16  H    3.126570   2.153083   4.059813   2.965141   2.265222
                   11         12         13         14         15
    11  C    0.000000
    12  C    1.531752   0.000000
    13  H    1.089156   2.202583   0.000000
    14  H    1.089174   2.111181   1.768262   0.000000
    15  H    2.172960   1.102095   2.502396   2.496723   0.000000
    16  H    2.194249   1.099037   2.593119   3.050652   1.719676
                   16
    16  H    0.000000
 Stoichiometry    C6H10
 Framework group  C1[X(C6H10)]
 Deg. of freedom    42
 Full point group                 C1      NOp   1
 RotChk:  IX=0 Diff= 1.46D-02
 Largest Abelian subgroup         C1      NOp   1
 Largest concise Abelian subgroup C1      NOp   1
                         Standard orientation:                         
 ---------------------------------------------------------------------
 Center     Atomic      Atomic             Coordinates (Angstroms)
 Number     Number       Type             X           Y           Z
 ---------------------------------------------------------------------
      1          6           0        1.418038   -0.338152    0.262645
      2          6           0        1.006167    1.087447    0.003551
      3          1           0        1.422393   -0.506360    1.355011
      4          1           0        2.451753   -0.529054   -0.050983
      5          1           0        1.775021    1.849168   -0.079921
      6          6           0       -0.287647    1.408086   -0.153446
      7          6           0       -1.435951    0.425518    0.034827
      8          1           0       -0.579454    2.440525   -0.293644
      9          1           0       -2.202190    0.529120   -0.744349
     10          1           0       -1.951027    0.750681    0.954417
     11          6           0        0.403244   -1.269860   -0.412190
     12          6           0       -0.976325   -1.022801    0.205886
     13          1           0        0.709196   -2.314620   -0.378576
     14          1           0        0.325682   -0.965184   -1.455001
     15          1           0       -1.715678   -1.715063   -0.228561
     16          1           0       -1.000853   -1.280645    1.273967
 ---------------------------------------------------------------------
 Rotational constants (GHZ):           4.7585532           4.5354476           2.5848834
 Leave Link  202 at Sat Jun 15 16:39:50 2024, MaxMem=   104857600 cpu:               0.2 elap:               0.4
 (Enter /mlatom/software/Gaussian/g16-avx2/l301.exe)
 Standard basis: STO-3G (5D, 7F)
 Ernie: Thresh=  0.10000D-02 Tol=  0.10000D-05 Strict=F.
 There are    40 symmetry adapted cartesian basis functions of A   symmetry.
 There are    40 symmetry adapted basis functions of A   symmetry.
    40 basis functions,   120 primitive gaussians,    40 cartesian basis functions
    23 alpha electrons       23 beta electrons
       nuclear repulsion energy       236.9313417200 Hartrees.
 IExCor=    0 DFT=F Ex=HF Corr=None ExCW=0 ScaHFX=  1.000000
 ScaDFX=  1.000000  1.000000  1.000000  1.000000 ScalE2=  1.000000  1.000000
 IRadAn=      5 IRanWt=     -1 IRanGd=            0 ICorTp=0 IEmpDi=  4
 NAtoms=   16 NActive=   16 NUniq=   16 SFac= 1.00D+00 NAtFMM=   60 NAOKFM=F Big=F
 Integral buffers will be    131072 words long.
 Raffenetti 1 integral format.
 Two-electron integral symmetry is turned on.
 Leave Link  301 at Sat Jun 15 16:39:51 2024, MaxMem=   104857600 cpu:               0.3 elap:               0.5
 (Enter /mlatom/software/Gaussian/g16-avx2/l402.exe)
 External calculation of energy and first derivatives.
 Running external command "/mlatom/software/miniconda3/bin/python /mlatom/software/mlatom/mlatom/interfaces/gaussian_interface.py model_predict_kwargs R"
         input file       "/mlatom/home/qhzhang/git/ts-analysis/calculations/C60/irc/pro_opt/da_ani_opt_1/Gau-212676.EIn"
         output file      "/mlatom/home/qhzhang/git/ts-analysis/calculations/C60/irc/pro_opt/da_ani_opt_1/Gau-212676.EOu"
         message file     "/mlatom/home/qhzhang/git/ts-analysis/calculations/C60/irc/pro_opt/da_ani_opt_1/Gau-212676.EMs"
         fchk file        "/mlatom/home/qhzhang/git/ts-analysis/calculations/C60/irc/pro_opt/da_ani_opt_1/Gau-212676.EFC"
         mat. el file     "/mlatom/home/qhzhang/git/ts-analysis/calculations/C60/irc/pro_opt/da_ani_opt_1/Gau-212676.EUF"
model loaded from /mlatom/home/qhzhang/git/ts-analysis/calculations/C60/irc/pro_opt/da_ani_opt_1/da_energy_iteration27.npz
 Recovered energy= -234.659960502     dipole=      0.000000000000      0.000000000000      0.000000000000
 Energy=    -234.659961     NIter=   0.
 Dipole moment=       0.000000       0.000000       0.000000
 Leave Link  402 at Sat Jun 15 16:39:55 2024, MaxMem=   104857600 cpu:              10.6 elap:               4.2
 (Enter /mlatom/software/Gaussian/g16-avx2/l716.exe)
 Dipole        = 0.00000000D+00 0.00000000D+00 0.00000000D+00
 ***** Axes restored to original set *****
 -------------------------------------------------------------------
 Center     Atomic                   Forces (Hartrees/Bohr)
 Number     Number              X              Y              Z
 -------------------------------------------------------------------
      1        6          -0.000107261    0.001439669    0.002862047
      2        6           0.003509349   -0.003620769   -0.004744304
      3        1           0.001987926    0.000967410   -0.002259180
      4        1          -0.001385723   -0.001138248   -0.003046963
      5        1          -0.000867533    0.000049286    0.001402629
      6        6           0.003719360   -0.001876613    0.006908149
      7        6          -0.012621727    0.004331761    0.003980429
      8        1          -0.001401133   -0.000574478   -0.003365988
      9        1          -0.002994553    0.002628432   -0.003677355
     10        1           0.004062277   -0.004363665   -0.001415908
     11        6          -0.008309166   -0.005518022    0.005255433
     12        6           0.012883950   -0.002232046    0.003361258
     13        1           0.002552844   -0.000902068    0.002313574
     14        1           0.003873057    0.003619188   -0.004175926
     15        1          -0.002852405    0.000730222   -0.002202695
     16        1          -0.002049271    0.006459938   -0.001195205
 -------------------------------------------------------------------
 Cartesian Forces:  Max     0.012883950 RMS     0.004211777
 Leave Link  716 at Sat Jun 15 16:39:56 2024, MaxMem=   104857600 cpu:               0.3 elap:               0.5
 (Enter /mlatom/software/Gaussian/g16-avx2/l103.exe)

 GradGradGradGradGradGradGradGradGradGradGradGradGradGradGradGradGradGrad
 Berny optimization.
 FormGI is forming the generalized inverse of G from B-inverse, IUseBI=4.
 Internal  Forces:  Max     0.007093394 RMS     0.001871029
 Search for a local minimum.
 Step number  19 out of a maximum of   99
 All quantities printed in internal units (Hartrees-Bohrs-Radians)
 Update second derivatives using D2CorX and points   17   18   19
 DE= -3.67D-04 DEPred=-3.29D-04 R= 1.12D+00
 TightC=F SS=  1.41D+00  RLast= 2.40D-01 DXNew= 3.6069D+00 7.2137D-01
 Trust test= 1.12D+00 RLast= 2.40D-01 DXMaxT set to 2.14D+00
 ITU=  1  1  0  1  1  1  1  1  1 -1  1  1  1 -1  1  1  1  1  0
     Eigenvalues ---    0.00115   0.00745   0.01086   0.01443   0.02468
     Eigenvalues ---    0.02927   0.03339   0.04134   0.04593   0.05104
     Eigenvalues ---    0.05517   0.06016   0.06765   0.07294   0.07867
     Eigenvalues ---    0.08818   0.08916   0.09871   0.10776   0.12249
     Eigenvalues ---    0.14603   0.15912   0.16195   0.16648   0.20259
     Eigenvalues ---    0.22613   0.26691   0.27922   0.28527   0.31205
     Eigenvalues ---    0.32897   0.33699   0.33974   0.34133   0.34316
     Eigenvalues ---    0.34429   0.35141   0.35421   0.36314   0.37410
     Eigenvalues ---    0.54193   0.69666
 Angle between quadratic step and forces=  78.62 degrees.
 Quartic linear search produced a step of  0.15276.
 Iteration  1 RMS(Cart)=  0.03485802 RMS(Int)=  0.00074586
 Iteration  2 RMS(Cart)=  0.00094071 RMS(Int)=  0.00019250
 Iteration  3 RMS(Cart)=  0.00000044 RMS(Int)=  0.00019250
 ITry= 1 IFail=0 DXMaxC= 1.86D-01 DCOld= 1.00D+10 DXMaxT= 2.14D+00 DXLimC= 3.00D+00 Rises=F
 Variable       Old X    -DE/DX   Delta X   Delta X   Delta X     New X
                                 (Linear)    (Quad)   (Total)
    R1        2.84660   0.00031  -0.00053  -0.00536  -0.00576   2.84084
    R2        2.08862  -0.00209   0.00101  -0.00445  -0.00344   2.08518
    R3        2.07300  -0.00026   0.00027  -0.00022   0.00005   2.07305
    R4        2.89892  -0.00227   0.00121  -0.00794  -0.00666   2.89227
    R5        2.05131   0.00058  -0.00005   0.00044   0.00039   2.05170
    R6        2.53633  -0.00210   0.00001  -0.00298  -0.00299   2.53334
    R7        2.87803  -0.00579   0.00235  -0.00846  -0.00626   2.87177
    R8        2.04470   0.00216  -0.00105   0.00768   0.00663   2.05132
    R9        2.07437   0.00050  -0.00067   0.00674   0.00608   2.08045
   R10        2.08443   0.00028  -0.00019   0.00472   0.00453   2.08896
   R11        2.88958   0.00709  -0.00219  -0.01056  -0.01288   2.87669
   R12        2.89459  -0.00353   0.00142   0.00163   0.00313   2.89772
   R13        2.05821   0.00200  -0.00043   0.00442   0.00399   2.06220
   R14        2.05824   0.00296  -0.00052  -0.00181  -0.00233   2.05591
   R15        2.08266  -0.00185   0.00086  -0.01092  -0.01006   2.07260
   R16        2.07688  -0.00148  -0.00011  -0.00197  -0.00208   2.07480
    A1        1.89136   0.00092  -0.00234   0.00136  -0.00082   1.89054
    A2        1.95322  -0.00005   0.00062  -0.00150  -0.00073   1.95250
    A3        1.89469  -0.00078   0.00220   0.01497   0.01684   1.91152
    A4        1.82593   0.00065  -0.00117   0.00539   0.00409   1.83002
    A5        1.92298  -0.00086  -0.00001  -0.00906  -0.00897   1.91401
    A6        1.97349   0.00020   0.00044  -0.01163  -0.01117   1.96232
    A7        2.07563  -0.00075  -0.00068  -0.00485  -0.00533   2.07030
    A8        2.10573   0.00166   0.00001   0.00624   0.00581   2.11153
    A9        2.10150  -0.00090   0.00064  -0.00146  -0.00061   2.10089
   A10        2.16305  -0.00017   0.00074  -0.00952  -0.00951   2.15354
   A11        2.09796  -0.00003   0.00057   0.00551   0.00644   2.10439
   A12        2.01338   0.00045  -0.00128   0.00352   0.00260   2.01598
   A13        1.95807  -0.00345   0.00096  -0.00070   0.00069   1.95876
   A14        1.83896   0.00322  -0.00172  -0.01014  -0.01171   1.82725
   A15        1.98042   0.00046  -0.00033   0.01451   0.01332   1.99375
   A16        1.81109  -0.00037  -0.00109   0.00781   0.00661   1.81770
   A17        1.95910   0.00167   0.00004  -0.01238  -0.01208   1.94702
   A18        1.90320  -0.00146   0.00203   0.00045   0.00273   1.90593
   A19        1.89687   0.00152  -0.00078  -0.00389  -0.00463   1.89224
   A20        1.96405   0.00094  -0.00088  -0.00604  -0.00684   1.95721
   A21        1.87381  -0.00069   0.00099  -0.00199  -0.00116   1.87265
   A22        1.97715  -0.00195   0.00123  -0.00343  -0.00230   1.97485
   A23        1.85155   0.00112  -0.00207   0.00940   0.00732   1.85887
   A24        1.89429  -0.00090   0.00146   0.00703   0.00851   1.90280
   A25        1.95881  -0.00149   0.00092  -0.00301  -0.00261   1.95620
   A26        1.92751   0.00074  -0.00244   0.01370   0.01157   1.93909
   A27        1.90099   0.00174  -0.00051  -0.02315  -0.02365   1.87734
   A28        1.92179  -0.00062   0.00199  -0.00055   0.00146   1.92325
   A29        1.95455  -0.00198   0.00013   0.00522   0.00543   1.95998
   A30        1.79339   0.00194  -0.00026   0.00889   0.00861   1.80200
    D1        1.60403   0.00024   0.00082   0.00750   0.00836   1.61239
    D2       -1.56483   0.00098  -0.00100   0.00415   0.00319  -1.56164
    D3       -0.40040  -0.00107   0.00331   0.00099   0.00430  -0.39610
    D4        2.71392  -0.00033   0.00149  -0.00236  -0.00087   2.71305
    D5       -2.59068  -0.00071   0.00075   0.00599   0.00679  -2.58389
    D6        0.52364   0.00002  -0.00107   0.00264   0.00162   0.52527
    D7       -1.06966   0.00045   0.00362   0.02196   0.02562  -1.04404
    D8        3.00917   0.00115   0.00326   0.03378   0.03696   3.04613
    D9        0.92597   0.00216   0.00133   0.02998   0.03126   0.95723
   D10        0.99894   0.00060   0.00210   0.02734   0.02944   1.02838
   D11       -1.20541   0.00130   0.00174   0.03915   0.04078  -1.16463
   D12        2.99457   0.00230  -0.00019   0.03535   0.03508   3.02966
   D13        3.03516   0.00096   0.00090   0.02083   0.02186   3.05703
   D14        0.83081   0.00166   0.00053   0.03265   0.03320   0.86401
   D15       -1.25240   0.00267  -0.00140   0.02885   0.02751  -1.22488
   D16        0.09943  -0.00123  -0.00507  -0.04804  -0.05301   0.04642
   D17        3.09218   0.00097  -0.00494  -0.05181  -0.05674   3.03544
   D18       -3.06984  -0.00048  -0.00694  -0.05149  -0.05834  -3.12818
   D19       -0.07708   0.00172  -0.00680  -0.05526  -0.06207  -0.13916
   D20       -2.40220   0.00119   0.00911   0.07863   0.08773  -2.31448
   D21        1.92187   0.00144   0.01090   0.07538   0.08611   2.00799
   D22       -0.15899   0.00088   0.00972   0.07334   0.08306  -0.07594
   D23        0.88169  -0.00088   0.00885   0.08201   0.09092   0.97261
   D24       -1.07742  -0.00063   0.01063   0.07877   0.08931  -0.98811
   D25        3.12490  -0.00119   0.00946   0.07673   0.08625  -3.07203
   D26       -0.41915   0.00081  -0.00777  -0.04791  -0.05588  -0.47502
   D27       -2.57078   0.00213  -0.00923  -0.05510  -0.06444  -2.63522
   D28        1.75531  -0.00150  -0.00734  -0.06027  -0.06768   1.68762
   D29        1.82353  -0.00213  -0.00669  -0.04719  -0.05407   1.76946
   D30       -0.32810  -0.00081  -0.00815  -0.05438  -0.06263  -0.39073
   D31       -2.28520  -0.00445  -0.00625  -0.05955  -0.06588  -2.35107
   D32       -2.46284  -0.00253  -0.00678  -0.04439  -0.05121  -2.51405
   D33        1.66871  -0.00120  -0.00823  -0.05158  -0.05977   1.60894
   D34       -0.28839  -0.00484  -0.00634  -0.05675  -0.06302  -0.35140
   D35        1.03402  -0.00122   0.00114   0.00008   0.00090   1.03492
   D36       -3.09433  -0.00177   0.00009   0.01524   0.01509  -3.07923
   D37       -1.11051  -0.00092   0.00104   0.02880   0.02972  -1.08079
   D38       -3.05241  -0.00023   0.00028  -0.01335  -0.01321  -3.06562
   D39       -0.89757  -0.00078  -0.00077   0.00181   0.00098  -0.89659
   D40        1.08625   0.00008   0.00018   0.01537   0.01561   1.10185
   D41       -0.97611  -0.00171   0.00144  -0.00054   0.00075  -0.97536
   D42        1.17873  -0.00226   0.00039   0.01462   0.01494   1.19367
   D43       -3.12064  -0.00141   0.00133   0.02818   0.02956  -3.09107
         Item               Value     Threshold  Converged?
 Maximum Force            0.007093     0.000450     NO 
 RMS     Force            0.001871     0.000300     NO 
 Maximum Displacement     0.186121     0.001800     NO 
 RMS     Displacement     0.034799     0.001200     NO 
 Predicted change in Energy=-5.430044D-04
 GradGradGradGradGradGradGradGradGradGradGradGradGradGradGradGradGradGrad

 Leave Link  103 at Sat Jun 15 16:39:57 2024, MaxMem=   104857600 cpu:               1.6 elap:               0.9
 (Enter /mlatom/software/Gaussian/g16-avx2/l202.exe)
                          Input orientation:                          
 ---------------------------------------------------------------------
 Center     Atomic      Atomic             Coordinates (Angstroms)
 Number     Number       Type             X           Y           Z
 ---------------------------------------------------------------------
      1          6           0        0.643737   -0.297095   -0.046315
      2          6           0       -0.627567   -1.020974   -0.392316
      3          1           0        0.736093   -0.264350    1.052753
      4          1           0        0.612857    0.754440   -0.357360
      5          1           0       -1.533998   -0.440715   -0.535319
      6          6           0       -0.640798   -2.351052   -0.559318
      7          6           0        0.582136   -3.231059   -0.360736
      8          1           0       -1.576899   -2.879097   -0.711717
      9          1           0        0.724468   -3.939853   -1.191032
     10          1           0        0.328188   -3.873412    0.502320
     11          6           0        1.837683   -1.047352   -0.641380
     12          6           0        1.860906   -2.463933   -0.054786
     13          1           0        2.775422   -0.508046   -0.497638
     14          1           0        1.651736   -1.157354   -1.707653
     15          1           0        2.743112   -3.007882   -0.413589
     16          1           0        1.993006   -2.461372    1.035173
 ---------------------------------------------------------------------
                    Distance matrix (angstroms):
                    1          2          3          4          5
     1  C    0.000000
     2  C    1.503307   0.000000
     3  H    1.103428   2.126094   0.000000
     4  H    1.097009   2.166095   1.744001   0.000000
     5  H    2.236578   1.085710   2.776039   2.463545   0.000000
     6  C    2.476276   1.340587   2.974715   3.355074   2.108973
     7  C    2.951406   2.519693   3.289835   3.985618   3.506354
     8  H    3.469974   2.110893   3.911546   4.257134   2.445131
     9  H    3.819238   3.314483   4.306278   4.769052   4.215993
    10  H    3.631889   3.138510   3.673512   4.715623   4.040772
    11  C    1.530521   2.477940   2.167182   2.197116   3.427461
    12  C    2.485309   2.896300   2.707399   3.465127   3.981168
    13  H    2.189126   3.443039   2.573317   2.508034   4.310111
    14  H    2.125123   2.635134   3.042318   2.560764   3.469415
    15  H    3.448279   3.912765   3.702060   4.323912   4.989873
    16  H    2.770242   3.313590   2.531214   3.766352   4.357667
                    6          7          8          9         10
     6  C    0.000000
     7  C    1.519676   0.000000
     8  H    1.085514   2.215512   0.000000
     9  H    2.187990   1.100927   2.578998   0.000000
    10  H    2.093703   1.105429   2.468178   1.740371   0.000000
    11  C    2.801649   2.534509   3.875514   3.147686   3.401947
    12  C    2.554568   1.522281   3.524545   2.181946   2.155510
    13  H    3.882143   3.499149   4.960888   4.057648   4.279551
    14  H    2.828304   2.694157   3.792146   2.978091   3.743359
    15  H    3.450146   2.173113   4.332200   2.355401   2.723947
    16  H    3.080828   2.128740   3.996291   2.958223   2.247089
                   11         12         13         14         15
    11  C    0.000000
    12  C    1.533406   0.000000
    13  H    1.091268   2.204076   0.000000
    14  H    1.087940   2.117279   1.774374   0.000000
    15  H    2.171490   1.096771   2.501457   2.508019   0.000000
    16  H    2.198729   1.097938   2.603299   3.056145   1.720535
                   16
    16  H    0.000000
 Stoichiometry    C6H10
 Framework group  C1[X(C6H10)]
 Deg. of freedom    42
 Full point group                 C1      NOp   1
 RotChk:  IX=0 Diff= 6.05D-02
 Largest Abelian subgroup         C1      NOp   1
 Largest concise Abelian subgroup C1      NOp   1
                         Standard orientation:                         
 ---------------------------------------------------------------------
 Center     Atomic      Atomic             Coordinates (Angstroms)
 Number     Number       Type             X           Y           Z
 ---------------------------------------------------------------------
      1          6           0        1.426957   -0.276849    0.250050
      2          6           0        0.955677    1.128561   -0.000242
      3          1           0        1.453497   -0.444776    1.340302
      4          1           0        2.461531   -0.426291   -0.082746
      5          1           0        1.696891    1.915516   -0.100590
      6          6           0       -0.349098    1.405135   -0.135302
      7          6           0       -1.444404    0.361490    0.007967
      8          1           0       -0.690117    2.432403   -0.217564
      9          1           0       -2.176398    0.410577   -0.812895
     10          1           0       -2.016868    0.676416    0.899639
     11          6           0        0.455838   -1.265322   -0.399830
     12          6           0       -0.932543   -1.056858    0.216835
     13          1           0        0.807501   -2.295774   -0.326567
     14          1           0        0.371720   -0.993154   -1.449812
     15          1           0       -1.638992   -1.794462   -0.182886
     16          1           0       -0.943326   -1.257392    1.296250
 ---------------------------------------------------------------------
 Rotational constants (GHZ):           4.7422744           4.5726035           2.5841434
 Leave Link  202 at Sat Jun 15 16:39:58 2024, MaxMem=   104857600 cpu:               0.2 elap:               0.4
 (Enter /mlatom/software/Gaussian/g16-avx2/l301.exe)
 Standard basis: STO-3G (5D, 7F)
 Ernie: Thresh=  0.10000D-02 Tol=  0.10000D-05 Strict=F.
 There are    40 symmetry adapted cartesian basis functions of A   symmetry.
 There are    40 symmetry adapted basis functions of A   symmetry.
    40 basis functions,   120 primitive gaussians,    40 cartesian basis functions
    23 alpha electrons       23 beta electrons
       nuclear repulsion energy       237.1479170974 Hartrees.
 IExCor=    0 DFT=F Ex=HF Corr=None ExCW=0 ScaHFX=  1.000000
 ScaDFX=  1.000000  1.000000  1.000000  1.000000 ScalE2=  1.000000  1.000000
 IRadAn=      5 IRanWt=     -1 IRanGd=            0 ICorTp=0 IEmpDi=  4
 NAtoms=   16 NActive=   16 NUniq=   16 SFac= 1.00D+00 NAtFMM=   60 NAOKFM=F Big=F
 Integral buffers will be    131072 words long.
 Raffenetti 1 integral format.
 Two-electron integral symmetry is turned on.
 Leave Link  301 at Sat Jun 15 16:39:58 2024, MaxMem=   104857600 cpu:               0.3 elap:               0.5
 (Enter /mlatom/software/Gaussian/g16-avx2/l402.exe)
 External calculation of energy and first derivatives.
 Running external command "/mlatom/software/miniconda3/bin/python /mlatom/software/mlatom/mlatom/interfaces/gaussian_interface.py model_predict_kwargs R"
         input file       "/mlatom/home/qhzhang/git/ts-analysis/calculations/C60/irc/pro_opt/da_ani_opt_1/Gau-212676.EIn"
         output file      "/mlatom/home/qhzhang/git/ts-analysis/calculations/C60/irc/pro_opt/da_ani_opt_1/Gau-212676.EOu"
         message file     "/mlatom/home/qhzhang/git/ts-analysis/calculations/C60/irc/pro_opt/da_ani_opt_1/Gau-212676.EMs"
         fchk file        "/mlatom/home/qhzhang/git/ts-analysis/calculations/C60/irc/pro_opt/da_ani_opt_1/Gau-212676.EFC"
         mat. el file     "/mlatom/home/qhzhang/git/ts-analysis/calculations/C60/irc/pro_opt/da_ani_opt_1/Gau-212676.EUF"
model loaded from /mlatom/home/qhzhang/git/ts-analysis/calculations/C60/irc/pro_opt/da_ani_opt_1/da_energy_iteration27.npz
 Recovered energy= -234.660672793     dipole=      0.000000000000      0.000000000000      0.000000000000
 Energy=    -234.660673     NIter=   0.
 Dipole moment=       0.000000       0.000000       0.000000
 Leave Link  402 at Sat Jun 15 16:40:03 2024, MaxMem=   104857600 cpu:              10.6 elap:               4.1
 (Enter /mlatom/software/Gaussian/g16-avx2/l716.exe)
 Dipole        = 0.00000000D+00 0.00000000D+00 0.00000000D+00
 ***** Axes restored to original set *****
 -------------------------------------------------------------------
 Center     Atomic                   Forces (Hartrees/Bohr)
 Number     Number              X              Y              Z
 -------------------------------------------------------------------
      1        6           0.001142625    0.003079745    0.002289169
      2        6           0.001448489   -0.002149901   -0.005800354
      3        1           0.001430982    0.001547363   -0.000855672
      4        1          -0.001922761   -0.000684632   -0.002413517
      5        1          -0.001053433   -0.000139438    0.002254583
      6        6           0.004102760   -0.001869225    0.006759744
      7        6          -0.013805488   -0.001862229    0.002207283
      8        1           0.000505598    0.000652409   -0.004226977
      9        1          -0.004178709    0.002819303   -0.001772509
     10        1           0.005129101   -0.004834532   -0.003111494
     11        6          -0.007209988   -0.006203591    0.006621112
     12        6           0.009705627    0.001775461    0.005623615
     13        1           0.001699480   -0.001398120    0.001090674
     14        1           0.004118167    0.002904248   -0.004647653
     15        1          -0.001044880   -0.001430175   -0.002989916
     16        1          -0.000067565    0.007793313   -0.001028091
 -------------------------------------------------------------------
 Cartesian Forces:  Max     0.013805488 RMS     0.004181737
 Leave Link  716 at Sat Jun 15 16:40:03 2024, MaxMem=   104857600 cpu:               0.3 elap:               0.5
 (Enter /mlatom/software/Gaussian/g16-avx2/l103.exe)

 GradGradGradGradGradGradGradGradGradGradGradGradGradGradGradGradGradGrad
 Berny optimization.
 FormGI is forming the generalized inverse of G from B-inverse, IUseBI=4.
 Internal  Forces:  Max     0.009869921 RMS     0.002103748
 Search for a local minimum.
 Step number  20 out of a maximum of   99
 All quantities printed in internal units (Hartrees-Bohrs-Radians)
 Update second derivatives using D2CorX and points   17   18   19   20
 DE= -7.12D-04 DEPred=-5.43D-04 R= 1.31D+00
 TightC=F SS=  1.41D+00  RLast= 3.27D-01 DXNew= 3.6069D+00 9.8054D-01
 Trust test= 1.31D+00 RLast= 3.27D-01 DXMaxT set to 2.14D+00
 ITU=  1  1  1  0  1  1  1  1  1  1 -1  1  1  1 -1  1  1  1  1  0
     Eigenvalues ---    0.00108   0.00752   0.01083   0.01430   0.02301
     Eigenvalues ---    0.03089   0.03352   0.04074   0.04447   0.05021
     Eigenvalues ---    0.05554   0.06044   0.06239   0.07232   0.07697
     Eigenvalues ---    0.08818   0.09142   0.09913   0.11066   0.12252
     Eigenvalues ---    0.13892   0.15849   0.16086   0.17548   0.21168
     Eigenvalues ---    0.22760   0.26697   0.28429   0.28893   0.31223
     Eigenvalues ---    0.32842   0.33744   0.34018   0.34150   0.34304
     Eigenvalues ---    0.34468   0.35265   0.35446   0.36295   0.37301
     Eigenvalues ---    0.55623   0.76428
 Angle between quadratic step and forces=  79.65 degrees.
 Quartic linear search produced a step of  0.42891.
 Iteration  1 RMS(Cart)=  0.04532954 RMS(Int)=  0.00125263
 Iteration  2 RMS(Cart)=  0.00153079 RMS(Int)=  0.00040367
 Iteration  3 RMS(Cart)=  0.00000090 RMS(Int)=  0.00040367
 ITry= 1 IFail=0 DXMaxC= 2.10D-01 DCOld= 1.00D+10 DXMaxT= 2.14D+00 DXLimC= 3.00D+00 Rises=F
 Variable       Old X    -DE/DX   Delta X   Delta X   Delta X     New X
                                 (Linear)    (Quad)   (Total)
    R1        2.84084   0.00116  -0.00247  -0.00260  -0.00478   2.83606
    R2        2.08518  -0.00069  -0.00148   0.00503   0.00356   2.08873
    R3        2.07305   0.00008   0.00002   0.00214   0.00216   2.07521
    R4        2.89227  -0.00053  -0.00286   0.00595   0.00334   2.89561
    R5        2.05170   0.00051   0.00017  -0.00077  -0.00061   2.05109
    R6        2.53334  -0.00031  -0.00128   0.00074  -0.00060   2.53274
    R7        2.87177  -0.00455  -0.00268   0.00940   0.00637   2.87814
    R8        2.05132  -0.00016   0.00284  -0.00644  -0.00359   2.04773
    R9        2.08045  -0.00102   0.00261  -0.00452  -0.00192   2.07853
   R10        2.08896  -0.00080   0.00194  -0.00280  -0.00086   2.08810
   R11        2.87669   0.00987  -0.00553  -0.00741  -0.01323   2.86347
   R12        2.89772  -0.00333   0.00134   0.00908   0.01057   2.90829
   R13        2.06220   0.00091   0.00171  -0.00035   0.00136   2.06356
   R14        2.05591   0.00356  -0.00100  -0.00096  -0.00196   2.05395
   R15        2.07260   0.00085  -0.00432   0.00414  -0.00017   2.07243
   R16        2.07480  -0.00101  -0.00089  -0.00267  -0.00356   2.07124
    A1        1.89054   0.00141  -0.00035  -0.01010  -0.01026   1.88028
    A2        1.95250  -0.00013  -0.00031   0.00125   0.00106   1.95355
    A3        1.91152  -0.00240   0.00722   0.01252   0.01923   1.93075
    A4        1.83002  -0.00004   0.00176  -0.00550  -0.00387   1.82615
    A5        1.91401  -0.00019  -0.00385  -0.00243  -0.00618   1.90783
    A6        1.96232   0.00150  -0.00479   0.00268  -0.00203   1.96029
    A7        2.07030  -0.00056  -0.00229  -0.00555  -0.00736   2.06294
    A8        2.11153   0.00154   0.00249   0.00232   0.00385   2.11538
    A9        2.10089  -0.00095  -0.00026   0.00312   0.00332   2.10421
   A10        2.15354   0.00204  -0.00408   0.00507  -0.00073   2.15281
   A11        2.10439  -0.00125   0.00276   0.00200   0.00544   2.10983
   A12        2.01598  -0.00047   0.00111  -0.00336  -0.00156   2.01442
   A13        1.95876  -0.00288   0.00030  -0.00077   0.00027   1.95903
   A14        1.82725   0.00465  -0.00502   0.00368  -0.00082   1.82643
   A15        1.99375  -0.00235   0.00571  -0.00642  -0.00266   1.99108
   A16        1.81770  -0.00156   0.00283  -0.00740  -0.00481   1.81289
   A17        1.94702   0.00308  -0.00518   0.00202  -0.00259   1.94444
   A18        1.90593  -0.00074   0.00117   0.00942   0.01113   1.91706
   A19        1.89224   0.00264  -0.00199  -0.00316  -0.00547   1.88677
   A20        1.95721   0.00063  -0.00293  -0.00600  -0.00866   1.94855
   A21        1.87265  -0.00051  -0.00050   0.00546   0.00486   1.87751
   A22        1.97485  -0.00220  -0.00099   0.00648   0.00552   1.98037
   A23        1.85887   0.00048   0.00314  -0.00662  -0.00341   1.85546
   A24        1.90280  -0.00099   0.00365   0.00382   0.00743   1.91023
   A25        1.95620  -0.00072  -0.00112   0.00360   0.00126   1.95746
   A26        1.93909  -0.00080   0.00496  -0.01683  -0.01132   1.92776
   A27        1.87734   0.00355  -0.01014   0.00017  -0.00981   1.86753
   A28        1.92325  -0.00015   0.00063   0.01481   0.01577   1.93902
   A29        1.95998  -0.00346   0.00233  -0.00989  -0.00729   1.95269
   A30        1.80200   0.00179   0.00369   0.00752   0.01101   1.81301
    D1        1.61239  -0.00033   0.00359  -0.00230   0.00132   1.61371
    D2       -1.56164   0.00049   0.00137  -0.00628  -0.00487  -1.56651
    D3       -0.39610  -0.00105   0.00184   0.00971   0.01150  -0.38460
    D4        2.71305  -0.00023  -0.00037   0.00572   0.00531   2.71836
    D5       -2.58389  -0.00111   0.00291  -0.00397  -0.00121  -2.58509
    D6        0.52527  -0.00029   0.00070  -0.00795  -0.00739   0.51787
    D7       -1.04404   0.00017   0.01099   0.02835   0.03949  -1.00455
    D8        3.04613   0.00061   0.01585   0.02655   0.04241   3.08854
    D9        0.95723   0.00178   0.01341   0.02186   0.03527   0.99250
   D10        1.02838   0.00033   0.01263   0.02211   0.03476   1.06314
   D11       -1.16463   0.00077   0.01749   0.02031   0.03768  -1.12695
   D12        3.02966   0.00194   0.01505   0.01562   0.03054   3.06020
   D13        3.05703   0.00107   0.00938   0.01537   0.02489   3.08192
   D14        0.86401   0.00151   0.01424   0.01357   0.02781   0.89182
   D15       -1.22488   0.00268   0.01180   0.00888   0.02067  -1.20421
   D16        0.04642  -0.00115  -0.02274  -0.04400  -0.06681  -0.02039
   D17        3.03544   0.00134  -0.02434  -0.01401  -0.03841   2.99703
   D18       -3.12818  -0.00031  -0.02502  -0.04821  -0.07334   3.08167
   D19       -0.13916   0.00219  -0.02662  -0.01823  -0.04493  -0.18409
   D20       -2.31448   0.00075   0.03763   0.08460   0.12232  -2.19215
   D21        2.00799   0.00133   0.03693   0.09159   0.12828   2.13627
   D22       -0.07594   0.00045   0.03562   0.08113   0.11662   0.04069
   D23        0.97261  -0.00155   0.03900   0.05562   0.09478   1.06739
   D24       -0.98811  -0.00097   0.03830   0.06261   0.10074  -0.88737
   D25       -3.07203  -0.00185   0.03699   0.05215   0.08908  -2.98295
   D26       -0.47502   0.00097  -0.02397  -0.06293  -0.08693  -0.56196
   D27       -2.63522   0.00229  -0.02764  -0.07237  -0.09997  -2.73519
   D28        1.68762  -0.00138  -0.02903  -0.07293  -0.10207   1.58555
   D29        1.76946  -0.00233  -0.02319  -0.06775  -0.09113   1.67833
   D30       -0.39073  -0.00101  -0.02686  -0.07719  -0.10417  -0.49490
   D31       -2.35107  -0.00468  -0.02825  -0.07775  -0.10627  -2.45735
   D32       -2.51405  -0.00293  -0.02196  -0.07001  -0.09184  -2.60589
   D33        1.60894  -0.00161  -0.02564  -0.07945  -0.10488   1.50406
   D34       -0.35140  -0.00527  -0.02703  -0.08001  -0.10698  -0.45838
   D35        1.03492   0.00000   0.00039   0.01112   0.01108   1.04600
   D36       -3.07923  -0.00166   0.00647   0.00285   0.00902  -3.07021
   D37       -1.08079  -0.00159   0.01275   0.01543   0.02808  -1.05272
   D38       -3.06562   0.00126  -0.00567   0.00553  -0.00039  -3.06601
   D39       -0.89659  -0.00041   0.00042  -0.00274  -0.00244  -0.89903
   D40        1.10185  -0.00034   0.00669   0.00984   0.01661   1.11846
   D41       -0.97536  -0.00093   0.00032   0.00966   0.00979  -0.96557
   D42        1.19367  -0.00260   0.00641   0.00140   0.00774   1.20141
   D43       -3.09107  -0.00252   0.01268   0.01398   0.02679  -3.06428
         Item               Value     Threshold  Converged?
 Maximum Force            0.009870     0.000450     NO 
 RMS     Force            0.002104     0.000300     NO 
 Maximum Displacement     0.210187     0.001800     NO 
 RMS     Displacement     0.045254     0.001200     NO 
 Predicted change in Energy=-6.938519D-04
 GradGradGradGradGradGradGradGradGradGradGradGradGradGradGradGradGradGrad

 Leave Link  103 at Sat Jun 15 16:40:04 2024, MaxMem=   104857600 cpu:               1.6 elap:               0.9
 (Enter /mlatom/software/Gaussian/g16-avx2/l202.exe)
                          Input orientation:                          
 ---------------------------------------------------------------------
 Center     Atomic      Atomic             Coordinates (Angstroms)
 Number     Number       Type             X           Y           Z
 ---------------------------------------------------------------------
      1          6           0        0.644624   -0.292983   -0.071434
      2          6           0       -0.629658   -1.023127   -0.380362
      3          1           0        0.738580   -0.230219    1.028086
      4          1           0        0.610205    0.752080   -0.406990
      5          1           0       -1.531503   -0.438786   -0.532971
      6          6           0       -0.651702   -2.356906   -0.510223
      7          6           0        0.589346   -3.230889   -0.385256
      8          1           0       -1.589908   -2.891542   -0.600491
      9          1           0        0.735182   -3.875154   -1.264722
     10          1           0        0.350273   -3.941169    0.426728
     11          6           0        1.850635   -1.047482   -0.640804
     12          6           0        1.852300   -2.466181   -0.044302
     13          1           0        2.782366   -0.503630   -0.471860
     14          1           0        1.689237   -1.165733   -1.709132
     15          1           0        2.738401   -3.027764   -0.363924
     16          1           0        1.931703   -2.449622    1.048746
 ---------------------------------------------------------------------
                    Distance matrix (angstroms):
                    1          2          3          4          5
     1  C    0.000000
     2  C    1.500780   0.000000
     3  H    1.105310   2.117664   0.000000
     4  H    1.098153   2.165486   1.743799   0.000000
     5  H    2.229306   1.085389   2.762911   2.453762   0.000000
     6  C    2.476443   1.340267   2.970197   3.356912   2.110391
     7  C    2.955136   2.521946   3.320214   3.983083   3.509368
     8  H    3.467786   2.112229   3.893168   4.260742   2.454381
     9  H    3.776783   3.283130   4.306104   4.707719   4.181142
    10  H    3.693788   3.182237   3.779360   4.773807   4.090085
    11  C    1.532290   2.494048   2.165589   2.198126   3.438168
    12  C    2.486364   2.890581   2.718439   3.468652   3.974828
    13  H    2.185098   3.452558   2.549834   2.509840   4.314789
    14  H    2.129545   2.676423   3.044880   2.556929   3.504992
    15  H    3.456657   3.919523   3.709883   4.338006   4.996346
    16  H    2.749994   3.261566   2.519865   3.757182   4.305705
                    6          7          8          9         10
     6  C    0.000000
     7  C    1.523044   0.000000
     8  H    1.083612   2.215995   0.000000
     9  H    2.190387   1.099913   2.610506   0.000000
    10  H    2.095643   1.104976   2.433351   1.735948   0.000000
    11  C    2.827248   2.534446   3.903782   3.103101   3.429888
    12  C    2.549323   1.515282   3.512702   2.173151   2.157208
    13  H    3.902425   3.500682   4.983517   4.023278   4.305718
    14  H    2.887259   2.688359   3.867854   2.906662   3.749369
    15  H    3.458938   2.158738   4.336909   2.354229   2.676303
    16  H    3.018768   2.113920   3.913696   2.969165   2.261093
                   11         12         13         14         15
    11  C    0.000000
    12  C    1.539001   0.000000
    13  H    1.091989   2.213466   0.000000
    14  H    1.086902   2.118824   1.778806   0.000000
    15  H    2.187763   1.096681   2.526823   2.525369   0.000000
    16  H    2.197077   1.096053   2.612040   3.051729   1.726455
                   16
    16  H    0.000000
 Stoichiometry    C6H10
 Framework group  C1[X(C6H10)]
 Deg. of freedom    42
 Full point group                 C1      NOp   1
 RotChk:  IX=0 Diff= 6.49D-02
 Largest Abelian subgroup         C1      NOp   1
 Largest concise Abelian subgroup C1      NOp   1
                         Standard orientation:                         
 ---------------------------------------------------------------------
 Center     Atomic      Atomic             Coordinates (Angstroms)
 Number     Number       Type             X           Y           Z
 ---------------------------------------------------------------------
      1          6           0        1.441434   -0.210800    0.228428
      2          6           0        0.904083    1.171140   -0.003599
      3          1           0        1.502279   -0.369356    1.320613
      4          1           0        2.476179   -0.313164   -0.124792
      5          1           0        1.613469    1.983938   -0.122759
      6          6           0       -0.413204    1.395639   -0.106899
      7          6           0       -1.459472    0.291769   -0.026519
      8          1           0       -0.804348    2.405625   -0.140793
      9          1           0       -2.128295    0.287620   -0.899712
     10          1           0       -2.117236    0.590590    0.809558
     11          6           0        0.510514   -1.261930   -0.385110
     12          6           0       -0.885896   -1.085707    0.237390
     13          1           0        0.912634   -2.270920   -0.272505
     14          1           0        0.405119   -1.030203   -1.441780
     15          1           0       -1.575885   -1.862024   -0.114684
     16          1           0       -0.868670   -1.222763    1.324704
 ---------------------------------------------------------------------
 Rotational constants (GHZ):           4.7337784           4.5744019           2.5743357
 Leave Link  202 at Sat Jun 15 16:40:05 2024, MaxMem=   104857600 cpu:               0.2 elap:               0.4
 (Enter /mlatom/software/Gaussian/g16-avx2/l301.exe)
 Standard basis: STO-3G (5D, 7F)
 Ernie: Thresh=  0.10000D-02 Tol=  0.10000D-05 Strict=F.
 There are    40 symmetry adapted cartesian basis functions of A   symmetry.
 There are    40 symmetry adapted basis functions of A   symmetry.
    40 basis functions,   120 primitive gaussians,    40 cartesian basis functions
    23 alpha electrons       23 beta electrons
       nuclear repulsion energy       237.0355863849 Hartrees.
 IExCor=    0 DFT=F Ex=HF Corr=None ExCW=0 ScaHFX=  1.000000
 ScaDFX=  1.000000  1.000000  1.000000  1.000000 ScalE2=  1.000000  1.000000
 IRadAn=      5 IRanWt=     -1 IRanGd=            0 ICorTp=0 IEmpDi=  4
 NAtoms=   16 NActive=   16 NUniq=   16 SFac= 1.00D+00 NAtFMM=   60 NAOKFM=F Big=F
 Integral buffers will be    131072 words long.
 Raffenetti 1 integral format.
 Two-electron integral symmetry is turned on.
 Leave Link  301 at Sat Jun 15 16:40:06 2024, MaxMem=   104857600 cpu:               0.3 elap:               0.5
 (Enter /mlatom/software/Gaussian/g16-avx2/l402.exe)
 External calculation of energy and first derivatives.
 Running external command "/mlatom/software/miniconda3/bin/python /mlatom/software/mlatom/mlatom/interfaces/gaussian_interface.py model_predict_kwargs R"
         input file       "/mlatom/home/qhzhang/git/ts-analysis/calculations/C60/irc/pro_opt/da_ani_opt_1/Gau-212676.EIn"
         output file      "/mlatom/home/qhzhang/git/ts-analysis/calculations/C60/irc/pro_opt/da_ani_opt_1/Gau-212676.EOu"
         message file     "/mlatom/home/qhzhang/git/ts-analysis/calculations/C60/irc/pro_opt/da_ani_opt_1/Gau-212676.EMs"
         fchk file        "/mlatom/home/qhzhang/git/ts-analysis/calculations/C60/irc/pro_opt/da_ani_opt_1/Gau-212676.EFC"
         mat. el file     "/mlatom/home/qhzhang/git/ts-analysis/calculations/C60/irc/pro_opt/da_ani_opt_1/Gau-212676.EUF"
model loaded from /mlatom/home/qhzhang/git/ts-analysis/calculations/C60/irc/pro_opt/da_ani_opt_1/da_energy_iteration27.npz
 Recovered energy= -234.661694282     dipole=      0.000000000000      0.000000000000      0.000000000000
 Energy=    -234.661694     NIter=   0.
 Dipole moment=       0.000000       0.000000       0.000000
 Leave Link  402 at Sat Jun 15 16:40:11 2024, MaxMem=   104857600 cpu:              12.4 elap:               4.8
 (Enter /mlatom/software/Gaussian/g16-avx2/l716.exe)
 Dipole        = 0.00000000D+00 0.00000000D+00 0.00000000D+00
 ***** Axes restored to original set *****
 -------------------------------------------------------------------
 Center     Atomic                   Forces (Hartrees/Bohr)
 Number     Number              X              Y              Z
 -------------------------------------------------------------------
      1        6           0.002860555    0.003402256    0.003640505
      2        6           0.001644617   -0.002108817   -0.006626361
      3        1           0.001800258    0.001647428   -0.001466865
      4        1          -0.001870840   -0.001072083   -0.002534810
      5        1          -0.001597358   -0.000402646    0.003277463
      6        6           0.007820417   -0.002858828    0.004984707
      7        6          -0.017187702   -0.001645597    0.002239870
      8        1          -0.001222647    0.000401983   -0.004877384
      9        1          -0.004276294    0.002571298   -0.002314832
     10        1           0.005510797   -0.004068942   -0.002781059
     11        6          -0.009004163   -0.008441535    0.007681354
     12        6           0.009834208    0.003656592    0.006057617
     13        1           0.001652709   -0.002063787    0.000518892
     14        1           0.003680548    0.003222480   -0.005065410
     15        1          -0.000452578    0.000039544   -0.002513037
     16        1           0.000807479    0.007720656   -0.000220646
 -------------------------------------------------------------------
 Cartesian Forces:  Max     0.017187702 RMS     0.004800578
 Leave Link  716 at Sat Jun 15 16:40:11 2024, MaxMem=   104857600 cpu:               0.3 elap:               0.5
 (Enter /mlatom/software/Gaussian/g16-avx2/l103.exe)

 GradGradGradGradGradGradGradGradGradGradGradGradGradGradGradGradGradGrad
 Berny optimization.
 FormGI is forming the generalized inverse of G from B-inverse, IUseBI=4.
 Internal  Forces:  Max     0.011496294 RMS     0.002403812
 Search for a local minimum.
 Step number  21 out of a maximum of   99
 All quantities printed in internal units (Hartrees-Bohrs-Radians)
 Update second derivatives using D2CorX and points   20   21
 DE= -1.02D-03 DEPred=-6.94D-04 R= 1.47D+00
 TightC=F SS=  1.41D+00  RLast= 4.35D-01 DXNew= 3.6069D+00 1.3049D+00
 Trust test= 1.47D+00 RLast= 4.35D-01 DXMaxT set to 2.14D+00
 ITU=  1  1  1  1  0  1  1  1  1  1  1 -1  1  1  1 -1  1  1  1  1
 ITU=  0
     Eigenvalues ---    0.00103   0.00780   0.01142   0.01385   0.02039
     Eigenvalues ---    0.03072   0.03301   0.04013   0.04408   0.04888
     Eigenvalues ---    0.05566   0.05765   0.06051   0.07234   0.07597
     Eigenvalues ---    0.08920   0.09387   0.09889   0.11021   0.12224
     Eigenvalues ---    0.13057   0.15894   0.16093   0.17461   0.20528
     Eigenvalues ---    0.22859   0.26789   0.28475   0.29466   0.31294
     Eigenvalues ---    0.32692   0.33739   0.34043   0.34151   0.34285
     Eigenvalues ---    0.34463   0.35244   0.35432   0.36268   0.37100
     Eigenvalues ---    0.53753   0.55896
 Angle between quadratic step and forces=  69.16 degrees.
 Quartic linear search produced a step of  0.82776.
 Iteration  1 RMS(Cart)=  0.05580619 RMS(Int)=  0.00191240
 Iteration  2 RMS(Cart)=  0.00215002 RMS(Int)=  0.00065960
 Iteration  3 RMS(Cart)=  0.00000156 RMS(Int)=  0.00065960
 Iteration  4 RMS(Cart)=  0.00000000 RMS(Int)=  0.00065960
 ITry= 1 IFail=0 DXMaxC= 1.98D-01 DCOld= 1.00D+10 DXMaxT= 2.14D+00 DXLimC= 3.00D+00 Rises=F
 Variable       Old X    -DE/DX   Delta X   Delta X   Delta X     New X
                                 (Linear)    (Quad)   (Total)
    R1        2.83606   0.00165  -0.00395  -0.00206  -0.00555   2.83051
    R2        2.08873  -0.00121   0.00294  -0.00196   0.00099   2.08972
    R3        2.07521  -0.00019   0.00179   0.00033   0.00212   2.07733
    R4        2.89561  -0.00206   0.00277  -0.00078   0.00225   2.89786
    R5        2.05109   0.00065  -0.00050   0.00053   0.00002   2.05111
    R6        2.53274  -0.00025  -0.00050   0.00082   0.00029   2.53303
    R7        2.87814  -0.00687   0.00527  -0.01361  -0.00880   2.86933
    R8        2.04773   0.00127  -0.00298   0.00197  -0.00101   2.04672
    R9        2.07853  -0.00022  -0.00159   0.00107  -0.00052   2.07801
   R10        2.08810  -0.00062  -0.00071  -0.00029  -0.00099   2.08711
   R11        2.86347   0.01150  -0.01095   0.00774  -0.00371   2.85976
   R12        2.90829  -0.00571   0.00875  -0.00326   0.00575   2.91404
   R13        2.06356   0.00046   0.00113   0.00360   0.00473   2.06829
   R14        2.05395   0.00408  -0.00162   0.00395   0.00233   2.05628
   R15        2.07243   0.00035  -0.00014  -0.00346  -0.00360   2.06882
   R16        2.07124  -0.00004  -0.00295  -0.00222  -0.00517   2.06607
    A1        1.88028   0.00226  -0.00849   0.00532  -0.00276   1.87752
    A2        1.95355  -0.00029   0.00087  -0.00835  -0.00725   1.94630
    A3        1.93075  -0.00301   0.01592   0.00525   0.02016   1.95092
    A4        1.82615  -0.00007  -0.00320   0.00630   0.00290   1.82905
    A5        1.90783  -0.00053  -0.00512  -0.00293  -0.00800   1.89983
    A6        1.96029   0.00187  -0.00168  -0.00509  -0.00632   1.95397
    A7        2.06294  -0.00024  -0.00609  -0.00277  -0.00810   2.05484
    A8        2.11538   0.00172   0.00319   0.00484   0.00650   2.12188
    A9        2.10421  -0.00145   0.00275  -0.00203   0.00145   2.10566
   A10        2.15281   0.00152  -0.00060   0.00032  -0.00307   2.14974
   A11        2.10983  -0.00162   0.00450  -0.00531   0.00006   2.10990
   A12        2.01442   0.00032  -0.00129   0.00683   0.00647   2.02089
   A13        1.95903  -0.00328   0.00022  -0.01118  -0.00991   1.94912
   A14        1.82643   0.00491  -0.00068   0.01726   0.01748   1.84391
   A15        1.99108  -0.00198  -0.00220  -0.00007  -0.00543   1.98566
   A16        1.81289  -0.00120  -0.00398   0.00596   0.00164   1.81453
   A17        1.94444   0.00291  -0.00214  -0.00292  -0.00435   1.94008
   A18        1.91706  -0.00115   0.00921  -0.00719   0.00292   1.91998
   A19        1.88677   0.00294  -0.00453   0.00472  -0.00084   1.88593
   A20        1.94855   0.00066  -0.00717  -0.00417  -0.01074   1.93781
   A21        1.87751  -0.00063   0.00402   0.00642   0.01030   1.88781
   A22        1.98037  -0.00282   0.00457  -0.01108  -0.00638   1.97399
   A23        1.85546   0.00101  -0.00282   0.01457   0.01201   1.86747
   A24        1.91023  -0.00104   0.00615  -0.00861  -0.00253   1.90770
   A25        1.95746  -0.00134   0.00104  -0.00352  -0.00457   1.95289
   A26        1.92776  -0.00002  -0.00937   0.00361  -0.00481   1.92295
   A27        1.86753   0.00440  -0.00812  -0.00238  -0.01056   1.85697
   A28        1.93902  -0.00077   0.01305   0.00072   0.01440   1.95342
   A29        1.95269  -0.00335  -0.00603  -0.01679  -0.02247   1.93022
   A30        1.81301   0.00146   0.00911   0.01986   0.02878   1.84178
    D1        1.61371  -0.00050   0.00109  -0.03045  -0.02938   1.58433
    D2       -1.56651   0.00053  -0.00403  -0.02941  -0.03348  -1.59999
    D3       -0.38460  -0.00159   0.00952  -0.03670  -0.02741  -0.41201
    D4        2.71836  -0.00056   0.00440  -0.03566  -0.03150   2.68686
    D5       -2.58509  -0.00152  -0.00100  -0.02770  -0.02910  -2.61419
    D6        0.51787  -0.00048  -0.00612  -0.02666  -0.03319   0.48468
    D7       -1.00455  -0.00075   0.03269   0.02301   0.05582  -0.94873
    D8        3.08854   0.00027   0.03510   0.03659   0.07171  -3.12294
    D9        0.99250   0.00156   0.02920   0.04553   0.07467   1.06718
   D10        1.06314  -0.00013   0.02877   0.03089   0.05958   1.12272
   D11       -1.12695   0.00089   0.03119   0.04447   0.07546  -1.05149
   D12        3.06020   0.00218   0.02528   0.05341   0.07843   3.13863
   D13        3.08192   0.00055   0.02060   0.03383   0.05455   3.13647
   D14        0.89182   0.00157   0.02302   0.04741   0.07044   0.96226
   D15       -1.20421   0.00286   0.01711   0.05635   0.07340  -1.13081
   D16       -0.02039  -0.00079  -0.05530   0.00375  -0.05182  -0.07221
   D17        2.99703   0.00141  -0.03179   0.02270  -0.00936   2.98767
   D18        3.08167   0.00029  -0.06071   0.00480  -0.05623   3.02544
   D19       -0.18409   0.00250  -0.03719   0.02375  -0.01378  -0.19787
   D20       -2.19215   0.00047   0.10125   0.03615   0.13756  -2.05459
   D21        2.13627   0.00066   0.10619   0.02475   0.13063   2.26689
   D22        0.04069  -0.00008   0.09654   0.02212   0.11836   0.15905
   D23        1.06739  -0.00149   0.07846   0.01892   0.09748   1.16487
   D24       -0.88737  -0.00130   0.08339   0.00751   0.09055  -0.79683
   D25       -2.98295  -0.00205   0.07374   0.00488   0.07828  -2.90467
   D26       -0.56196   0.00100  -0.07196  -0.02255  -0.09445  -0.65640
   D27       -2.73519   0.00301  -0.08275  -0.02361  -0.10626  -2.84145
   D28        1.58555  -0.00102  -0.08449  -0.04738  -0.13203   1.45352
   D29        1.67833  -0.00269  -0.07544  -0.04070  -0.11638   1.56195
   D30       -0.49490  -0.00068  -0.08623  -0.04177  -0.12820  -0.62309
   D31       -2.45735  -0.00471  -0.08797  -0.06554  -0.15396  -2.61131
   D32       -2.60589  -0.00316  -0.07602  -0.03940  -0.11516  -2.72105
   D33        1.50406  -0.00115  -0.08681  -0.04047  -0.12697   1.37709
   D34       -0.45838  -0.00518  -0.08856  -0.06424  -0.15274  -0.61113
   D35        1.04600   0.00082   0.00917   0.00069   0.00921   1.05521
   D36       -3.07021  -0.00079   0.00747   0.00335   0.01035  -3.05986
   D37       -1.05272  -0.00154   0.02324   0.01808   0.04105  -1.01167
   D38       -3.06601   0.00192  -0.00032  -0.00884  -0.00955  -3.07556
   D39       -0.89903   0.00032  -0.00202  -0.00618  -0.00841  -0.90744
   D40        1.11846  -0.00044   0.01375   0.00855   0.02229   1.14075
   D41       -0.96557  -0.00036   0.00811  -0.01626  -0.00842  -0.97399
   D42        1.20141  -0.00197   0.00641  -0.01361  -0.00728   1.19413
   D43       -3.06428  -0.00272   0.02218   0.00113   0.02342  -3.04086
         Item               Value     Threshold  Converged?
 Maximum Force            0.011496     0.000450     NO 
 RMS     Force            0.002404     0.000300     NO 
 Maximum Displacement     0.197584     0.001800     NO 
 RMS     Displacement     0.055706     0.001200     NO 
 Predicted change in Energy=-1.372376D-03
 GradGradGradGradGradGradGradGradGradGradGradGradGradGradGradGradGradGrad

 Leave Link  103 at Sat Jun 15 16:40:12 2024, MaxMem=   104857600 cpu:               1.6 elap:               0.9
 (Enter /mlatom/software/Gaussian/g16-avx2/l202.exe)
                          Input orientation:                          
 ---------------------------------------------------------------------
 Center     Atomic      Atomic             Coordinates (Angstroms)
 Number     Number       Type             X           Y           Z
 ---------------------------------------------------------------------
      1          6           0        0.646076   -0.290778   -0.101129
      2          6           0       -0.630632   -1.031759   -0.355088
      3          1           0        0.751451   -0.172506    0.993300
      4          1           0        0.600826    0.735892   -0.491395
      5          1           0       -1.534029   -0.447311   -0.497885
      6          6           0       -0.658684   -2.368217   -0.454187
      7          6           0        0.590128   -3.230843   -0.411277
      8          1           0       -1.599582   -2.903034   -0.495934
      9          1           0        0.732608   -3.786187   -1.349625
     10          1           0        0.383048   -4.017857    0.335405
     11          6           0        1.863334   -1.054488   -0.636480
     12          6           0        1.842761   -2.472110   -0.029994
     13          1           0        2.790491   -0.511561   -0.427852
     14          1           0        1.746782   -1.167105   -1.712477
     15          1           0        2.731881   -3.047915   -0.306477
     16          1           0        1.853621   -2.423327    1.062181
 ---------------------------------------------------------------------
                    Distance matrix (angstroms):
                    1          2          3          4          5
     1  C    0.000000
     2  C    1.497843   0.000000
     3  H    1.105832   2.113438   0.000000
     4  H    1.099276   2.158625   1.747052   0.000000
     5  H    2.221435   1.085401   2.742730   2.440823   0.000000
     6  C    2.478468   1.340421   2.984099   3.350111   2.111402
     7  C    2.956908   2.515826   3.369316   3.967558   3.502512
     8  H    3.467381   2.111959   3.898841   4.252482   2.456598
     9  H    3.712696   3.230232   4.306779   4.604685   4.124463
    10  H    3.761763   3.228174   3.918581   4.830027   4.137433
    11  C    1.533483   2.509893   2.161101   2.195549   3.453975
    12  C    2.489041   2.880620   2.743405   3.470817   3.965027
    13  H    2.180369   3.461211   2.508449   2.520875   4.325564
    14  H    2.139146   2.740971   3.049777   2.534888   3.571702
    15  H    3.463316   3.920937   3.725521   4.346584   4.999776
    16  H    2.712789   3.180665   2.507135   3.736812   4.220737
                    6          7          8          9         10
     6  C    0.000000
     7  C    1.518386   0.000000
     8  H    1.083080   2.215730   0.000000
     9  H    2.179023   1.099638   2.635879   0.000000
    10  H    2.104750   1.104449   2.421730   1.736430   0.000000
    11  C    2.849507   2.531460   3.927934   3.041266   3.452154
    12  C    2.539283   1.513321   3.500360   2.168101   2.157223
    13  H    3.917228   3.498052   4.999652   3.975893   4.321164
    14  H    2.968540   2.699996   3.961260   2.831925   3.765684
    15  H    3.461176   2.152104   4.338025   2.372825   2.621034
    16  H    2.934976   2.102279   3.818698   2.988455   2.287644
                   11         12         13         14         15
    11  C    0.000000
    12  C    1.542045   0.000000
    13  H    1.094493   2.213648   0.000000
    14  H    1.088135   2.131431   1.780261   0.000000
    15  H    2.199325   1.094773   2.539933   2.546508   0.000000
    16  H    2.181574   1.093318   2.598610   3.047661   1.742031
                   16
    16  H    0.000000
 Stoichiometry    C6H10
 Framework group  C1[X(C6H10)]
 Deg. of freedom    42
 Full point group                 C1      NOp   1
 RotChk:  IX=0 Diff= 1.08D-01
 Largest Abelian subgroup         C1      NOp   1
 Largest concise Abelian subgroup C1      NOp   1
                         Standard orientation:                         
 ---------------------------------------------------------------------
 Center     Atomic      Atomic             Coordinates (Angstroms)
 Number     Number       Type             X           Y           Z
 ---------------------------------------------------------------------
      1          6           0        1.457617   -0.099346    0.198594
      2          6           0        0.808604    1.235923    0.000169
      3          1           0        1.582189   -0.251628    1.286784
      4          1           0        2.479655   -0.114926   -0.205885
      5          1           0        1.455555    2.099025   -0.120682
      6          6           0       -0.523418    1.364329   -0.077015
      7          6           0       -1.474315    0.180645   -0.063478
      8          1           0       -0.988585    2.342429   -0.078114
      9          1           0       -2.050815    0.112071   -0.997368
     10          1           0       -2.234264    0.417755    0.702071
     11          6           0        0.600100   -1.238320   -0.366183
     12          6           0       -0.804175   -1.136413    0.262727
     13          1           0        1.076542   -2.209209   -0.197977
     14          1           0        0.482225   -1.075958   -1.435660
     15          1           0       -1.446951   -1.971097   -0.035049
     16          1           0       -0.742027   -1.189369    1.352992
 ---------------------------------------------------------------------
 Rotational constants (GHZ):           4.7275475           4.5854479           2.5697158
 Leave Link  202 at Sat Jun 15 16:40:13 2024, MaxMem=   104857600 cpu:               0.2 elap:               0.4
 (Enter /mlatom/software/Gaussian/g16-avx2/l301.exe)
 Standard basis: STO-3G (5D, 7F)
 Ernie: Thresh=  0.10000D-02 Tol=  0.10000D-05 Strict=F.
 There are    40 symmetry adapted cartesian basis functions of A   symmetry.
 There are    40 symmetry adapted basis functions of A   symmetry.
    40 basis functions,   120 primitive gaussians,    40 cartesian basis functions
    23 alpha electrons       23 beta electrons
       nuclear repulsion energy       237.0547654456 Hartrees.
 IExCor=    0 DFT=F Ex=HF Corr=None ExCW=0 ScaHFX=  1.000000
 ScaDFX=  1.000000  1.000000  1.000000  1.000000 ScalE2=  1.000000  1.000000
 IRadAn=      5 IRanWt=     -1 IRanGd=            0 ICorTp=0 IEmpDi=  4
 NAtoms=   16 NActive=   16 NUniq=   16 SFac= 1.00D+00 NAtFMM=   60 NAOKFM=F Big=F
 Integral buffers will be    131072 words long.
 Raffenetti 1 integral format.
 Two-electron integral symmetry is turned on.
 Leave Link  301 at Sat Jun 15 16:40:14 2024, MaxMem=   104857600 cpu:               0.3 elap:               0.5
 (Enter /mlatom/software/Gaussian/g16-avx2/l402.exe)
 External calculation of energy and first derivatives.
 Running external command "/mlatom/software/miniconda3/bin/python /mlatom/software/mlatom/mlatom/interfaces/gaussian_interface.py model_predict_kwargs R"
         input file       "/mlatom/home/qhzhang/git/ts-analysis/calculations/C60/irc/pro_opt/da_ani_opt_1/Gau-212676.EIn"
         output file      "/mlatom/home/qhzhang/git/ts-analysis/calculations/C60/irc/pro_opt/da_ani_opt_1/Gau-212676.EOu"
         message file     "/mlatom/home/qhzhang/git/ts-analysis/calculations/C60/irc/pro_opt/da_ani_opt_1/Gau-212676.EMs"
         fchk file        "/mlatom/home/qhzhang/git/ts-analysis/calculations/C60/irc/pro_opt/da_ani_opt_1/Gau-212676.EFC"
         mat. el file     "/mlatom/home/qhzhang/git/ts-analysis/calculations/C60/irc/pro_opt/da_ani_opt_1/Gau-212676.EUF"
model loaded from /mlatom/home/qhzhang/git/ts-analysis/calculations/C60/irc/pro_opt/da_ani_opt_1/da_energy_iteration27.npz
 Recovered energy= -234.663771727     dipole=      0.000000000000      0.000000000000      0.000000000000
 Energy=    -234.663772     NIter=   0.
 Dipole moment=       0.000000       0.000000       0.000000
 Leave Link  402 at Sat Jun 15 16:40:18 2024, MaxMem=   104857600 cpu:              12.1 elap:               4.6
 (Enter /mlatom/software/Gaussian/g16-avx2/l716.exe)
 Dipole        = 0.00000000D+00 0.00000000D+00 0.00000000D+00
 ***** Axes restored to original set *****
 -------------------------------------------------------------------
 Center     Atomic                   Forces (Hartrees/Bohr)
 Number     Number              X              Y              Z
 -------------------------------------------------------------------
      1        6           0.004541949    0.003522056    0.003337400
      2        6           0.001125531   -0.003220688   -0.006828900
      3        1           0.001458174    0.001669572   -0.001591009
      4        1          -0.001328675   -0.000966475   -0.001725580
      5        1          -0.001705971   -0.000633348    0.004014274
      6        6           0.007710674   -0.000840262    0.002768551
      7        6          -0.015278215   -0.003562777    0.002000871
      8        1          -0.001905903    0.000180374   -0.004589574
      9        1          -0.003389825    0.001997887   -0.002184728
     10        1           0.004656834   -0.002643053   -0.002435407
     11        6          -0.007925509   -0.008438951    0.007025890
     12        6           0.006127707    0.006161669    0.004554088
     13        1           0.000745251   -0.002350613   -0.000396176
     14        1           0.002417707    0.002641069   -0.003535135
     15        1           0.000576837    0.000595409   -0.001347556
     16        1           0.002173437    0.005888132    0.000932991
 -------------------------------------------------------------------
 Cartesian Forces:  Max     0.015278215 RMS     0.004297524
 Leave Link  716 at Sat Jun 15 16:40:19 2024, MaxMem=   104857600 cpu:               0.3 elap:               0.5
 (Enter /mlatom/software/Gaussian/g16-avx2/l103.exe)

 GradGradGradGradGradGradGradGradGradGradGradGradGradGradGradGradGradGrad
 Berny optimization.
 FormGI is forming the generalized inverse of G from B-inverse, IUseBI=4.
 Internal  Forces:  Max     0.010775653 RMS     0.002257058
 Search for a local minimum.
 Step number  22 out of a maximum of   99
 All quantities printed in internal units (Hartrees-Bohrs-Radians)
 Update second derivatives using D2CorX and points   21   22
 DE= -2.08D-03 DEPred=-1.37D-03 R= 1.51D+00
 TightC=F SS=  1.41D+00  RLast= 5.28D-01 DXNew= 3.6069D+00 1.5845D+00
 Trust test= 1.51D+00 RLast= 5.28D-01 DXMaxT set to 2.14D+00
 ITU=  1  1  1  1  1  0  1  1  1  1  1  1 -1  1  1  1 -1  1  1  1
 ITU=  1  0
     Eigenvalues ---    0.00102   0.00753   0.01155   0.01426   0.01742
     Eigenvalues ---    0.03110   0.03162   0.03908   0.04483   0.04766
     Eigenvalues ---    0.05462   0.05591   0.06002   0.07169   0.07583
     Eigenvalues ---    0.08921   0.09491   0.09752   0.10812   0.12076
     Eigenvalues ---    0.12417   0.15872   0.16017   0.17144   0.19791
     Eigenvalues ---    0.22946   0.26896   0.28408   0.29485   0.30984
     Eigenvalues ---    0.31988   0.33692   0.33901   0.34152   0.34168
     Eigenvalues ---    0.34394   0.35200   0.35363   0.35770   0.36733
     Eigenvalues ---    0.40248   0.55906
 Angle between quadratic step and forces=  65.84 degrees.
 Quartic linear search produced a step of  1.27214.
 Iteration  1 RMS(Cart)=  0.08697723 RMS(Int)=  0.00757106
 Iteration  2 RMS(Cart)=  0.00718851 RMS(Int)=  0.00133554
 Iteration  3 RMS(Cart)=  0.00005857 RMS(Int)=  0.00133420
 Iteration  4 RMS(Cart)=  0.00000001 RMS(Int)=  0.00133420
 ITry= 1 IFail=0 DXMaxC= 2.97D-01 DCOld= 1.00D+10 DXMaxT= 2.14D+00 DXLimC= 3.00D+00 Rises=F
 Variable       Old X    -DE/DX   Delta X   Delta X   Delta X     New X
                                 (Linear)    (Quad)   (Total)
    R1        2.83051   0.00253  -0.00706   0.00632   0.00006   2.83057
    R2        2.08972  -0.00126   0.00125  -0.00291  -0.00166   2.08806
    R3        2.07733  -0.00024   0.00270   0.00007   0.00277   2.08010
    R4        2.89786  -0.00298   0.00287  -0.00444  -0.00162   2.89625
    R5        2.05111   0.00055   0.00003   0.00056   0.00059   2.05170
    R6        2.53303  -0.00114   0.00037  -0.00224  -0.00157   2.53146
    R7        2.86933  -0.00600  -0.01120  -0.01028  -0.02184   2.84749
    R8        2.04672   0.00174  -0.00128   0.00202   0.00074   2.04747
    R9        2.07801   0.00042  -0.00066   0.00206   0.00140   2.07942
   R10        2.08711  -0.00064  -0.00126  -0.00189  -0.00315   2.08395
   R11        2.85976   0.01078  -0.00471   0.01476   0.00899   2.86875
   R12        2.91404  -0.00653   0.00732  -0.01330  -0.00557   2.90847
   R13        2.06829  -0.00061   0.00602  -0.00002   0.00600   2.07429
   R14        2.05628   0.00296   0.00296   0.00170   0.00467   2.06094
   R15        2.06882   0.00050  -0.00459   0.00015  -0.00444   2.06439
   R16        2.06607   0.00122  -0.00657   0.00232  -0.00426   2.06181
    A1        1.87752   0.00254  -0.00352   0.00674   0.00429   1.88181
    A2        1.94630  -0.00016  -0.00922  -0.00388  -0.01230   1.93400
    A3        1.95092  -0.00333   0.02565  -0.00836   0.01448   1.96539
    A4        1.82905  -0.00037   0.00369   0.00207   0.00532   1.83437
    A5        1.89983  -0.00047  -0.01017   0.00371  -0.00643   1.89341
    A6        1.95397   0.00204  -0.00805   0.00099  -0.00557   1.94840
    A7        2.05484  -0.00001  -0.01030   0.00120  -0.00775   2.04709
    A8        2.12188   0.00183   0.00826   0.00670   0.01202   2.13390
    A9        2.10566  -0.00178   0.00185  -0.00677  -0.00361   2.10206
   A10        2.14974   0.00113  -0.00391   0.00622  -0.00267   2.14707
   A11        2.10990  -0.00153   0.00008  -0.00874  -0.00762   2.10227
   A12        2.02089   0.00051   0.00822   0.00361   0.01290   2.03379
   A13        1.94912  -0.00264  -0.01260  -0.01209  -0.02341   1.92572
   A14        1.84391   0.00433   0.02224   0.02622   0.05021   1.89412
   A15        1.98566  -0.00199  -0.00690  -0.01340  -0.02631   1.95934
   A16        1.81453  -0.00084   0.00208   0.00935   0.01103   1.82556
   A17        1.94008   0.00220  -0.00554  -0.00195  -0.00749   1.93260
   A18        1.91998  -0.00085   0.00372  -0.00448   0.00149   1.92147
   A19        1.88593   0.00295  -0.00106   0.00494   0.00090   1.88683
   A20        1.93781   0.00042  -0.01366   0.00600  -0.00605   1.93176
   A21        1.88781  -0.00080   0.01311  -0.00126   0.01148   1.89929
   A22        1.97399  -0.00268  -0.00811  -0.00392  -0.01150   1.96250
   A23        1.86747   0.00094   0.01527   0.00682   0.02286   1.89032
   A24        1.90770  -0.00073  -0.00322  -0.01235  -0.01581   1.89189
   A25        1.95289  -0.00131  -0.00581  -0.00872  -0.01905   1.93385
   A26        1.92295   0.00019  -0.00612   0.00370  -0.00021   1.92274
   A27        1.85697   0.00452  -0.01344   0.01589   0.00165   1.85861
   A28        1.95342  -0.00097   0.01832  -0.00513   0.01445   1.96787
   A29        1.93022  -0.00263  -0.02858  -0.00730  -0.03511   1.89511
   A30        1.84178   0.00055   0.03661   0.00328   0.03962   1.88140
    D1        1.58433  -0.00086  -0.03738  -0.08502  -0.12261   1.46172
    D2       -1.59999   0.00024  -0.04259  -0.05495  -0.09769  -1.69768
    D3       -0.41201  -0.00180  -0.03487  -0.08934  -0.12494  -0.53695
    D4        2.68686  -0.00070  -0.04008  -0.05927  -0.10002   2.58684
    D5       -2.61419  -0.00179  -0.03702  -0.08109  -0.11910  -2.73329
    D6        0.48468  -0.00069  -0.04223  -0.05102  -0.09418   0.39050
    D7       -0.94873  -0.00123   0.07101   0.00990   0.08099  -0.86775
    D8       -3.12294  -0.00017   0.09122   0.00746   0.09873  -3.02422
    D9        1.06718   0.00099   0.09499   0.01982   0.11455   1.18173
   D10        1.12272  -0.00042   0.07579   0.01554   0.09098   1.21370
   D11       -1.05149   0.00064   0.09600   0.01309   0.10872  -0.94277
   D12        3.13863   0.00180   0.09977   0.02546   0.12454  -3.02001
   D13        3.13647   0.00000   0.06939   0.02089   0.09044  -3.05628
   D14        0.96226   0.00106   0.08960   0.01844   0.10818   1.07044
   D15       -1.13081   0.00222   0.09338   0.03080   0.12401  -1.00680
   D16       -0.07221  -0.00036  -0.06592   0.04678  -0.01990  -0.09210
   D17        2.98767   0.00130  -0.01191   0.06357   0.05038   3.03805
   D18        3.02544   0.00081  -0.07154   0.07792   0.00571   3.03114
   D19       -0.19787   0.00248  -0.01753   0.09472   0.07598  -0.12189
   D20       -2.05459   0.00035   0.17500   0.01597   0.19085  -1.86374
   D21        2.26689   0.00020   0.16617  -0.00365   0.16188   2.42877
   D22        0.15905  -0.00052   0.15057  -0.00803   0.14191   0.30096
   D23        1.16487  -0.00115   0.12401   0.00051   0.12400   1.28888
   D24       -0.79683  -0.00130   0.11519  -0.01911   0.09503  -0.70179
   D25       -2.90467  -0.00202   0.09958  -0.02349   0.07506  -2.82961
   D26       -0.65640   0.00082  -0.12015  -0.02635  -0.14641  -0.80281
   D27       -2.84145   0.00290  -0.13518  -0.01604  -0.15113  -2.99258
   D28        1.45352  -0.00025  -0.16796  -0.03014  -0.19855   1.25498
   D29        1.56195  -0.00255  -0.14805  -0.05546  -0.20389   1.35806
   D30       -0.62309  -0.00047  -0.16308  -0.04516  -0.20862  -0.83171
   D31       -2.61131  -0.00362  -0.19586  -0.05926  -0.25603  -2.86734
   D32       -2.72105  -0.00280  -0.14649  -0.04786  -0.19392  -2.91496
   D33        1.37709  -0.00073  -0.16153  -0.03756  -0.19864   1.17845
   D34       -0.61113  -0.00387  -0.19431  -0.05165  -0.24605  -0.85718
   D35        1.05521   0.00156   0.01171   0.03186   0.04220   1.09740
   D36       -3.05986   0.00008   0.01316   0.02621   0.03826  -3.02160
   D37       -1.01167  -0.00154   0.05222   0.02234   0.07367  -0.93800
   D38       -3.07556   0.00243  -0.01215   0.04048   0.02755  -3.04800
   D39       -0.90744   0.00095  -0.01070   0.03483   0.02362  -0.88382
   D40        1.14075  -0.00067   0.02836   0.03096   0.05903   1.19978
   D41       -0.97399   0.00053  -0.01072   0.02733   0.01615  -0.95784
   D42        1.19413  -0.00095  -0.00927   0.02169   0.01222   1.20635
   D43       -3.04086  -0.00257   0.02979   0.01782   0.04763  -2.99324
         Item               Value     Threshold  Converged?
 Maximum Force            0.010776     0.000450     NO 
 RMS     Force            0.002257     0.000300     NO 
 Maximum Displacement     0.297005     0.001800     NO 
 RMS     Displacement     0.088900     0.001200     NO 
 Predicted change in Energy=-2.379741D-03
 GradGradGradGradGradGradGradGradGradGradGradGradGradGradGradGradGradGrad

 Leave Link  103 at Sat Jun 15 16:40:20 2024, MaxMem=   104857600 cpu:               1.6 elap:               0.9
 (Enter /mlatom/software/Gaussian/g16-avx2/l202.exe)
                          Input orientation:                          
 ---------------------------------------------------------------------
 Center     Atomic      Atomic             Coordinates (Angstroms)
 Number     Number       Type             X           Y           Z
 ---------------------------------------------------------------------
      1          6           0        0.653811   -0.287327   -0.145098
      2          6           0       -0.625903   -1.049341   -0.304123
      3          1           0        0.783898   -0.065370    0.929489
      4          1           0        0.586829    0.696103   -0.635005
      5          1           0       -1.544009   -0.473104   -0.365816
      6          6           0       -0.656434   -2.385844   -0.389710
      7          6           0        0.587978   -3.233353   -0.450495
      8          1           0       -1.602595   -2.913441   -0.407973
      9          1           0        0.730696   -3.630808   -1.466614
     10          1           0        0.434810   -4.126305    0.178237
     11          6           0        1.874330   -1.077843   -0.629212
     12          6           0        1.821661   -2.477396    0.008981
     13          1           0        2.802494   -0.542883   -0.390038
     14          1           0        1.812391   -1.192528   -1.711999
     15          1           0        2.719983   -3.066400   -0.189731
     16          1           0        1.730141   -2.363266    1.090194
 ---------------------------------------------------------------------
                    Distance matrix (angstroms):
                    1          2          3          4          5
     1  C    0.000000
     2  C    1.497873   0.000000
     3  H    1.104955   2.116019   0.000000
     4  H    1.100741   2.150995   1.751091   0.000000
     5  H    2.216674   1.085713   2.695035   2.445399   0.000000
     6  C    2.486031   1.339589   3.033058   3.332307   2.108776
     7  C    2.962545   2.502967   3.461049   3.933786   3.488770
     8  H    3.472312   2.107031   3.949135   4.227758   2.441405
     9  H    3.595995   3.139382   4.296102   4.408450   4.044395
    10  H    3.858789   3.290211   4.144567   4.892862   4.190178
    11  C    1.532628   2.521441   2.154924   2.191935   3.481398
    12  C    2.486767   2.850955   2.782473   3.465635   3.935148
    13  H    2.177646   3.466668   2.458435   2.550347   4.347131
    14  H    2.148691   2.819201   3.050532   2.495766   3.687167
    15  H    3.463279   3.908524   3.742627   4.347993   4.993777
    16  H    2.644608   3.036687   2.490286   3.693672   4.051264
                    6          7          8          9         10
     6  C    0.000000
     7  C    1.506827   0.000000
     8  H    1.083473   2.214219   0.000000
     9  H    2.152622   1.100380   2.660749   0.000000
    10  H    2.131333   1.102781   2.442478   1.743158   0.000000
    11  C    2.858845   2.516519   3.937941   2.920064   3.466600
    12  C    2.511630   1.518079   3.476998   2.167474   2.161227
    13  H    3.919271   3.485164   5.002468   3.871259   4.332410
    14  H    3.044265   2.693612   4.040317   2.678711   3.752035
    15  H    3.450121   2.154371   4.330786   2.430277   2.545744
    16  H    2.808268   2.106019   3.695177   3.023710   2.370202
                   11         12         13         14         15
    11  C    0.000000
    12  C    1.539095   0.000000
    13  H    1.097668   2.205355   0.000000
    14  H    1.090603   2.147730   1.774802   0.000000
    15  H    2.205137   1.092426   2.532799   2.579228   0.000000
    16  H    2.151618   1.091065   2.579694   3.038039   1.764198
                   16
    16  H    0.000000
 Stoichiometry    C6H10
 Framework group  C1[X(C6H10)]
 Deg. of freedom    42
 Full point group                 C1      NOp   1
 RotChk:  IX=0 Diff= 1.67D-01
 Largest Abelian subgroup         C1      NOp   1
 Largest concise Abelian subgroup C1      NOp   1
                         Standard orientation:                         
 ---------------------------------------------------------------------
 Center     Atomic      Atomic             Coordinates (Angstroms)
 Number     Number       Type             X           Y           Z
 ---------------------------------------------------------------------
      1          6           0        1.468750    0.068644    0.146663
      2          6           0        0.649127    1.315977    0.020161
      3          1           0        1.712978   -0.068534    1.215522
      4          1           0        2.440521    0.186532   -0.356719
      5          1           0        1.183643    2.259387   -0.034998
      6          6           0       -0.688609    1.289073   -0.044923
      7          6           0       -1.481758    0.009724   -0.113535
      8          1           0       -1.257283    2.211297   -0.039700
      9          1           0       -1.888455   -0.134244   -1.125813
     10          1           0       -2.370598    0.113530    0.530914
     11          6           0        0.724860   -1.177640   -0.345632
     12          6           0       -0.665493   -1.196643    0.314193
     13          1           0        1.303561   -2.085054   -0.129812
     14          1           0        0.590639   -1.103689   -1.425415
     15          1           0       -1.217705   -2.116736    0.109527
     16          1           0       -0.538559   -1.117302    1.394941
 ---------------------------------------------------------------------
 Rotational constants (GHZ):           4.7511716           4.5962986           2.5815569
 Leave Link  202 at Sat Jun 15 16:40:21 2024, MaxMem=   104857600 cpu:               0.2 elap:               0.4
 (Enter /mlatom/software/Gaussian/g16-avx2/l301.exe)
 Standard basis: STO-3G (5D, 7F)
 Ernie: Thresh=  0.10000D-02 Tol=  0.10000D-05 Strict=F.
 There are    40 symmetry adapted cartesian basis functions of A   symmetry.
 There are    40 symmetry adapted basis functions of A   symmetry.
    40 basis functions,   120 primitive gaussians,    40 cartesian basis functions
    23 alpha electrons       23 beta electrons
       nuclear repulsion energy       237.4149549462 Hartrees.
 IExCor=    0 DFT=F Ex=HF Corr=None ExCW=0 ScaHFX=  1.000000
 ScaDFX=  1.000000  1.000000  1.000000  1.000000 ScalE2=  1.000000  1.000000
 IRadAn=      5 IRanWt=     -1 IRanGd=            0 ICorTp=0 IEmpDi=  4
 NAtoms=   16 NActive=   16 NUniq=   16 SFac= 1.00D+00 NAtFMM=   60 NAOKFM=F Big=F
 Integral buffers will be    131072 words long.
 Raffenetti 1 integral format.
 Two-electron integral symmetry is turned on.
 Leave Link  301 at Sat Jun 15 16:40:21 2024, MaxMem=   104857600 cpu:               0.5 elap:               0.6
 (Enter /mlatom/software/Gaussian/g16-avx2/l402.exe)
 External calculation of energy and first derivatives.
 Running external command "/mlatom/software/miniconda3/bin/python /mlatom/software/mlatom/mlatom/interfaces/gaussian_interface.py model_predict_kwargs R"
         input file       "/mlatom/home/qhzhang/git/ts-analysis/calculations/C60/irc/pro_opt/da_ani_opt_1/Gau-212676.EIn"
         output file      "/mlatom/home/qhzhang/git/ts-analysis/calculations/C60/irc/pro_opt/da_ani_opt_1/Gau-212676.EOu"
         message file     "/mlatom/home/qhzhang/git/ts-analysis/calculations/C60/irc/pro_opt/da_ani_opt_1/Gau-212676.EMs"
         fchk file        "/mlatom/home/qhzhang/git/ts-analysis/calculations/C60/irc/pro_opt/da_ani_opt_1/Gau-212676.EFC"
         mat. el file     "/mlatom/home/qhzhang/git/ts-analysis/calculations/C60/irc/pro_opt/da_ani_opt_1/Gau-212676.EUF"
model loaded from /mlatom/home/qhzhang/git/ts-analysis/calculations/C60/irc/pro_opt/da_ani_opt_1/da_energy_iteration27.npz
 Recovered energy= -234.666728565     dipole=      0.000000000000      0.000000000000      0.000000000000
 Energy=    -234.666729     NIter=   0.
 Dipole moment=       0.000000       0.000000       0.000000
 Leave Link  402 at Sat Jun 15 16:40:26 2024, MaxMem=   104857600 cpu:              11.0 elap:               4.3
 (Enter /mlatom/software/Gaussian/g16-avx2/l716.exe)
 Dipole        = 0.00000000D+00 0.00000000D+00 0.00000000D+00
 ***** Axes restored to original set *****
 -------------------------------------------------------------------
 Center     Atomic                   Forces (Hartrees/Bohr)
 Number     Number              X              Y              Z
 -------------------------------------------------------------------
      1        6           0.004114355    0.003497719    0.001789988
      2        6          -0.000032110   -0.002784374   -0.003918113
      3        1           0.000321216    0.001772687   -0.001213317
      4        1          -0.000362304   -0.000772065   -0.000279918
      5        1          -0.001038402   -0.000477975    0.003115434
      6        6           0.002262858    0.000383775   -0.000264282
      7        6          -0.006866870   -0.003905514    0.001974914
      8        1          -0.002130854   -0.000017423   -0.002710779
      9        1          -0.001122731    0.000715512   -0.001177037
     10        1           0.001610915   -0.000183144   -0.001296824
     11        6          -0.004048479   -0.005287173    0.004816207
     12        6           0.001848552    0.005592461   -0.001200112
     13        1          -0.000816514   -0.002017688   -0.000665032
     14        1           0.001402518    0.001132005   -0.002170660
     15        1           0.001987076    0.000827211    0.000039542
     16        1           0.002870778    0.001523986    0.003159989
 -------------------------------------------------------------------
 Cartesian Forces:  Max     0.006866870 RMS     0.002520776
 Leave Link  716 at Sat Jun 15 16:40:27 2024, MaxMem=   104857600 cpu:               0.3 elap:               0.5
 (Enter /mlatom/software/Gaussian/g16-avx2/l103.exe)

 GradGradGradGradGradGradGradGradGradGradGradGradGradGradGradGradGradGrad
 Berny optimization.
 FormGI is forming the generalized inverse of G from B-inverse, IUseBI=4.
 Internal  Forces:  Max     0.006938405 RMS     0.001451734
 Search for a local minimum.
 Step number  23 out of a maximum of   99
 All quantities printed in internal units (Hartrees-Bohrs-Radians)
 Update second derivatives using D2CorX and points   22   23
 DE= -2.96D-03 DEPred=-2.38D-03 R= 1.24D+00
 TightC=F SS=  1.41D+00  RLast= 8.33D-01 DXNew= 3.6069D+00 2.4978D+00
 Trust test= 1.24D+00 RLast= 8.33D-01 DXMaxT set to 2.50D+00
 ITU=  1  1  1  1  1  1  0  1  1  1  1  1  1 -1  1  1  1 -1  1  1
 ITU=  1  1  0
     Eigenvalues ---    0.00168   0.00572   0.01094   0.01461   0.01599
     Eigenvalues ---    0.02966   0.03161   0.03877   0.04525   0.04789
     Eigenvalues ---    0.05324   0.05675   0.05947   0.07052   0.07604
     Eigenvalues ---    0.08715   0.09374   0.09699   0.10701   0.11787
     Eigenvalues ---    0.12260   0.15804   0.16010   0.16645   0.19133
     Eigenvalues ---    0.22943   0.27098   0.27948   0.29500   0.29845
     Eigenvalues ---    0.31519   0.33440   0.33793   0.34149   0.34159
     Eigenvalues ---    0.34360   0.34847   0.35345   0.35516   0.36546
     Eigenvalues ---    0.38133   0.55892
 Angle between quadratic step and forces=  76.37 degrees.
 Quartic linear search produced a step of  0.34389.
 Iteration  1 RMS(Cart)=  0.07011410 RMS(Int)=  0.00313151
 Iteration  2 RMS(Cart)=  0.00352630 RMS(Int)=  0.00108917
 Iteration  3 RMS(Cart)=  0.00000419 RMS(Int)=  0.00108916
 Iteration  4 RMS(Cart)=  0.00000000 RMS(Int)=  0.00108916
 ITry= 1 IFail=0 DXMaxC= 2.84D-01 DCOld= 1.00D+10 DXMaxT= 2.50D+00 DXLimC= 3.00D+00 Rises=F
 Variable       Old X    -DE/DX   Delta X   Delta X   Delta X     New X
                                 (Linear)    (Quad)   (Total)
    R1        2.83057   0.00326   0.00002   0.00292   0.00385   2.83442
    R2        2.08806  -0.00079  -0.00057  -0.00864  -0.00921   2.07885
    R3        2.08010  -0.00054   0.00095  -0.00182  -0.00087   2.07923
    R4        2.89625  -0.00108  -0.00056  -0.00045  -0.00066   2.89559
    R5        2.05170   0.00045   0.00020   0.00264   0.00285   2.05455
    R6        2.53146  -0.00046  -0.00054  -0.00072  -0.00078   2.53068
    R7        2.84749  -0.00107  -0.00751  -0.01388  -0.02176   2.82573
    R8        2.04747   0.00191   0.00026   0.00277   0.00303   2.05050
    R9        2.07942   0.00068   0.00048  -0.00198  -0.00150   2.07792
   R10        2.08395  -0.00081  -0.00108  -0.00488  -0.00596   2.07799
   R11        2.86875   0.00694   0.00309   0.05615   0.05833   2.92708
   R12        2.90847  -0.00442  -0.00192  -0.01369  -0.01599   2.89248
   R13        2.07429  -0.00182   0.00206   0.00508   0.00714   2.08144
   R14        2.06094   0.00196   0.00160   0.01031   0.01191   2.07285
   R15        2.06439   0.00118  -0.00153   0.00497   0.00344   2.06783
   R16        2.06181   0.00305  -0.00146  -0.00135  -0.00282   2.05900
    A1        1.88181   0.00171   0.00148   0.02215   0.02357   1.90538
    A2        1.93400   0.00007  -0.00423  -0.01368  -0.01775   1.91625
    A3        1.96539  -0.00243   0.00498  -0.01651  -0.01282   1.95258
    A4        1.83437  -0.00074   0.00183   0.01521   0.01713   1.85150
    A5        1.89341   0.00014  -0.00221   0.01412   0.01251   1.90591
    A6        1.94840   0.00141  -0.00191  -0.01665  -0.01908   1.92932
    A7        2.04709  -0.00007  -0.00267  -0.00322  -0.00534   2.04175
    A8        2.13390   0.00148   0.00413   0.01220   0.01483   2.14873
    A9        2.10206  -0.00140  -0.00124  -0.00869  -0.00939   2.09266
   A10        2.14707  -0.00040  -0.00092   0.01763   0.01352   2.16060
   A11        2.10227  -0.00068  -0.00262  -0.02391  -0.02576   2.07651
   A12        2.03379   0.00109   0.00444   0.00653   0.01169   2.04547
   A13        1.92572  -0.00146  -0.00805  -0.03442  -0.04077   1.88494
   A14        1.89412   0.00172   0.01727   0.03580   0.05437   1.94850
   A15        1.95934  -0.00027  -0.00905   0.03695   0.02285   1.98220
   A16        1.82556  -0.00016   0.00379  -0.00030   0.00320   1.82876
   A17        1.93260   0.00030  -0.00257  -0.01839  -0.02060   1.91200
   A18        1.92147  -0.00008   0.00051  -0.02153  -0.02055   1.90092
   A19        1.88683   0.00256   0.00031   0.05937   0.05756   1.94438
   A20        1.93176  -0.00010  -0.00208  -0.01425  -0.01502   1.91674
   A21        1.89929  -0.00057   0.00395   0.00466   0.00642   1.90571
   A22        1.96250  -0.00194  -0.00395  -0.03222  -0.03499   1.92751
   A23        1.89032   0.00032   0.00786   0.01972   0.02594   1.91626
   A24        1.89189  -0.00024  -0.00544  -0.03562  -0.04106   1.85083
   A25        1.93385  -0.00133  -0.00655   0.02502   0.01394   1.94779
   A26        1.92274   0.00108  -0.00007   0.00013   0.00190   1.92464
   A27        1.85861   0.00265   0.00057   0.02211   0.02344   1.88205
   A28        1.96787  -0.00081   0.00497  -0.03905  -0.03294   1.93493
   A29        1.89511  -0.00058  -0.01207  -0.02040  -0.03144   1.86367
   A30        1.88140  -0.00082   0.01362   0.01506   0.02729   1.90869
    D1        1.46172  -0.00113  -0.04216  -0.04147  -0.08355   1.37817
    D2       -1.69768  -0.00062  -0.03359  -0.02267  -0.05569  -1.75337
    D3       -0.53695  -0.00124  -0.04297  -0.06490  -0.10774  -0.64469
    D4        2.58684  -0.00074  -0.03440  -0.04610  -0.07989   2.50695
    D5       -2.73329  -0.00130  -0.04096  -0.01930  -0.06019  -2.79348
    D6        0.39050  -0.00079  -0.03239  -0.00049  -0.03233   0.35817
    D7       -0.86775  -0.00116   0.02785   0.00669   0.03544  -0.83231
    D8       -3.02422  -0.00039   0.03395   0.01626   0.05070  -2.97352
    D9        1.18173   0.00033   0.03939   0.06555   0.10542   1.28715
   D10        1.21370  -0.00043   0.03129   0.03351   0.06522   1.27892
   D11       -0.94277   0.00033   0.03739   0.04307   0.08048  -0.86229
   D12       -3.02001   0.00105   0.04283   0.09236   0.13521  -2.88480
   D13       -3.05628  -0.00046   0.03110   0.05108   0.08261  -2.97367
   D14        1.07044   0.00031   0.03720   0.06065   0.09787   1.16831
   D15       -1.00680   0.00102   0.04264   0.10994   0.15259  -0.85421
   D16       -0.09210   0.00014  -0.00684   0.07351   0.06697  -0.02513
   D17        3.03805   0.00094   0.01732   0.10042   0.11685  -3.12829
   D18        3.03114   0.00068   0.00196   0.09296   0.09566   3.12680
   D19       -0.12189   0.00148   0.02613   0.11987   0.14554   0.02364
   D20       -1.86374   0.00022   0.06563  -0.15235  -0.08692  -1.95066
   D21        2.42877   0.00023   0.05567  -0.15355  -0.09773   2.33104
   D22        0.30096  -0.00067   0.04880  -0.17515  -0.12737   0.17359
   D23        1.28888  -0.00054   0.04264  -0.17808  -0.13575   1.15313
   D24       -0.70179  -0.00053   0.03268  -0.17929  -0.14656  -0.84835
   D25       -2.82961  -0.00143   0.02581  -0.20088  -0.17621  -3.00581
   D26       -0.80281   0.00074  -0.05035   0.20282   0.15213  -0.65067
   D27       -2.99258   0.00196  -0.05197   0.23505   0.18324  -2.80934
   D28        1.25498   0.00089  -0.06828   0.20480   0.13590   1.39088
   D29        1.35806  -0.00114  -0.07012   0.17118   0.10037   1.45843
   D30       -0.83171   0.00008  -0.07174   0.20341   0.13148  -0.70023
   D31       -2.86734  -0.00099  -0.08805   0.17316   0.08414  -2.78320
   D32       -2.91496  -0.00121  -0.06669   0.14741   0.08111  -2.83386
   D33        1.17845   0.00002  -0.06831   0.17964   0.11221   1.29066
   D34       -0.85718  -0.00106  -0.08462   0.14939   0.06488  -0.79230
   D35        1.09740   0.00099   0.01451  -0.11817  -0.10384   0.99356
   D36       -3.02160   0.00080   0.01316  -0.12787  -0.11519  -3.13680
   D37       -0.93800  -0.00111   0.02533  -0.14700  -0.12110  -1.05910
   D38       -3.04800   0.00139   0.00948  -0.11568  -0.10661   3.12857
   D39       -0.88382   0.00119   0.00812  -0.12539  -0.11796  -1.00178
   D40        1.19978  -0.00072   0.02030  -0.14452  -0.12386   1.07592
   D41       -0.95784   0.00010   0.00555  -0.16682  -0.16191  -1.11974
   D42        1.20635  -0.00010   0.00420  -0.17653  -0.17326   1.03309
   D43       -2.99324  -0.00201   0.01638  -0.19566  -0.17916   3.11079
         Item               Value     Threshold  Converged?
 Maximum Force            0.006938     0.000450     NO 
 RMS     Force            0.001452     0.000300     NO 
 Maximum Displacement     0.283903     0.001800     NO 
 RMS     Displacement     0.069494     0.001200     NO 
 Predicted change in Energy=-1.470501D-03
 GradGradGradGradGradGradGradGradGradGradGradGradGradGradGradGradGradGrad

 Leave Link  103 at Sat Jun 15 16:40:28 2024, MaxMem=   104857600 cpu:               1.6 elap:               0.9
 (Enter /mlatom/software/Gaussian/g16-avx2/l202.exe)
                          Input orientation:                          
 ---------------------------------------------------------------------
 Center     Atomic      Atomic             Coordinates (Angstroms)
 Number     Number       Type             X           Y           Z
 ---------------------------------------------------------------------
      1          6           0        0.639326   -0.276766   -0.137013
      2          6           0       -0.632391   -1.053822   -0.306294
      3          1           0        0.758043   -0.004535    0.922219
      4          1           0        0.572562    0.672127   -0.689971
      5          1           0       -1.558219   -0.484559   -0.335120
      6          6           0       -0.665993   -2.388653   -0.408742
      7          6           0        0.553041   -3.254559   -0.397982
      8          1           0       -1.623357   -2.881683   -0.542039
      9          1           0        0.666918   -3.693445   -1.399732
     10          1           0        0.432201   -4.116623    0.273898
     11          6           0        1.863257   -1.078886   -0.591409
     12          6           0        1.848007   -2.496361   -0.014021
     13          1           0        2.785003   -0.553184   -0.296095
     14          1           0        1.877997   -1.124322   -1.687276
     15          1           0        2.727840   -3.059415   -0.339966
     16          1           0        1.865847   -2.394419    1.070628
 ---------------------------------------------------------------------
                    Distance matrix (angstroms):
                    1          2          3          4          5
     1  C    0.000000
     2  C    1.499912   0.000000
     3  H    1.100080   2.131562   0.000000
     4  H    1.100281   2.139631   1.758246   0.000000
     5  H    2.216218   1.087220   2.678879   2.450319   0.000000
     6  C    2.497551   1.339178   3.079506   3.313832   2.104059
     7  C    2.990452   2.501379   3.513917   3.937576   3.483428
     8  H    3.474100   2.092525   4.011620   4.180132   2.406920
     9  H    3.642652   3.138697   4.359795   4.423899   4.047417
    10  H    3.867331   3.294044   4.175615   4.886805   4.186235
    11  C    1.532279   2.512007   2.160277   2.177534   3.482155
    12  C    2.530343   2.884218   2.876414   3.481807   3.968983
    13  H    2.169250   3.453886   2.427729   2.559575   4.343939
    14  H    2.157770   2.866030   3.052487   2.434339   3.747692
    15  H    3.485142   3.913399   3.847792   4.323440   5.000021
    16  H    2.728956   3.151874   2.638333   3.765102   4.165083
                    6          7          8          9         10
     6  C    0.000000
     7  C    1.495310   0.000000
     8  H    1.085077   2.212803   0.000000
     9  H    2.112154   1.099587   2.576811   0.000000
    10  H    2.158218   1.099627   2.533011   1.742185   0.000000
    11  C    2.854113   2.547083   3.925428   2.986726   3.467639
    12  C    2.547077   1.548944   3.532371   2.179031   2.170865
    13  H    3.910372   3.505633   4.991596   3.945318   4.307977
    14  H    3.115295   2.820584   4.081588   2.854782   3.858807
    15  H    3.460167   2.184308   4.359511   2.402602   2.600861
    16  H    2.932369   2.149446   3.874618   3.037693   2.378257
                   11         12         13         14         15
    11  C    0.000000
    12  C    1.530635   0.000000
    13  H    1.101449   2.175652   0.000000
    14  H    1.096908   2.164063   1.756202   0.000000
    15  H    2.175597   1.094247   2.507266   2.506404   0.000000
    16  H    2.119669   1.089575   2.470410   3.036334   1.781861
                   16
    16  H    0.000000
 Stoichiometry    C6H10
 Framework group  C1[X(C6H10)]
 Deg. of freedom    42
 Full point group                 C1      NOp   1
 RotChk:  IX=0 Diff= 2.86D-02
 Largest Abelian subgroup         C1      NOp   1
 Largest concise Abelian subgroup C1      NOp   1
                         Standard orientation:                         
 ---------------------------------------------------------------------
 Center     Atomic      Atomic             Coordinates (Angstroms)
 Number     Number       Type             X           Y           Z
 ---------------------------------------------------------------------
      1          6           0        1.484046    0.051612    0.150569
      2          6           0        0.670672    1.305789    0.027292
      3          1           0        1.774791   -0.088474    1.202243
      4          1           0        2.422635    0.159304   -0.413410
      5          1           0        1.214341    2.247250    0.016207
      6          6           0       -0.665932    1.305728   -0.055706
      7          6           0       -1.498479    0.063674   -0.066681
      8          1           0       -1.186431    2.252557   -0.155638
      9          1           0       -1.948705   -0.034779   -1.065028
     10          1           0       -2.353592    0.142573    0.620150
     11          6           0        0.708603   -1.180909   -0.326359
     12          6           0       -0.700198   -1.220105    0.270791
     13          1           0        1.263163   -2.095675   -0.063953
     14          1           0        0.647603   -1.166993   -1.421480
     15          1           0       -1.244071   -2.105762   -0.071540
     16          1           0       -0.582006   -1.264728    1.353017
 ---------------------------------------------------------------------
 Rotational constants (GHZ):           4.7101657           4.5553062           2.5392016
 Leave Link  202 at Sat Jun 15 16:40:28 2024, MaxMem=   104857600 cpu:               0.2 elap:               0.4
 (Enter /mlatom/software/Gaussian/g16-avx2/l301.exe)
 Standard basis: STO-3G (5D, 7F)
 Ernie: Thresh=  0.10000D-02 Tol=  0.10000D-05 Strict=F.
 There are    40 symmetry adapted cartesian basis functions of A   symmetry.
 There are    40 symmetry adapted basis functions of A   symmetry.
    40 basis functions,   120 primitive gaussians,    40 cartesian basis functions
    23 alpha electrons       23 beta electrons
       nuclear repulsion energy       236.4826368755 Hartrees.
 IExCor=    0 DFT=F Ex=HF Corr=None ExCW=0 ScaHFX=  1.000000
 ScaDFX=  1.000000  1.000000  1.000000  1.000000 ScalE2=  1.000000  1.000000
 IRadAn=      5 IRanWt=     -1 IRanGd=            0 ICorTp=0 IEmpDi=  4
 NAtoms=   16 NActive=   16 NUniq=   16 SFac= 1.00D+00 NAtFMM=   60 NAOKFM=F Big=F
 Integral buffers will be    131072 words long.
 Raffenetti 1 integral format.
 Two-electron integral symmetry is turned on.
 Leave Link  301 at Sat Jun 15 16:40:29 2024, MaxMem=   104857600 cpu:               0.3 elap:               0.5
 (Enter /mlatom/software/Gaussian/g16-avx2/l402.exe)
 External calculation of energy and first derivatives.
 Running external command "/mlatom/software/miniconda3/bin/python /mlatom/software/mlatom/mlatom/interfaces/gaussian_interface.py model_predict_kwargs R"
         input file       "/mlatom/home/qhzhang/git/ts-analysis/calculations/C60/irc/pro_opt/da_ani_opt_1/Gau-212676.EIn"
         output file      "/mlatom/home/qhzhang/git/ts-analysis/calculations/C60/irc/pro_opt/da_ani_opt_1/Gau-212676.EOu"
         message file     "/mlatom/home/qhzhang/git/ts-analysis/calculations/C60/irc/pro_opt/da_ani_opt_1/Gau-212676.EMs"
         fchk file        "/mlatom/home/qhzhang/git/ts-analysis/calculations/C60/irc/pro_opt/da_ani_opt_1/Gau-212676.EFC"
         mat. el file     "/mlatom/home/qhzhang/git/ts-analysis/calculations/C60/irc/pro_opt/da_ani_opt_1/Gau-212676.EUF"
model loaded from /mlatom/home/qhzhang/git/ts-analysis/calculations/C60/irc/pro_opt/da_ani_opt_1/da_energy_iteration27.npz
 Recovered energy= -234.666915455     dipole=      0.000000000000      0.000000000000      0.000000000000
 Energy=    -234.666915     NIter=   0.
 Dipole moment=       0.000000       0.000000       0.000000
 Leave Link  402 at Sat Jun 15 16:40:33 2024, MaxMem=   104857600 cpu:              10.6 elap:               4.2
 (Enter /mlatom/software/Gaussian/g16-avx2/l716.exe)
 Dipole        = 0.00000000D+00 0.00000000D+00 0.00000000D+00
 ***** Axes restored to original set *****
 -------------------------------------------------------------------
 Center     Atomic                   Forces (Hartrees/Bohr)
 Number     Number              X              Y              Z
 -------------------------------------------------------------------
      1        6           0.003379761   -0.002270392   -0.001897250
      2        6          -0.002117017   -0.000918477   -0.000197696
      3        1          -0.000798052    0.002151867    0.000689409
      4        1           0.000479676    0.000471108    0.001661166
      5        1           0.000134834   -0.001190254    0.001125517
      6        6          -0.002140694    0.004424245    0.000725567
      7        6           0.008958667    0.000006133   -0.000766327
      8        1           0.000319952   -0.001671748    0.000112241
      9        1           0.000090631   -0.001357297   -0.000714234
     10        1          -0.001882829   -0.000358202   -0.001113961
     11        6           0.004407848    0.001162151   -0.003464824
     12        6          -0.009797406    0.004923545   -0.002801489
     13        1          -0.001734140   -0.002026439   -0.001085345
     14        1          -0.001723185   -0.000710365    0.001848163
     15        1           0.000141333   -0.000290970    0.002949516
     16        1           0.002280620   -0.002344904    0.002929544
 -------------------------------------------------------------------
 Cartesian Forces:  Max     0.009797406 RMS     0.002727335
 Leave Link  716 at Sat Jun 15 16:40:34 2024, MaxMem=   104857600 cpu:               0.3 elap:               0.5
 (Enter /mlatom/software/Gaussian/g16-avx2/l103.exe)

 GradGradGradGradGradGradGradGradGradGradGradGradGradGradGradGradGradGrad
 Berny optimization.
 FormGI is forming the generalized inverse of G from B-inverse, IUseBI=4.
 Internal  Forces:  Max     0.004170126 RMS     0.001125197
 Search for a local minimum.
 Step number  24 out of a maximum of   99
 All quantities printed in internal units (Hartrees-Bohrs-Radians)
 Update second derivatives using D2CorX and points   23   24
 DE= -1.87D-04 DEPred=-1.47D-03 R= 1.27D-01
 Trust test= 1.27D-01 RLast= 7.71D-01 DXMaxT set to 2.50D+00
 ITU=  0  1  1  1  1  1  1  0  1  1  1  1  1  1 -1  1  1  1 -1  1
 ITU=  1  1  1  0
     Eigenvalues ---    0.00247   0.00658   0.01031   0.01501   0.01541
     Eigenvalues ---    0.02860   0.03217   0.03972   0.04593   0.05077
     Eigenvalues ---    0.05105   0.05731   0.05926   0.07203   0.08171
     Eigenvalues ---    0.08657   0.09435   0.09829   0.10844   0.11828
     Eigenvalues ---    0.12432   0.15923   0.16124   0.17494   0.19624
     Eigenvalues ---    0.22876   0.27006   0.28317   0.29623   0.29799
     Eigenvalues ---    0.31427   0.33305   0.33774   0.34158   0.34177
     Eigenvalues ---    0.34381   0.34822   0.35354   0.35623   0.36411
     Eigenvalues ---    0.37325   0.55951
 Angle between quadratic step and forces=  70.30 degrees.
 Quartic linear search produced a step of -0.47615.
 Iteration  1 RMS(Cart)=  0.08204975 RMS(Int)=  0.00360998
 Iteration  2 RMS(Cart)=  0.00460402 RMS(Int)=  0.00078268
 Iteration  3 RMS(Cart)=  0.00000841 RMS(Int)=  0.00078264
 Iteration  4 RMS(Cart)=  0.00000000 RMS(Int)=  0.00078264
 ITry= 1 IFail=0 DXMaxC= 3.40D-01 DCOld= 1.00D+10 DXMaxT= 2.50D+00 DXLimC= 3.00D+00 Rises=F
 Variable       Old X    -DE/DX   Delta X   Delta X   Delta X     New X
                                 (Linear)    (Quad)   (Total)
    R1        2.83442   0.00221  -0.00183   0.01230   0.01108   2.84550
    R2        2.07885   0.00111   0.00439   0.00131   0.00570   2.08455
    R3        2.07923  -0.00046   0.00041  -0.00095  -0.00053   2.07869
    R4        2.89559  -0.00037   0.00031   0.00117   0.00159   2.89718
    R5        2.05455  -0.00077  -0.00136   0.00018  -0.00118   2.05337
    R6        2.53068  -0.00152   0.00037  -0.00091  -0.00010   2.53058
    R7        2.82573   0.00187   0.01036   0.00050   0.01072   2.83645
    R8        2.05050   0.00046  -0.00144   0.00438   0.00294   2.05344
    R9        2.07792   0.00120   0.00071   0.00371   0.00442   2.08234
   R10        2.07799  -0.00019   0.00284  -0.00355  -0.00071   2.07728
   R11        2.92708  -0.00417  -0.02777   0.00216  -0.02622   2.90086
   R12        2.89248  -0.00099   0.00761  -0.01420  -0.00694   2.88554
   R13        2.08144  -0.00271  -0.00340  -0.00505  -0.00845   2.07298
   R14        2.07285  -0.00184  -0.00567   0.00379  -0.00188   2.07097
   R15        2.06783  -0.00062  -0.00164   0.00020  -0.00144   2.06639
   R16        2.05900   0.00273   0.00134   0.01104   0.01238   2.07138
    A1        1.90538  -0.00022  -0.01122   0.00332  -0.00794   1.89744
    A2        1.91625   0.00036   0.00845  -0.00155   0.00769   1.92394
    A3        1.95258  -0.00023   0.00610  -0.00264   0.00259   1.95517
    A4        1.85150  -0.00119  -0.00815  -0.01270  -0.02107   1.83043
    A5        1.90591   0.00082  -0.00595   0.01132   0.00555   1.91146
    A6        1.92932   0.00041   0.00909   0.00187   0.01148   1.94080
    A7        2.04175   0.00120   0.00254   0.00184   0.00498   2.04673
    A8        2.14873  -0.00072  -0.00706   0.00571  -0.00251   2.14622
    A9        2.09266  -0.00048   0.00447  -0.00778  -0.00269   2.08997
   A10        2.16060   0.00019  -0.00644  -0.00030  -0.00853   2.15207
   A11        2.07651   0.00155   0.01227  -0.00087   0.01251   2.08902
   A12        2.04547  -0.00174  -0.00556   0.00082  -0.00366   2.04182
   A13        1.88494   0.00086   0.01941  -0.00757   0.01249   1.89743
   A14        1.94850  -0.00149  -0.02589   0.01333  -0.01128   1.93722
   A15        1.98220  -0.00074  -0.01088  -0.02193  -0.03540   1.94680
   A16        1.82876  -0.00078  -0.00153   0.00205  -0.00015   1.82861
   A17        1.91200   0.00044   0.00981  -0.00156   0.00868   1.92068
   A18        1.90092   0.00171   0.00979   0.01706   0.02835   1.92926
   A19        1.94438  -0.00091  -0.02741  -0.00274  -0.03195   1.91243
   A20        1.91674   0.00029   0.00715   0.01024   0.01793   1.93468
   A21        1.90571   0.00053  -0.00305   0.00566   0.00363   1.90934
   A22        1.92751  -0.00009   0.01666  -0.00360   0.01402   1.94153
   A23        1.91626  -0.00001  -0.01235   0.00104  -0.01053   1.90574
   A24        1.85083   0.00025   0.01955  -0.01083   0.00829   1.85912
   A25        1.94779   0.00116  -0.00664  -0.01859  -0.02876   1.91903
   A26        1.92464  -0.00129  -0.00090   0.00733   0.00772   1.93236
   A27        1.88205   0.00063  -0.01116   0.01804   0.00793   1.88998
   A28        1.93493  -0.00012   0.01568  -0.00478   0.01222   1.94715
   A29        1.86367   0.00118   0.01497   0.01445   0.03037   1.89404
   A30        1.90869  -0.00151  -0.01299  -0.01582  -0.02912   1.87957
    D1        1.37817  -0.00110   0.03978  -0.13404  -0.09426   1.28390
    D2       -1.75337  -0.00116   0.02652  -0.10652  -0.07966  -1.83303
    D3       -0.64469   0.00024   0.05130  -0.11980  -0.06878  -0.71347
    D4        2.50695   0.00019   0.03804  -0.09228  -0.05417   2.45278
    D5       -2.79348  -0.00037   0.02866  -0.11927  -0.09101  -2.88449
    D6        0.35817  -0.00043   0.01539  -0.09176  -0.07641   0.28177
    D7       -0.83231  -0.00007  -0.01687   0.03307   0.01704  -0.81526
    D8       -2.97352   0.00046  -0.02414   0.03237   0.00882  -2.96470
    D9        1.28715  -0.00030  -0.05020   0.03641  -0.01371   1.27344
   D10        1.27892   0.00006  -0.03106   0.04320   0.01250   1.29142
   D11       -0.86229   0.00059  -0.03832   0.04250   0.00427  -0.85801
   D12       -2.88480  -0.00018  -0.06438   0.04654  -0.01825  -2.90306
   D13       -2.97367  -0.00066  -0.03933   0.03557  -0.00320  -2.97687
   D14        1.16831  -0.00013  -0.04660   0.03487  -0.01143   1.15688
   D15       -0.85421  -0.00090  -0.07266   0.03890  -0.03395  -0.88817
   D16       -0.02513   0.00059  -0.03189   0.04217   0.00950  -0.01563
   D17       -3.12829   0.00048  -0.05564   0.05338  -0.00280  -3.13109
   D18        3.12680   0.00053  -0.04555   0.07040   0.02441  -3.13198
   D19        0.02364   0.00041  -0.06930   0.08161   0.01211   0.03575
   D20       -1.95066  -0.00037   0.04139   0.08288   0.12443  -1.82623
   D21        2.33104   0.00086   0.04653   0.07765   0.12349   2.45453
   D22        0.17359   0.00032   0.06065   0.06120   0.12117   0.29476
   D23        1.15313  -0.00020   0.06464   0.07181   0.13676   1.28988
   D24       -0.84835   0.00104   0.06978   0.06658   0.13581  -0.71254
   D25       -3.00581   0.00049   0.08390   0.05014   0.13349  -2.87232
   D26       -0.65067  -0.00181  -0.07244  -0.10914  -0.18094  -0.83162
   D27       -2.80934  -0.00154  -0.08725  -0.09513  -0.18182  -2.99116
   D28        1.39088   0.00065  -0.06471  -0.09109  -0.15574   1.23514
   D29        1.45843  -0.00088  -0.04779  -0.13476  -0.18260   1.27583
   D30       -0.70023  -0.00062  -0.06260  -0.12074  -0.18348  -0.88371
   D31       -2.78320   0.00158  -0.04006  -0.11670  -0.15739  -2.94059
   D32       -2.83386  -0.00065  -0.03862  -0.12391  -0.16203  -2.99588
   D33        1.29066  -0.00038  -0.05343  -0.10989  -0.16290   1.12776
   D34       -0.79230   0.00182  -0.03089  -0.10585  -0.13682  -0.92912
   D35        0.99356   0.00201   0.04944   0.06919   0.11801   1.11157
   D36       -3.13680   0.00108   0.05485   0.06188   0.11607  -3.02073
   D37       -1.05910  -0.00009   0.05766   0.04886   0.10640  -0.95269
   D38        3.12857   0.00168   0.05076   0.07786   0.12837  -3.02624
   D39       -1.00178   0.00076   0.05617   0.07054   0.12643  -0.87535
   D40        1.07592  -0.00042   0.05898   0.05752   0.11676   1.19269
   D41       -1.11974   0.00194   0.07709   0.06316   0.14040  -0.97935
   D42        1.03309   0.00101   0.08250   0.05584   0.13846   1.17155
   D43        3.11079  -0.00017   0.08531   0.04283   0.12879  -3.04360
         Item               Value     Threshold  Converged?
 Maximum Force            0.004170     0.000450     NO 
 RMS     Force            0.001125     0.000300     NO 
 Maximum Displacement     0.340263     0.001800     NO 
 RMS     Displacement     0.083056     0.001200     NO 
 Predicted change in Energy=-1.202589D-03
 GradGradGradGradGradGradGradGradGradGradGradGradGradGradGradGradGradGrad

 Leave Link  103 at Sat Jun 15 16:40:35 2024, MaxMem=   104857600 cpu:               1.6 elap:               0.9
 (Enter /mlatom/software/Gaussian/g16-avx2/l202.exe)
                          Input orientation:                          
 ---------------------------------------------------------------------
 Center     Atomic      Atomic             Coordinates (Angstroms)
 Number     Number       Type             X           Y           Z
 ---------------------------------------------------------------------
      1          6           0        0.654665   -0.275212   -0.166361
      2          6           0       -0.626868   -1.059567   -0.265440
      3          1           0        0.791810    0.048103    0.879335
      4          1           0        0.574762    0.658450   -0.742457
      5          1           0       -1.557603   -0.501440   -0.211379
      6          6           0       -0.657725   -2.392822   -0.386817
      7          6           0        0.577393   -3.242875   -0.456412
      8          1           0       -1.613342   -2.904295   -0.464015
      9          1           0        0.724745   -3.567720   -1.499008
     10          1           0        0.446626   -4.174809    0.111698
     11          6           0        1.868722   -1.098990   -0.611243
     12          6           0        1.814962   -2.480435    0.037087
     13          1           0        2.803650   -0.580600   -0.365198
     14          1           0        1.852440   -1.211709   -1.701221
     15          1           0        2.725774   -3.052557   -0.159907
     16          1           0        1.730071   -2.352626    1.122422
 ---------------------------------------------------------------------
                    Distance matrix (angstroms):
                    1          2          3          4          5
     1  C    0.000000
     2  C    1.505774   0.000000
     3  H    1.103096   2.133094   0.000000
     4  H    1.099998   2.150125   1.746380   0.000000
     5  H    2.224261   1.086599   2.647905   2.484828   0.000000
     6  C    2.501048   1.339124   3.108441   3.309949   2.101876
     7  C    2.982805   2.500710   3.558192   3.911798   3.483348
     8  H    3.484900   2.101330   4.038069   4.190284   2.416742
     9  H    3.552671   3.104735   4.328416   4.295972   4.033506
    10  H    3.915029   3.316528   4.305973   4.909826   4.197017
    11  C    1.533122   2.519742   2.167344   2.186354   3.500951
    12  C    2.500138   2.841289   2.854772   3.463868   3.918208
    13  H    2.179664   3.465229   2.447780   2.577889   4.364683
    14  H    2.160438   2.869074   3.061263   2.459509   3.788470
    15  H    3.464561   3.901712   3.799254   4.328717   4.985797
    16  H    2.670788   3.025446   2.589000   3.725465   4.001839
                    6          7          8          9         10
     6  C    0.000000
     7  C    1.500984   0.000000
     8  H    1.086631   2.216757   0.000000
     9  H    2.128046   1.101926   2.641589   0.000000
    10  H    2.154899   1.099250   2.487794   1.743640   0.000000
    11  C    2.847333   2.507539   3.924993   2.862069   3.464919
    12  C    2.510290   1.535068   3.490563   2.174937   2.179178
    13  H    3.907139   3.471636   4.991908   3.811858   4.324504
    14  H    3.069791   2.702024   4.050577   2.619804   3.747393
    15  H    3.454679   2.177080   4.352286   2.462255   2.554943
    16  H    2.825065   2.148006   3.741595   3.059253   2.447273
                   11         12         13         14         15
    11  C    0.000000
    12  C    1.526962   0.000000
    13  H    1.096976   2.179154   0.000000
    14  H    1.095913   2.152391   1.757287   0.000000
    15  H    2.180521   1.093485   2.481690   2.554816   0.000000
    16  H    2.143927   1.096127   2.550621   3.047889   1.767964
                   16
    16  H    0.000000
 Stoichiometry    C6H10
 Framework group  C1[X(C6H10)]
 Deg. of freedom    42
 Full point group                 C1      NOp   1
 RotChk:  IX=2 Diff= 5.12D-02
 Largest Abelian subgroup         C1      NOp   1
 Largest concise Abelian subgroup C1      NOp   1
                         Standard orientation:                         
 ---------------------------------------------------------------------
 Center     Atomic      Atomic             Coordinates (Angstroms)
 Number     Number       Type             X           Y           Z
 ---------------------------------------------------------------------
      1          6           0        1.483942    0.091349    0.112219
      2          6           0        0.621795    1.324205    0.048009
      3          1           0        1.835895   -0.040809    1.149275
      4          1           0        2.399310    0.235961   -0.480389
      5          1           0        1.123669    2.286228    0.105710
      6          6           0       -0.713060    1.275827   -0.047265
      7          6           0       -1.488199   -0.007481   -0.119591
      8          1           0       -1.282757    2.199648   -0.099869
      9          1           0       -1.824436   -0.159405   -1.157909
     10          1           0       -2.414725    0.058386    0.468254
     11          6           0        0.726213   -1.163998   -0.335459
     12          6           0       -0.642651   -1.203409    0.340019
     13          1           0        1.304956   -2.069156   -0.113872
     14          1           0        0.590837   -1.139058   -1.422692
     15          1           0       -1.162568   -2.144360    0.140005
     16          1           0       -0.498420   -1.126390    1.423883
 ---------------------------------------------------------------------
 Rotational constants (GHZ):           4.7488253           4.5753064           2.5770750
 Leave Link  202 at Sat Jun 15 16:40:35 2024, MaxMem=   104857600 cpu:               0.2 elap:               0.4
 (Enter /mlatom/software/Gaussian/g16-avx2/l301.exe)
 Standard basis: STO-3G (5D, 7F)
 Ernie: Thresh=  0.10000D-02 Tol=  0.10000D-05 Strict=F.
 There are    40 symmetry adapted cartesian basis functions of A   symmetry.
 There are    40 symmetry adapted basis functions of A   symmetry.
    40 basis functions,   120 primitive gaussians,    40 cartesian basis functions
    23 alpha electrons       23 beta electrons
       nuclear repulsion energy       237.1423816711 Hartrees.
 IExCor=    0 DFT=F Ex=HF Corr=None ExCW=0 ScaHFX=  1.000000
 ScaDFX=  1.000000  1.000000  1.000000  1.000000 ScalE2=  1.000000  1.000000
 IRadAn=      5 IRanWt=     -1 IRanGd=            0 ICorTp=0 IEmpDi=  4
 NAtoms=   16 NActive=   16 NUniq=   16 SFac= 1.00D+00 NAtFMM=   60 NAOKFM=F Big=F
 Integral buffers will be    131072 words long.
 Raffenetti 1 integral format.
 Two-electron integral symmetry is turned on.
 Leave Link  301 at Sat Jun 15 16:40:36 2024, MaxMem=   104857600 cpu:               0.3 elap:               0.5
 (Enter /mlatom/software/Gaussian/g16-avx2/l402.exe)
 External calculation of energy and first derivatives.
 Running external command "/mlatom/software/miniconda3/bin/python /mlatom/software/mlatom/mlatom/interfaces/gaussian_interface.py model_predict_kwargs R"
         input file       "/mlatom/home/qhzhang/git/ts-analysis/calculations/C60/irc/pro_opt/da_ani_opt_1/Gau-212676.EIn"
         output file      "/mlatom/home/qhzhang/git/ts-analysis/calculations/C60/irc/pro_opt/da_ani_opt_1/Gau-212676.EOu"
         message file     "/mlatom/home/qhzhang/git/ts-analysis/calculations/C60/irc/pro_opt/da_ani_opt_1/Gau-212676.EMs"
         fchk file        "/mlatom/home/qhzhang/git/ts-analysis/calculations/C60/irc/pro_opt/da_ani_opt_1/Gau-212676.EFC"
         mat. el file     "/mlatom/home/qhzhang/git/ts-analysis/calculations/C60/irc/pro_opt/da_ani_opt_1/Gau-212676.EUF"
model loaded from /mlatom/home/qhzhang/git/ts-analysis/calculations/C60/irc/pro_opt/da_ani_opt_1/da_energy_iteration27.npz
 Recovered energy= -234.668167972     dipole=      0.000000000000      0.000000000000      0.000000000000
 Energy=    -234.668168     NIter=   0.
 Dipole moment=       0.000000       0.000000       0.000000
 Leave Link  402 at Sat Jun 15 16:40:42 2024, MaxMem=   104857600 cpu:              16.0 elap:               5.9
 (Enter /mlatom/software/Gaussian/g16-avx2/l716.exe)
 Dipole        = 0.00000000D+00 0.00000000D+00 0.00000000D+00
 ***** Axes restored to original set *****
 -------------------------------------------------------------------
 Center     Atomic                   Forces (Hartrees/Bohr)
 Number     Number              X              Y              Z
 -------------------------------------------------------------------
      1        6           0.000275979   -0.000516025   -0.000575010
      2        6           0.000719026   -0.000482127    0.000586417
      3        1          -0.000289813    0.000697498   -0.000629405
      4        1           0.000315243   -0.000064593    0.000208675
      5        1           0.000588481    0.000084286    0.000116423
      6        6          -0.002340124    0.000028163   -0.000326162
      7        6           0.002896213    0.001100681    0.000658042
      8        1           0.000182937    0.000215202   -0.000147540
      9        1           0.000406537   -0.000686638    0.000130219
     10        1          -0.000940648   -0.000016953    0.000151379
     11        6           0.000335397    0.000969228    0.000631063
     12        6          -0.002317147   -0.000124753   -0.001610088
     13        1          -0.000821515    0.000135913    0.000237200
     14        1          -0.000800985    0.000041533    0.000605865
     15        1           0.000962987   -0.000614612    0.000411237
     16        1           0.000827436   -0.000766806   -0.000448314
 -------------------------------------------------------------------
 Cartesian Forces:  Max     0.002896213 RMS     0.000849772
 Leave Link  716 at Sat Jun 15 16:40:43 2024, MaxMem=   104857600 cpu:               0.3 elap:               0.5
 (Enter /mlatom/software/Gaussian/g16-avx2/l103.exe)

 GradGradGradGradGradGradGradGradGradGradGradGradGradGradGradGradGradGrad
 Berny optimization.
 FormGI is forming the generalized inverse of G from B-inverse, IUseBI=4.
 Internal  Forces:  Max     0.001347991 RMS     0.000423932
 Search for a local minimum.
 Step number  25 out of a maximum of   99
 All quantities printed in internal units (Hartrees-Bohrs-Radians)
 Update second derivatives using D2CorX and points   23   24   25
 DE= -1.25D-03 DEPred=-1.20D-03 R= 1.04D+00
 TightC=F SS=  1.41D+00  RLast= 7.37D-01 DXNew= 4.2008D+00 2.2117D+00
 Trust test= 1.04D+00 RLast= 7.37D-01 DXMaxT set to 2.50D+00
 ITU=  1  0  1  1  1  1  1  1  0  1  1  1  1  1  1 -1  1  1  1 -1
 ITU=  1  1  1  1  0
     Eigenvalues ---    0.00305   0.00637   0.00992   0.01458   0.01557
     Eigenvalues ---    0.02881   0.03209   0.04086   0.04549   0.04942
     Eigenvalues ---    0.05250   0.05744   0.05821   0.07082   0.07939
     Eigenvalues ---    0.08452   0.09345   0.09700   0.10782   0.11767
     Eigenvalues ---    0.12298   0.15951   0.16154   0.16932   0.19018
     Eigenvalues ---    0.22817   0.26992   0.28607   0.29628   0.29783
     Eigenvalues ---    0.31486   0.33461   0.33782   0.34158   0.34179
     Eigenvalues ---    0.34393   0.34835   0.35430   0.35656   0.36570
     Eigenvalues ---    0.37057   0.55857
 Angle between quadratic step and forces=  65.80 degrees.
 Quartic linear search produced a step of -0.08656.
 Iteration  1 RMS(Cart)=  0.01359338 RMS(Int)=  0.00013469
 Iteration  2 RMS(Cart)=  0.00012949 RMS(Int)=  0.00007449
 Iteration  3 RMS(Cart)=  0.00000000 RMS(Int)=  0.00007449
 ITry= 1 IFail=0 DXMaxC= 5.18D-02 DCOld= 1.00D+10 DXMaxT= 2.50D+00 DXLimC= 3.00D+00 Rises=F
 Variable       Old X    -DE/DX   Delta X   Delta X   Delta X     New X
                                 (Linear)    (Quad)   (Total)
    R1        2.84550  -0.00039  -0.00096  -0.00020  -0.00121   2.84429
    R2        2.08455  -0.00043  -0.00049  -0.00016  -0.00065   2.08390
    R3        2.07869  -0.00019   0.00005  -0.00061  -0.00056   2.07813
    R4        2.89718  -0.00107  -0.00014  -0.00371  -0.00386   2.89332
    R5        2.05337  -0.00045   0.00010  -0.00120  -0.00110   2.05227
    R6        2.53058   0.00001   0.00001  -0.00029  -0.00033   2.53025
    R7        2.83645   0.00135  -0.00093   0.00419   0.00327   2.83972
    R8        2.05344  -0.00025  -0.00025  -0.00045  -0.00071   2.05273
    R9        2.08234   0.00013  -0.00038   0.00045   0.00007   2.08241
   R10        2.07728   0.00020   0.00006   0.00063   0.00069   2.07797
   R11        2.90086  -0.00125   0.00227  -0.00319  -0.00087   2.89999
   R12        2.88554   0.00044   0.00060  -0.00067  -0.00002   2.88552
   R13        2.07298  -0.00058   0.00073  -0.00180  -0.00107   2.07191
   R14        2.07097  -0.00059   0.00016  -0.00104  -0.00088   2.07010
   R15        2.06639   0.00105   0.00012   0.00235   0.00248   2.06887
   R16        2.07138  -0.00060  -0.00107  -0.00055  -0.00162   2.06976
    A1        1.89744   0.00003   0.00069   0.00304   0.00375   1.90118
    A2        1.92394   0.00031  -0.00067   0.00085   0.00011   1.92405
    A3        1.95517  -0.00030  -0.00022  -0.00196  -0.00211   1.95305
    A4        1.83043  -0.00036   0.00182  -0.00478  -0.00295   1.82748
    A5        1.91146   0.00039  -0.00048   0.00534   0.00482   1.91628
    A6        1.94080  -0.00007  -0.00099  -0.00242  -0.00342   1.93738
    A7        2.04673  -0.00072  -0.00043  -0.00184  -0.00232   2.04441
    A8        2.14622   0.00064   0.00022   0.00203   0.00234   2.14856
    A9        2.08997   0.00008   0.00023  -0.00009   0.00009   2.09007
   A10        2.15207  -0.00081   0.00074   0.00009   0.00098   2.15305
   A11        2.08902   0.00031  -0.00108   0.00121   0.00005   2.08907
   A12        2.04182   0.00050   0.00032  -0.00118  -0.00094   2.04088
   A13        1.89743   0.00012  -0.00108   0.00235   0.00119   1.89862
   A14        1.93722  -0.00057   0.00098  -0.00703  -0.00617   1.93105
   A15        1.94680   0.00031   0.00306   0.00102   0.00432   1.95112
   A16        1.82861  -0.00012   0.00001  -0.00473  -0.00467   1.82395
   A17        1.92068  -0.00026  -0.00075   0.00177   0.00099   1.92167
   A18        1.92926   0.00048  -0.00245   0.00628   0.00375   1.93302
   A19        1.91243   0.00069   0.00277   0.00496   0.00791   1.92034
   A20        1.93468  -0.00053  -0.00155   0.00039  -0.00126   1.93341
   A21        1.90934  -0.00052  -0.00031  -0.00814  -0.00845   1.90089
   A22        1.94153   0.00015  -0.00121   0.00436   0.00301   1.94455
   A23        1.90574  -0.00024   0.00091  -0.00485  -0.00390   1.90184
   A24        1.85912   0.00042  -0.00072   0.00279   0.00210   1.86122
   A25        1.91903  -0.00011   0.00249   0.00286   0.00569   1.92472
   A26        1.93236   0.00000  -0.00067  -0.00087  -0.00165   1.93070
   A27        1.88998   0.00013  -0.00069   0.00516   0.00432   1.89431
   A28        1.94715   0.00051  -0.00106  -0.00167  -0.00285   1.94430
   A29        1.89404  -0.00009  -0.00263   0.00513   0.00237   1.89642
   A30        1.87957  -0.00046   0.00252  -0.01052  -0.00792   1.87165
    D1        1.28390  -0.00028   0.00816  -0.01282  -0.00467   1.27923
    D2       -1.83303  -0.00051   0.00690  -0.01759  -0.01075  -1.84378
    D3       -0.71347  -0.00004   0.00595  -0.00926  -0.00331  -0.71678
    D4        2.45278  -0.00027   0.00469  -0.01403  -0.00938   2.44340
    D5       -2.88449   0.00005   0.00788  -0.00532   0.00257  -2.88192
    D6        0.28177  -0.00018   0.00661  -0.01009  -0.00351   0.27826
    D7       -0.81526   0.00023  -0.00148   0.00387   0.00229  -0.81297
    D8       -2.96470  -0.00008  -0.00076  -0.00532  -0.00615  -2.97085
    D9        1.27344   0.00004   0.00119  -0.00401  -0.00286   1.27058
   D10        1.29142   0.00035  -0.00108   0.01006   0.00893   1.30035
   D11       -0.85801   0.00004  -0.00037   0.00087   0.00049  -0.85752
   D12       -2.90306   0.00015   0.00158   0.00218   0.00378  -2.89928
   D13       -2.97687   0.00010   0.00028   0.00602   0.00624  -2.97063
   D14        1.15688  -0.00021   0.00099  -0.00316  -0.00220   1.15468
   D15       -0.88817  -0.00010   0.00294  -0.00185   0.00109  -0.88708
   D16       -0.01563   0.00012  -0.00082   0.01761   0.01683   0.00120
   D17       -3.13109   0.00025   0.00024   0.01193   0.01224  -3.11885
   D18       -3.13198  -0.00011  -0.00211   0.01276   0.01063  -3.12134
   D19        0.03575   0.00003  -0.00105   0.00708   0.00604   0.04180
   D20       -1.82623   0.00001  -0.01077  -0.02291  -0.03368  -1.85991
   D21        2.45453   0.00040  -0.01069  -0.01472  -0.02539   2.42915
   D22        0.29476  -0.00004  -0.01049  -0.01846  -0.02886   0.26590
   D23        1.28988  -0.00013  -0.01184  -0.01735  -0.02920   1.26068
   D24       -0.71254   0.00026  -0.01176  -0.00915  -0.02090  -0.73344
   D25       -2.87232  -0.00017  -0.01156  -0.01290  -0.02437  -2.89669
   D26       -0.83162   0.00047   0.01566   0.01344   0.02906  -0.80256
   D27       -2.99116  -0.00010   0.01574   0.01417   0.02986  -2.96130
   D28        1.23514   0.00038   0.01348   0.02432   0.03782   1.27297
   D29        1.27583   0.00065   0.01581   0.01828   0.03410   1.30993
   D30       -0.88371   0.00008   0.01588   0.01901   0.03490  -0.84881
   D31       -2.94059   0.00056   0.01362   0.02916   0.04286  -2.89773
   D32       -2.99588   0.00064   0.01403   0.01721   0.03118  -2.96470
   D33        1.12776   0.00006   0.01410   0.01794   0.03198   1.15974
   D34       -0.92912   0.00054   0.01184   0.02810   0.03995  -0.88917
   D35        1.11157  -0.00017  -0.01022  -0.00445  -0.01465   1.09692
   D36       -3.02073   0.00011  -0.01005  -0.00469  -0.01470  -3.03543
   D37       -0.95269  -0.00021  -0.00921  -0.01538  -0.02463  -0.97732
   D38       -3.02624  -0.00026  -0.01111   0.00243  -0.00865  -3.03490
   D39       -0.87535   0.00002  -0.01094   0.00219  -0.00871  -0.88406
   D40        1.19269  -0.00030  -0.01011  -0.00850  -0.01864   1.17405
   D41       -0.97935   0.00020  -0.01215   0.00544  -0.00671  -0.98605
   D42        1.17155   0.00049  -0.01199   0.00520  -0.00676   1.16478
   D43       -3.04360   0.00016  -0.01115  -0.00548  -0.01669  -3.06029
         Item               Value     Threshold  Converged?
 Maximum Force            0.001348     0.000450     NO 
 RMS     Force            0.000424     0.000300     NO 
 Maximum Displacement     0.051760     0.001800     NO 
 RMS     Displacement     0.013588     0.001200     NO 
 Predicted change in Energy=-9.594395D-05
 GradGradGradGradGradGradGradGradGradGradGradGradGradGradGradGradGradGrad

 Leave Link  103 at Sat Jun 15 16:40:44 2024, MaxMem=   104857600 cpu:               1.6 elap:               0.9
 (Enter /mlatom/software/Gaussian/g16-avx2/l202.exe)
                          Input orientation:                          
 ---------------------------------------------------------------------
 Center     Atomic      Atomic             Coordinates (Angstroms)
 Number     Number       Type             X           Y           Z
 ---------------------------------------------------------------------
      1          6           0        0.653171   -0.273121   -0.161308
      2          6           0       -0.626433   -1.058545   -0.266884
      3          1           0        0.786230    0.055285    0.882964
      4          1           0        0.576145    0.659137   -0.739497
      5          1           0       -1.556262   -0.499711   -0.216336
      6          6           0       -0.658133   -2.390836   -0.396432
      7          6           0        0.576685   -3.245596   -0.448966
      8          1           0       -1.613226   -2.899876   -0.489337
      9          1           0        0.723130   -3.594199   -1.484028
     10          1           0        0.435511   -4.166867    0.134544
     11          6           0        1.866212   -1.095323   -0.604839
     12          6           0        1.818539   -2.482621    0.031333
     13          1           0        2.799525   -0.574586   -0.360155
     14          1           0        1.843228   -1.202456   -1.694793
     15          1           0        2.728297   -3.052315   -0.183998
     16          1           0        1.757461   -2.367476    1.118818
 ---------------------------------------------------------------------
                    Distance matrix (angstroms):
                    1          2          3          4          5
     1  C    0.000000
     2  C    1.505132   0.000000
     3  H    1.102750   2.135037   0.000000
     4  H    1.099700   2.149415   1.743890   0.000000
     5  H    2.221703   1.086017   2.646460   2.482697   0.000000
     6  C    2.501903   1.338950   3.115533   3.308091   2.101291
     7  C    2.987341   2.502766   3.565636   3.915526   3.484747
     8  H    3.484824   2.100892   4.046427   4.185988   2.416312
     9  H    3.575478   3.119663   4.350329   4.320509   4.047039
    10  H    3.911031   3.309159   4.302290   4.906530   4.187876
    11  C    1.531080   2.515720   2.168829   2.181865   3.495572
    12  C    2.505411   2.845138   2.869129   3.465308   3.922059
    13  H    2.176525   3.461229   2.448558   2.570874   4.358804
    14  H    2.152087   2.856371   3.056793   2.446143   3.773091
    15  H    3.468513   3.903357   3.816701   4.326108   4.987412
    16  H    2.691561   3.052281   2.620818   3.742890   4.031369
                    6          7          8          9         10
     6  C    0.000000
     7  C    1.502713   0.000000
     8  H    1.086258   2.217399   0.000000
     9  H    2.130454   1.101963   2.632499   0.000000
    10  H    2.152273   1.099616   2.488336   1.740818   0.000000
    11  C    2.845014   2.512141   3.921255   2.885133   3.468137
    12  C    2.515017   1.534608   3.496027   2.175281   2.181766
    13  H    3.905827   3.476091   4.989593   3.833089   4.328715
    14  H    3.058560   2.707515   4.035025   2.649429   3.757109
    15  H    3.456962   2.176466   4.354916   2.450390   2.569156
    16  H    2.851600   2.150180   3.772418   3.057695   2.440113
                   11         12         13         14         15
    11  C    0.000000
    12  C    1.526952   0.000000
    13  H    1.096408   2.180871   0.000000
    14  H    1.095447   2.149173   1.757835   0.000000
    15  H    2.179475   1.094796   2.485004   2.547121   0.000000
    16  H    2.145039   1.095268   2.547099   3.046479   1.763195
                   16
    16  H    0.000000
 Stoichiometry    C6H10
 Framework group  C1[X(C6H10)]
 Deg. of freedom    42
 Full point group                 C1      NOp   1
 RotChk:  IX=0 Diff= 2.33D-02
 Largest Abelian subgroup         C1      NOp   1
 Largest concise Abelian subgroup C1      NOp   1
                         Standard orientation:                         
 ---------------------------------------------------------------------
 Center     Atomic      Atomic             Coordinates (Angstroms)
 Number     Number       Type             X           Y           Z
 ---------------------------------------------------------------------
      1          6           0        1.487050    0.068476    0.115647
      2          6           0        0.643636    1.313376    0.050068
      3          1           0        1.842836   -0.068498    1.150399
      4          1           0        2.402659    0.197472   -0.479635
      5          1           0        1.161640    2.266202    0.106895
      6          6           0       -0.691172    1.287804   -0.052014
      7          6           0       -1.491267    0.017151   -0.110624
      8          1           0       -1.243883    2.220699   -0.116612
      9          1           0       -1.854644   -0.126124   -1.141037
     10          1           0       -2.405463    0.106497    0.493874
     11          6           0        0.710315   -1.171950   -0.334056
     12          6           0       -0.664099   -1.197776    0.330700
     13          1           0        1.276925   -2.085293   -0.117560
     14          1           0        0.579458   -1.134211   -1.421005
     15          1           0       -1.197292   -2.128080    0.109750
     16          1           0       -0.529017   -1.151148    1.416605
 ---------------------------------------------------------------------
 Rotational constants (GHZ):           4.7514407           4.5655673           2.5712299
 Leave Link  202 at Sat Jun 15 16:40:45 2024, MaxMem=   104857600 cpu:               0.2 elap:               0.4
 (Enter /mlatom/software/Gaussian/g16-avx2/l301.exe)
 Standard basis: STO-3G (5D, 7F)
 Ernie: Thresh=  0.10000D-02 Tol=  0.10000D-05 Strict=F.
 There are    40 symmetry adapted cartesian basis functions of A   symmetry.
 There are    40 symmetry adapted basis functions of A   symmetry.
    40 basis functions,   120 primitive gaussians,    40 cartesian basis functions
    23 alpha electrons       23 beta electrons
       nuclear repulsion energy       237.0585382749 Hartrees.
 IExCor=    0 DFT=F Ex=HF Corr=None ExCW=0 ScaHFX=  1.000000
 ScaDFX=  1.000000  1.000000  1.000000  1.000000 ScalE2=  1.000000  1.000000
 IRadAn=      5 IRanWt=     -1 IRanGd=            0 ICorTp=0 IEmpDi=  4
 NAtoms=   16 NActive=   16 NUniq=   16 SFac= 1.00D+00 NAtFMM=   60 NAOKFM=F Big=F
 Integral buffers will be    131072 words long.
 Raffenetti 1 integral format.
 Two-electron integral symmetry is turned on.
 Leave Link  301 at Sat Jun 15 16:40:45 2024, MaxMem=   104857600 cpu:               0.4 elap:               0.5
 (Enter /mlatom/software/Gaussian/g16-avx2/l402.exe)
 External calculation of energy and first derivatives.
 Running external command "/mlatom/software/miniconda3/bin/python /mlatom/software/mlatom/mlatom/interfaces/gaussian_interface.py model_predict_kwargs R"
         input file       "/mlatom/home/qhzhang/git/ts-analysis/calculations/C60/irc/pro_opt/da_ani_opt_1/Gau-212676.EIn"
         output file      "/mlatom/home/qhzhang/git/ts-analysis/calculations/C60/irc/pro_opt/da_ani_opt_1/Gau-212676.EOu"
         message file     "/mlatom/home/qhzhang/git/ts-analysis/calculations/C60/irc/pro_opt/da_ani_opt_1/Gau-212676.EMs"
         fchk file        "/mlatom/home/qhzhang/git/ts-analysis/calculations/C60/irc/pro_opt/da_ani_opt_1/Gau-212676.EFC"
         mat. el file     "/mlatom/home/qhzhang/git/ts-analysis/calculations/C60/irc/pro_opt/da_ani_opt_1/Gau-212676.EUF"
model loaded from /mlatom/home/qhzhang/git/ts-analysis/calculations/C60/irc/pro_opt/da_ani_opt_1/da_energy_iteration27.npz
 Recovered energy= -234.668280923     dipole=      0.000000000000      0.000000000000      0.000000000000
 Energy=    -234.668281     NIter=   0.
 Dipole moment=       0.000000       0.000000       0.000000
 Leave Link  402 at Sat Jun 15 16:40:50 2024, MaxMem=   104857600 cpu:              10.9 elap:               4.3
 (Enter /mlatom/software/Gaussian/g16-avx2/l716.exe)
 Dipole        = 0.00000000D+00 0.00000000D+00 0.00000000D+00
 ***** Axes restored to original set *****
 -------------------------------------------------------------------
 Center     Atomic                   Forces (Hartrees/Bohr)
 Number     Number              X              Y              Z
 -------------------------------------------------------------------
      1        6          -0.000025900   -0.000530595    0.000178398
      2        6           0.000429124   -0.000185032    0.000120666
      3        1          -0.000360179    0.000357126   -0.000333077
      4        1           0.000183927    0.000103345    0.000024997
      5        1           0.000183012    0.000048358    0.000148795
      6        6          -0.001197862   -0.000073643    0.000031482
      7        6           0.001651846    0.001333732    0.000077091
      8        1           0.000165406    0.000088612   -0.000025217
      9        1           0.000214516   -0.000241130   -0.000025696
     10        1          -0.000216553    0.000105685    0.000192271
     11        6           0.000310642    0.000384348   -0.000453721
     12        6          -0.001273857   -0.000548077   -0.000645583
     13        1          -0.000328829   -0.000154381    0.000262743
     14        1          -0.000376574   -0.000137617    0.000310963
     15        1           0.000386316   -0.000256773    0.000232388
     16        1           0.000254966   -0.000293958   -0.000096501
 -------------------------------------------------------------------
 Cartesian Forces:  Max     0.001651846 RMS     0.000476248
 Leave Link  716 at Sat Jun 15 16:40:51 2024, MaxMem=   104857600 cpu:               0.3 elap:               0.5
 (Enter /mlatom/software/Gaussian/g16-avx2/l103.exe)

 GradGradGradGradGradGradGradGradGradGradGradGradGradGradGradGradGradGrad
 Berny optimization.
 FormGI is forming the generalized inverse of G from B-inverse, IUseBI=4.
 Internal  Forces:  Max     0.001356339 RMS     0.000230567
 Search for a local minimum.
 Step number  26 out of a maximum of   99
 All quantities printed in internal units (Hartrees-Bohrs-Radians)
 Update second derivatives using D2CorX and points   23   25   26
 DE= -1.13D-04 DEPred=-9.59D-05 R= 1.18D+00
 TightC=F SS=  1.41D+00  RLast= 1.38D-01 DXNew= 4.2008D+00 4.1254D-01
 Trust test= 1.18D+00 RLast= 1.38D-01 DXMaxT set to 2.50D+00
 ITU=  1  1  0  1  1  1  1  1  1  0  1  1  1  1  1  1 -1  1  1  1
 ITU= -1  1  1  1  1  0
     Eigenvalues ---    0.00347   0.00598   0.00961   0.01410   0.01554
     Eigenvalues ---    0.02881   0.03019   0.04184   0.04518   0.04799
     Eigenvalues ---    0.05135   0.05714   0.05732   0.07129   0.08062
     Eigenvalues ---    0.08475   0.09317   0.09643   0.10748   0.11620
     Eigenvalues ---    0.12253   0.15917   0.16171   0.16980   0.19199
     Eigenvalues ---    0.22193   0.26754   0.27169   0.29661   0.30421
     Eigenvalues ---    0.31530   0.33349   0.33805   0.34136   0.34183
     Eigenvalues ---    0.34387   0.34907   0.35418   0.35554   0.36267
     Eigenvalues ---    0.36630   0.55876
 Angle between quadratic step and forces=  64.98 degrees.
 Quartic linear search produced a step of  0.34385.
 Iteration  1 RMS(Cart)=  0.00443328 RMS(Int)=  0.00001753
 Iteration  2 RMS(Cart)=  0.00001470 RMS(Int)=  0.00001124
 Iteration  3 RMS(Cart)=  0.00000000 RMS(Int)=  0.00001124
 ITry= 1 IFail=0 DXMaxC= 1.66D-02 DCOld= 1.00D+10 DXMaxT= 2.50D+00 DXLimC= 3.00D+00 Rises=F
 Variable       Old X    -DE/DX   Delta X   Delta X   Delta X     New X
                                 (Linear)    (Quad)   (Total)
    R1        2.84429  -0.00032  -0.00042  -0.00087  -0.00128   2.84301
    R2        2.08390  -0.00025  -0.00022  -0.00030  -0.00052   2.08337
    R3        2.07813   0.00006  -0.00019   0.00046   0.00027   2.07840
    R4        2.89332  -0.00010  -0.00133   0.00025  -0.00107   2.89225
    R5        2.05227  -0.00012  -0.00038  -0.00020  -0.00058   2.05170
    R6        2.53025  -0.00017  -0.00011  -0.00034  -0.00046   2.52979
    R7        2.83972   0.00051   0.00112   0.00143   0.00254   2.84226
    R8        2.05273  -0.00018  -0.00024  -0.00041  -0.00065   2.05208
    R9        2.08241   0.00013   0.00002   0.00054   0.00056   2.08297
   R10        2.07797   0.00004   0.00024   0.00019   0.00043   2.07840
   R11        2.89999  -0.00136  -0.00030  -0.00499  -0.00530   2.89469
   R12        2.88552   0.00001  -0.00001  -0.00093  -0.00093   2.88459
   R13        2.07191  -0.00029  -0.00037  -0.00075  -0.00112   2.07079
   R14        2.07010  -0.00029  -0.00030  -0.00033  -0.00063   2.06946
   R15        2.06887   0.00041   0.00085   0.00079   0.00164   2.07051
   R16        2.06976  -0.00014  -0.00056   0.00018  -0.00038   2.06938
    A1        1.90118  -0.00011   0.00129  -0.00010   0.00118   1.90236
    A2        1.92405   0.00014   0.00004   0.00029   0.00032   1.92436
    A3        1.95305  -0.00008  -0.00073   0.00021  -0.00053   1.95252
    A4        1.82748  -0.00019  -0.00101  -0.00263  -0.00364   1.82385
    A5        1.91628   0.00034   0.00166   0.00412   0.00577   1.92205
    A6        1.93738  -0.00009  -0.00118  -0.00198  -0.00315   1.93423
    A7        2.04441  -0.00021  -0.00080  -0.00072  -0.00151   2.04290
    A8        2.14856   0.00012   0.00080  -0.00001   0.00078   2.14933
    A9        2.09007   0.00010   0.00003   0.00070   0.00073   2.09080
   A10        2.15305  -0.00048   0.00034  -0.00253  -0.00223   2.15083
   A11        2.08907   0.00024   0.00002   0.00149   0.00152   2.09059
   A12        2.04088   0.00024  -0.00032   0.00103   0.00072   2.04160
   A13        1.89862   0.00001   0.00041   0.00181   0.00222   1.90083
   A14        1.93105  -0.00034  -0.00212  -0.00259  -0.00469   1.92635
   A15        1.95112   0.00053   0.00149   0.00177   0.00320   1.95432
   A16        1.82395   0.00008  -0.00160  -0.00034  -0.00195   1.82199
   A17        1.92167  -0.00019   0.00034   0.00048   0.00082   1.92248
   A18        1.93302  -0.00014   0.00129  -0.00121   0.00011   1.93313
   A19        1.92034   0.00022   0.00272   0.00012   0.00282   1.92315
   A20        1.93341  -0.00010  -0.00043   0.00064   0.00020   1.93361
   A21        1.90089  -0.00015  -0.00291  -0.00129  -0.00420   1.89669
   A22        1.94455  -0.00012   0.00104  -0.00055   0.00048   1.94503
   A23        1.90184  -0.00010  -0.00134  -0.00198  -0.00331   1.89853
   A24        1.86122   0.00024   0.00072   0.00306   0.00378   1.86501
   A25        1.92472  -0.00026   0.00196  -0.00325  -0.00133   1.92338
   A26        1.93070   0.00010  -0.00057   0.00123   0.00068   1.93138
   A27        1.89431   0.00006   0.00149   0.00170   0.00318   1.89749
   A28        1.94430   0.00023  -0.00098   0.00104   0.00007   1.94437
   A29        1.89642   0.00010   0.00082   0.00186   0.00267   1.89909
   A30        1.87165  -0.00022  -0.00272  -0.00249  -0.00522   1.86643
    D1        1.27923  -0.00027  -0.00161  -0.01213  -0.01374   1.26549
    D2       -1.84378  -0.00034  -0.00370  -0.00998  -0.01367  -1.85745
    D3       -0.71678  -0.00005  -0.00114  -0.00908  -0.01022  -0.72700
    D4        2.44340  -0.00012  -0.00323  -0.00693  -0.01015   2.43325
    D5       -2.88192   0.00003   0.00088  -0.00688  -0.00601  -2.88793
    D6        0.27826  -0.00005  -0.00121  -0.00473  -0.00594   0.27232
    D7       -0.81297   0.00000   0.00079   0.00120   0.00199  -0.81098
    D8       -2.97085   0.00006  -0.00211   0.00138  -0.00073  -2.97158
    D9        1.27058  -0.00008  -0.00098  -0.00194  -0.00293   1.26765
   D10        1.30035   0.00003   0.00307   0.00404   0.00711   1.30746
   D11       -0.85752   0.00010   0.00017   0.00422   0.00439  -0.85313
   D12       -2.89928  -0.00005   0.00130   0.00090   0.00220  -2.89709
   D13       -2.97063  -0.00005   0.00214   0.00213   0.00428  -2.96636
   D14        1.15468   0.00001  -0.00076   0.00231   0.00155   1.15623
   D15       -0.88708  -0.00013   0.00037  -0.00101  -0.00064  -0.88772
   D16        0.00120   0.00002   0.00579   0.00197   0.00775   0.00895
   D17       -3.11885   0.00009   0.00421   0.00257   0.00677  -3.11208
   D18       -3.12134  -0.00005   0.00366   0.00419   0.00784  -3.11350
   D19        0.04180   0.00002   0.00208   0.00479   0.00686   0.04866
   D20       -1.85991   0.00001  -0.01158   0.00143  -0.01015  -1.87006
   D21        2.42915   0.00009  -0.00873   0.00222  -0.00652   2.42263
   D22        0.26590   0.00013  -0.00992   0.00441  -0.00552   0.26038
   D23        1.26068  -0.00005  -0.01004   0.00086  -0.00919   1.25150
   D24       -0.73344   0.00002  -0.00719   0.00165  -0.00555  -0.73900
   D25       -2.89669   0.00007  -0.00838   0.00383  -0.00455  -2.90124
   D26       -0.80256   0.00001   0.00999  -0.00643   0.00356  -0.79900
   D27       -2.96130  -0.00017   0.01027  -0.00634   0.00393  -2.95738
   D28        1.27297   0.00001   0.01300  -0.00504   0.00797   1.28093
   D29        1.30993   0.00025   0.01172  -0.00264   0.00908   1.31901
   D30       -0.84881   0.00008   0.01200  -0.00254   0.00945  -0.83936
   D31       -2.89773   0.00026   0.01474  -0.00124   0.01349  -2.88424
   D32       -2.96470   0.00017   0.01072  -0.00347   0.00725  -2.95745
   D33        1.15974  -0.00001   0.01100  -0.00338   0.00762   1.16736
   D34       -0.88917   0.00017   0.01374  -0.00208   0.01166  -0.87751
   D35        1.09692  -0.00006  -0.00504   0.00333  -0.00172   1.09520
   D36       -3.03543   0.00004  -0.00506   0.00332  -0.00175  -3.03718
   D37       -0.97732  -0.00004  -0.00847   0.00204  -0.00644  -0.98376
   D38       -3.03490  -0.00011  -0.00298   0.00385   0.00087  -3.03402
   D39       -0.88406  -0.00001  -0.00300   0.00384   0.00085  -0.88321
   D40        1.17405  -0.00009  -0.00641   0.00256  -0.00384   1.17020
   D41       -0.98605   0.00005  -0.00231   0.00605   0.00374  -0.98231
   D42        1.16478   0.00016  -0.00233   0.00604   0.00372   1.16850
   D43       -3.06029   0.00008  -0.00574   0.00476  -0.00098  -3.06127
         Item               Value     Threshold  Converged?
 Maximum Force            0.001356     0.000450     NO 
 RMS     Force            0.000231     0.000300     YES
 Maximum Displacement     0.016648     0.001800     NO 
 RMS     Displacement     0.004432     0.001200     NO 
 Predicted change in Energy=-2.156247D-05
 GradGradGradGradGradGradGradGradGradGradGradGradGradGradGradGradGradGrad

 Leave Link  103 at Sat Jun 15 16:40:52 2024, MaxMem=   104857600 cpu:               1.6 elap:               0.9
 (Enter /mlatom/software/Gaussian/g16-avx2/l202.exe)
                          Input orientation:                          
 ---------------------------------------------------------------------
 Center     Atomic      Atomic             Coordinates (Angstroms)
 Number     Number       Type             X           Y           Z
 ---------------------------------------------------------------------
      1          6           0        0.652602   -0.272936   -0.160232
      2          6           0       -0.626291   -1.058317   -0.265103
      3          1           0        0.782430    0.064032    0.881423
      4          1           0        0.577443    0.656758   -0.743045
      5          1           0       -1.555171   -0.498977   -0.209515
      6          6           0       -0.658660   -2.389852   -0.399673
      7          6           0        0.578574   -3.243664   -0.449190
      8          1           0       -1.612751   -2.898987   -0.498146
      9          1           0        0.726806   -3.598222   -1.482290
     10          1           0        0.433185   -4.162797    0.137078
     11          6           0        1.864926   -1.095825   -0.602488
     12          6           0        1.818942   -2.483854    0.031021
     13          1           0        2.798005   -0.575214   -0.359304
     14          1           0        1.836465   -1.204394   -1.691834
     15          1           0        2.729401   -3.053160   -0.186774
     16          1           0        1.764177   -2.373698    1.119158
 ---------------------------------------------------------------------
                    Distance matrix (angstroms):
                    1          2          3          4          5
     1  C    0.000000
     2  C    1.504456   0.000000
     3  H    1.102473   2.135107   0.000000
     4  H    1.099842   2.149160   1.741333   0.000000
     5  H    2.219861   1.085711   2.640359   2.483630   0.000000
     6  C    2.501613   1.338709   3.120816   3.305705   2.101261
     7  C    2.985666   2.502264   3.571126   3.911476   3.484769
     8  H    3.484559   2.101303   4.052108   4.183330   2.417989
     9  H    3.579227   3.124665   4.359167   4.321302   4.053726
    10  H    3.907372   3.304850   4.306054   4.901382   4.182973
    11  C    1.530512   2.514240   2.172339   2.179202   3.493955
    12  C    2.507008   2.845876   2.879108   3.464671   3.922019
    13  H    2.175720   3.459489   2.451648   2.568250   4.356419
    14  H    2.148244   2.849924   3.056394   2.439104   3.768033
    15  H    3.470367   3.904639   3.827353   4.324796   4.988178
    16  H    2.699192   3.059533   2.638725   3.749640   4.037080
                    6          7          8          9         10
     6  C    0.000000
     7  C    1.504059   0.000000
     8  H    1.085913   2.218807   0.000000
     9  H    2.133479   1.102262   2.632679   0.000000
    10  H    2.150247   1.099843   2.487284   1.739917   0.000000
    11  C    2.843260   2.508269   3.918740   2.886409   3.464557
    12  C    2.516514   1.531805   3.496980   2.173634   2.179545
    13  H    3.904237   3.471970   4.987380   3.832693   4.325450
    14  H    3.049694   2.699088   4.024130   2.646821   3.750501
    15  H    3.458939   2.175135   4.356031   2.446598   2.570755
    16  H    2.859589   2.149933   3.780906   3.056653   2.436575
                   11         12         13         14         15
    11  C    0.000000
    12  C    1.526458   0.000000
    13  H    1.095814   2.180327   0.000000
    14  H    1.095113   2.146056   1.759563   0.000000
    15  H    2.179746   1.095664   2.484892   2.545678   0.000000
    16  H    2.146433   1.095069   2.547389   3.045352   1.760337
                   16
    16  H    0.000000
 Stoichiometry    C6H10
 Framework group  C1[X(C6H10)]
 Deg. of freedom    42
 Full point group                 C1      NOp   1
 RotChk:  IX=0 Diff= 2.91D-02
 Largest Abelian subgroup         C1      NOp   1
 Largest concise Abelian subgroup C1      NOp   1
                         Standard orientation:                         
 ---------------------------------------------------------------------
 Center     Atomic      Atomic             Coordinates (Angstroms)
 Number     Number       Type             X           Y           Z
 ---------------------------------------------------------------------
      1          6           0        1.488281    0.038371    0.115049
      2          6           0        0.670630    1.299668    0.052069
      3          1           0        1.850688   -0.103258    1.146576
      4          1           0        2.403105    0.147185   -0.485709
      5          1           0        1.208798    2.240568    0.114124
      6          6           0       -0.663896    1.302392   -0.053635
      7          6           0       -1.488921    0.046045   -0.109474
      8          1           0       -1.197582    2.245603   -0.122472
      9          1           0       -1.862112   -0.090844   -1.137565
     10          1           0       -2.398358    0.157862    0.498864
     11          6           0        0.685078   -1.184785   -0.333529
     12          6           0       -0.689628   -1.184576    0.329990
     13          1           0        1.232864   -2.109496   -0.119869
     14          1           0        0.552331   -1.138032   -1.419560
     15          1           0       -1.241702   -2.104189    0.106369
     16          1           0       -0.557299   -1.148081    1.416421
 ---------------------------------------------------------------------
 Rotational constants (GHZ):           4.7529039           4.5681350           2.5720077
 Leave Link  202 at Sat Jun 15 16:40:52 2024, MaxMem=   104857600 cpu:               0.2 elap:               0.5
 (Enter /mlatom/software/Gaussian/g16-avx2/l301.exe)
 Standard basis: STO-3G (5D, 7F)
 Ernie: Thresh=  0.10000D-02 Tol=  0.10000D-05 Strict=F.
 There are    40 symmetry adapted cartesian basis functions of A   symmetry.
 There are    40 symmetry adapted basis functions of A   symmetry.
    40 basis functions,   120 primitive gaussians,    40 cartesian basis functions
    23 alpha electrons       23 beta electrons
       nuclear repulsion energy       237.1074513266 Hartrees.
 IExCor=    0 DFT=F Ex=HF Corr=None ExCW=0 ScaHFX=  1.000000
 ScaDFX=  1.000000  1.000000  1.000000  1.000000 ScalE2=  1.000000  1.000000
 IRadAn=      5 IRanWt=     -1 IRanGd=            0 ICorTp=0 IEmpDi=  4
 NAtoms=   16 NActive=   16 NUniq=   16 SFac= 1.00D+00 NAtFMM=   60 NAOKFM=F Big=F
 Integral buffers will be    131072 words long.
 Raffenetti 1 integral format.
 Two-electron integral symmetry is turned on.
 Leave Link  301 at Sat Jun 15 16:40:53 2024, MaxMem=   104857600 cpu:               0.4 elap:               0.5
 (Enter /mlatom/software/Gaussian/g16-avx2/l402.exe)
 External calculation of energy and first derivatives.
 Running external command "/mlatom/software/miniconda3/bin/python /mlatom/software/mlatom/mlatom/interfaces/gaussian_interface.py model_predict_kwargs R"
         input file       "/mlatom/home/qhzhang/git/ts-analysis/calculations/C60/irc/pro_opt/da_ani_opt_1/Gau-212676.EIn"
         output file      "/mlatom/home/qhzhang/git/ts-analysis/calculations/C60/irc/pro_opt/da_ani_opt_1/Gau-212676.EOu"
         message file     "/mlatom/home/qhzhang/git/ts-analysis/calculations/C60/irc/pro_opt/da_ani_opt_1/Gau-212676.EMs"
         fchk file        "/mlatom/home/qhzhang/git/ts-analysis/calculations/C60/irc/pro_opt/da_ani_opt_1/Gau-212676.EFC"
         mat. el file     "/mlatom/home/qhzhang/git/ts-analysis/calculations/C60/irc/pro_opt/da_ani_opt_1/Gau-212676.EUF"
model loaded from /mlatom/home/qhzhang/git/ts-analysis/calculations/C60/irc/pro_opt/da_ani_opt_1/da_energy_iteration27.npz
 Recovered energy= -234.668304556     dipole=      0.000000000000      0.000000000000      0.000000000000
 Energy=    -234.668305     NIter=   0.
 Dipole moment=       0.000000       0.000000       0.000000
 Leave Link  402 at Sat Jun 15 16:40:58 2024, MaxMem=   104857600 cpu:              11.5 elap:               4.5
 (Enter /mlatom/software/Gaussian/g16-avx2/l716.exe)
 Dipole        = 0.00000000D+00 0.00000000D+00 0.00000000D+00
 ***** Axes restored to original set *****
 -------------------------------------------------------------------
 Center     Atomic                   Forces (Hartrees/Bohr)
 Number     Number              X              Y              Z
 -------------------------------------------------------------------
      1        6          -0.000208301   -0.000097404    0.000108852
      2        6           0.000186003    0.000069117    0.000119270
      3        1          -0.000122615    0.000024075   -0.000112801
      4        1           0.000078424    0.000070054   -0.000058559
      5        1          -0.000052503    0.000065961    0.000019381
      6        6          -0.000120359   -0.000212851   -0.000063833
      7        6           0.000214570    0.000348533   -0.000029798
      8        1           0.000054477   -0.000010813    0.000073500
      9        1          -0.000020566    0.000017208   -0.000015903
     10        1          -0.000023571   -0.000004567    0.000109502
     11        6           0.000307914    0.000299622   -0.000288231
     12        6          -0.000183496   -0.000535691   -0.000014973
     13        1          -0.000052284   -0.000003814    0.000117219
     14        1          -0.000056348   -0.000007144    0.000056711
     15        1           0.000042726   -0.000015340    0.000029438
     16        1          -0.000044066   -0.000006943   -0.000049773
 -------------------------------------------------------------------
 Cartesian Forces:  Max     0.000535691 RMS     0.000147322
 Leave Link  716 at Sat Jun 15 16:40:58 2024, MaxMem=   104857600 cpu:               0.3 elap:               0.5
 (Enter /mlatom/software/Gaussian/g16-avx2/l103.exe)

 GradGradGradGradGradGradGradGradGradGradGradGradGradGradGradGradGradGrad
 Berny optimization.
 FormGI is forming the generalized inverse of G from B-inverse, IUseBI=4.
 Internal  Forces:  Max     0.000303557 RMS     0.000067868
 Search for a local minimum.
 Step number  27 out of a maximum of   99
 All quantities printed in internal units (Hartrees-Bohrs-Radians)
 Update second derivatives using D2CorX and points   23   25   26   27
 DE= -2.36D-05 DEPred=-2.16D-05 R= 1.10D+00
 TightC=F SS=  1.41D+00  RLast= 4.82D-02 DXNew= 4.2008D+00 1.4475D-01
 Trust test= 1.10D+00 RLast= 4.82D-02 DXMaxT set to 2.50D+00
 ITU=  1  1  1  0  1  1  1  1  1  1  0  1  1  1  1  1  1 -1  1  1
 ITU=  1 -1  1  1  1  1  0
     Eigenvalues ---    0.00369   0.00559   0.00999   0.01408   0.01555
     Eigenvalues ---    0.02879   0.03055   0.04181   0.04452   0.04674
     Eigenvalues ---    0.05055   0.05713   0.05796   0.07120   0.08074
     Eigenvalues ---    0.08466   0.09306   0.09596   0.10630   0.11835
     Eigenvalues ---    0.12195   0.15853   0.16201   0.16875   0.19212
     Eigenvalues ---    0.22004   0.26184   0.27608   0.29651   0.30138
     Eigenvalues ---    0.31428   0.33241   0.33785   0.34126   0.34195
     Eigenvalues ---    0.34391   0.34834   0.35476   0.35523   0.36272
     Eigenvalues ---    0.36662   0.56032
 Angle between quadratic step and forces=  68.72 degrees.
 Quartic linear search produced a step of  0.09866.
 Iteration  1 RMS(Cart)=  0.00163454 RMS(Int)=  0.00000165
 Iteration  2 RMS(Cart)=  0.00000182 RMS(Int)=  0.00000049
 Iteration  3 RMS(Cart)=  0.00000000 RMS(Int)=  0.00000049
 ITry= 1 IFail=0 DXMaxC= 6.06D-03 DCOld= 1.00D+10 DXMaxT= 2.50D+00 DXLimC= 3.00D+00 Rises=F
 Variable       Old X    -DE/DX   Delta X   Delta X   Delta X     New X
                                 (Linear)    (Quad)   (Total)
    R1        2.84301  -0.00010  -0.00013  -0.00038  -0.00050   2.84251
    R2        2.08337  -0.00011  -0.00005  -0.00025  -0.00031   2.08307
    R3        2.07840   0.00008   0.00003   0.00030   0.00033   2.07873
    R4        2.89225   0.00015  -0.00011   0.00041   0.00031   2.89256
    R5        2.05170   0.00008  -0.00006   0.00024   0.00019   2.05188
    R6        2.52979   0.00012  -0.00005   0.00021   0.00016   2.52995
    R7        2.84226  -0.00004   0.00025  -0.00045  -0.00020   2.84206
    R8        2.05208  -0.00005  -0.00006  -0.00005  -0.00012   2.05196
    R9        2.08297   0.00001   0.00006   0.00005   0.00011   2.08308
   R10        2.07840   0.00007   0.00004   0.00021   0.00025   2.07865
   R11        2.89469  -0.00028  -0.00052  -0.00065  -0.00117   2.89352
   R12        2.88459   0.00030  -0.00009   0.00108   0.00099   2.88558
   R13        2.07079  -0.00002  -0.00011  -0.00003  -0.00014   2.07065
   R14        2.06946  -0.00005  -0.00006   0.00002  -0.00004   2.06942
   R15        2.07051   0.00004   0.00016  -0.00006   0.00010   2.07061
   R16        2.06938  -0.00005  -0.00004  -0.00007  -0.00010   2.06928
    A1        1.90236  -0.00011   0.00012  -0.00053  -0.00041   1.90195
    A2        1.92436   0.00009   0.00003   0.00046   0.00050   1.92486
    A3        1.95252   0.00003  -0.00005   0.00065   0.00060   1.95312
    A4        1.82385  -0.00002  -0.00036  -0.00022  -0.00057   1.82327
    A5        1.92205   0.00010   0.00057   0.00051   0.00108   1.92312
    A6        1.93423  -0.00009  -0.00031  -0.00094  -0.00125   1.93299
    A7        2.04290  -0.00004  -0.00015  -0.00043  -0.00058   2.04232
    A8        2.14933   0.00001   0.00008   0.00035   0.00043   2.14976
    A9        2.09080   0.00003   0.00007   0.00007   0.00015   2.09095
   A10        2.15083  -0.00005  -0.00022  -0.00028  -0.00050   2.15033
   A11        2.09059   0.00006   0.00015   0.00031   0.00046   2.09105
   A12        2.04160  -0.00000   0.00007  -0.00001   0.00006   2.04165
   A13        1.90083  -0.00004   0.00022  -0.00022  -0.00001   1.90083
   A14        1.92635  -0.00007  -0.00046  -0.00034  -0.00080   1.92555
   A15        1.95432   0.00012   0.00032   0.00008   0.00039   1.95472
   A16        1.82199   0.00005  -0.00019   0.00039   0.00019   1.82219
   A17        1.92248   0.00001   0.00008   0.00050   0.00058   1.92306
   A18        1.93313  -0.00008   0.00001  -0.00037  -0.00036   1.93277
   A19        1.92315  -0.00005   0.00028   0.00005   0.00033   1.92349
   A20        1.93361   0.00001   0.00002  -0.00026  -0.00024   1.93337
   A21        1.89669  -0.00002  -0.00041  -0.00065  -0.00107   1.89562
   A22        1.94503   0.00002   0.00005   0.00004   0.00009   1.94512
   A23        1.89853  -0.00000  -0.00033   0.00006  -0.00026   1.89827
   A24        1.86501   0.00004   0.00037   0.00075   0.00113   1.86613
   A25        1.92338  -0.00001  -0.00013   0.00024   0.00011   1.92349
   A26        1.93138   0.00006   0.00007   0.00077   0.00083   1.93221
   A27        1.89749  -0.00006   0.00031  -0.00062  -0.00031   1.89718
   A28        1.94437   0.00001   0.00001   0.00003   0.00004   1.94441
   A29        1.89909   0.00001   0.00026  -0.00076  -0.00050   1.89859
   A30        1.86643  -0.00000  -0.00051   0.00030  -0.00022   1.86621
    D1        1.26549  -0.00005  -0.00136  -0.00292  -0.00427   1.26121
    D2       -1.85745  -0.00005  -0.00135  -0.00231  -0.00366  -1.86111
    D3       -0.72700  -0.00002  -0.00101  -0.00261  -0.00362  -0.73062
    D4        2.43325  -0.00002  -0.00100  -0.00201  -0.00301   2.43024
    D5       -2.88793   0.00001  -0.00059  -0.00221  -0.00280  -2.89073
    D6        0.27232   0.00001  -0.00059  -0.00160  -0.00219   0.27013
    D7       -0.81098   0.00008   0.00020   0.00282   0.00301  -0.80797
    D8       -2.97158   0.00008  -0.00007   0.00290   0.00283  -2.96875
    D9        1.26765   0.00003  -0.00029   0.00253   0.00224   1.26989
   D10        1.30746   0.00002   0.00070   0.00294   0.00364   1.31110
   D11       -0.85313   0.00002   0.00043   0.00303   0.00346  -0.84967
   D12       -2.89709  -0.00002   0.00022   0.00265   0.00287  -2.89422
   D13       -2.96636   0.00001   0.00042   0.00243   0.00285  -2.96351
   D14        1.15623   0.00001   0.00015   0.00252   0.00267   1.15890
   D15       -0.88772  -0.00003  -0.00006   0.00214   0.00208  -0.88564
   D16        0.00895  -0.00001   0.00076  -0.00089  -0.00013   0.00882
   D17       -3.11208  -0.00003   0.00067  -0.00215  -0.00148  -3.11356
   D18       -3.11350  -0.00001   0.00077  -0.00026   0.00051  -3.11299
   D19        0.04866  -0.00003   0.00068  -0.00152  -0.00084   0.04782
   D20       -1.87006  -0.00001  -0.00100   0.00201   0.00101  -1.86905
   D21        2.42263  -0.00001  -0.00064   0.00186   0.00121   2.42384
   D22        0.26038   0.00005  -0.00054   0.00254   0.00199   0.26237
   D23        1.25150   0.00000  -0.00091   0.00324   0.00233   1.25383
   D24       -0.73900   0.00000  -0.00055   0.00309   0.00254  -0.73646
   D25       -2.90124   0.00007  -0.00045   0.00377   0.00332  -2.89793
   D26       -0.79900  -0.00001   0.00035  -0.00152  -0.00117  -0.80018
   D27       -2.95738  -0.00005   0.00039  -0.00226  -0.00188  -2.95925
   D28        1.28093  -0.00005   0.00079  -0.00269  -0.00190   1.27903
   D29        1.31901   0.00003   0.00090  -0.00141  -0.00051   1.31850
   D30       -0.83936  -0.00001   0.00093  -0.00215  -0.00121  -0.84057
   D31       -2.88424  -0.00001   0.00133  -0.00257  -0.00124  -2.88548
   D32       -2.95745   0.00005   0.00072  -0.00086  -0.00015  -2.95760
   D33        1.16736   0.00001   0.00075  -0.00160  -0.00085   1.16652
   D34       -0.87751   0.00001   0.00115  -0.00203  -0.00088  -0.87839
   D35        1.09520  -0.00009  -0.00017  -0.00129  -0.00146   1.09374
   D36       -3.03718  -0.00002  -0.00017  -0.00012  -0.00029  -3.03747
   D37       -0.98376  -0.00001  -0.00064  -0.00021  -0.00085  -0.98461
   D38       -3.03402  -0.00010   0.00009  -0.00156  -0.00147  -3.03549
   D39       -0.88321  -0.00003   0.00008  -0.00038  -0.00030  -0.88351
   D40        1.17020  -0.00002  -0.00038  -0.00047  -0.00085   1.16935
   D41       -0.98231  -0.00003   0.00037  -0.00057  -0.00020  -0.98251
   D42        1.16850   0.00004   0.00037   0.00060   0.00097   1.16947
   D43       -3.06127   0.00005  -0.00010   0.00051   0.00042  -3.06085
         Item               Value     Threshold  Converged?
 Maximum Force            0.000304     0.000450     YES
 RMS     Force            0.000068     0.000300     YES
 Maximum Displacement     0.006056     0.001800     NO 
 RMS     Displacement     0.001635     0.001200     NO 
 Predicted change in Energy=-1.776473D-06
 GradGradGradGradGradGradGradGradGradGradGradGradGradGradGradGradGradGrad

 Leave Link  103 at Sat Jun 15 16:40:59 2024, MaxMem=   104857600 cpu:               1.6 elap:               0.9
 (Enter /mlatom/software/Gaussian/g16-avx2/l202.exe)
                          Input orientation:                          
 ---------------------------------------------------------------------
 Center     Atomic      Atomic             Coordinates (Angstroms)
 Number     Number       Type             X           Y           Z
 ---------------------------------------------------------------------
      1          6           0        0.652427   -0.272876   -0.161127
      2          6           0       -0.626078   -1.058570   -0.264550
      3          1           0        0.781018    0.067041    0.879551
      4          1           0        0.577873    0.655622   -0.746250
      5          1           0       -1.554856   -0.499047   -0.207209
      6          6           0       -0.658696   -2.390179   -0.399167
      7          6           0        0.578762   -3.243384   -0.450286
      8          1           0       -1.612712   -2.899795   -0.495175
      9          1           0        0.726425   -3.596991   -1.483855
     10          1           0        0.433242   -4.163039    0.135381
     11          6           0        1.865596   -1.095688   -0.601768
     12          6           0        1.818745   -2.484720    0.030745
     13          1           0        2.798082   -0.575080   -0.356639
     14          1           0        1.837681   -1.203597   -1.691173
     15          1           0        2.729569   -3.053871   -0.186207
     16          1           0        1.763004   -2.374933    1.118815
 ---------------------------------------------------------------------
                    Distance matrix (angstroms):
                    1          2          3          4          5
     1  C    0.000000
     2  C    1.504190   0.000000
     3  H    1.102311   2.134452   0.000000
     4  H    1.100016   2.149416   1.740955   0.000000
     5  H    2.219319   1.085810   2.637766   2.484423   0.000000
     6  C    2.501736   1.338794   3.121831   3.305523   2.101507
     7  C    2.985458   2.501909   3.573275   3.910224   3.484652
     8  H    3.484702   2.101605   4.052398   4.183622   2.418649
     9  H    3.578384   3.124028   4.360482   4.318663   4.053558
    10  H    3.907599   3.304516   4.309097   4.900784   4.182671
    11  C    1.530674   2.514664   2.173145   2.178576   3.494446
    12  C    2.507861   2.845744   2.882505   3.464857   3.921823
    13  H    2.175635   3.459352   2.451333   2.568220   4.356166
    14  H    2.147582   2.850682   3.056089   2.436532   3.769329
    15  H    3.471178   3.904834   3.830507   4.324787   4.988372
    16  H    2.700051   3.058467   2.642874   3.750636   4.035528
                    6          7          8          9         10
     6  C    0.000000
     7  C    1.503953   0.000000
     8  H    1.085851   2.218700   0.000000
     9  H    2.133425   1.102319   2.633465   0.000000
    10  H    2.149674   1.099976   2.485822   1.740199   0.000000
    11  C    2.844083   2.508284   3.919796   2.886574   3.464631
    12  C    2.516242   1.531183   3.496252   2.173551   2.178835
    13  H    3.904576   3.471888   4.987846   3.833319   4.325275
    14  H    3.051091   2.699150   4.026501   2.646924   3.750606
    15  H    3.459216   2.175230   4.355985   2.447745   2.570368
    16  H    2.858170   2.149120   3.778347   3.056439   2.435720
                   11         12         13         14         15
    11  C    0.000000
    12  C    1.526983   0.000000
    13  H    1.095742   2.180801   0.000000
    14  H    1.095092   2.146307   1.760223   0.000000
    15  H    2.180280   1.095720   2.485588   2.546350   0.000000
    16  H    2.146486   1.095014   2.547121   3.045264   1.760195
                   16
    16  H    0.000000
 Stoichiometry    C6H10
 Framework group  C1[X(C6H10)]
 Deg. of freedom    42
 Full point group                 C1      NOp   1
 RotChk:  IX=0 Diff= 7.96D-04
 Largest Abelian subgroup         C1      NOp   1
 Largest concise Abelian subgroup C1      NOp   1
                         Standard orientation:                         
 ---------------------------------------------------------------------
 Center     Atomic      Atomic             Coordinates (Angstroms)
 Number     Number       Type             X           Y           Z
 ---------------------------------------------------------------------
      1          6           0        1.488407    0.039372    0.114158
      2          6           0        0.669890    1.299842    0.052256
      3          1           0        1.853803   -0.100440    1.144706
      4          1           0        2.401933    0.147840   -0.488951
      5          1           0        1.207841    2.240884    0.115753
      6          6           0       -0.664722    1.302156   -0.053454
      7          6           0       -1.488580    0.045225   -0.110503
      8          1           0       -1.199278    2.244961   -0.120096
      9          1           0       -1.860807   -0.091556   -1.139020
     10          1           0       -2.398591    0.156933    0.497236
     11          6           0        0.685900   -1.185173   -0.332424
     12          6           0       -0.689834   -1.184544    0.330172
     13          1           0        1.234151   -2.109004   -0.116538
     14          1           0        0.553775   -1.139346   -1.418550
     15          1           0       -1.241300   -2.104862    0.107683
     16          1           0       -0.557889   -1.146683    1.416549
 ---------------------------------------------------------------------
 Rotational constants (GHZ):           4.7530378           4.5677563           2.5716713
 Leave Link  202 at Sat Jun 15 16:41:00 2024, MaxMem=   104857600 cpu:               0.2 elap:               0.4
 (Enter /mlatom/software/Gaussian/g16-avx2/l301.exe)
 Standard basis: STO-3G (5D, 7F)
 Ernie: Thresh=  0.10000D-02 Tol=  0.10000D-05 Strict=F.
 There are    40 symmetry adapted cartesian basis functions of A   symmetry.
 There are    40 symmetry adapted basis functions of A   symmetry.
    40 basis functions,   120 primitive gaussians,    40 cartesian basis functions
    23 alpha electrons       23 beta electrons
       nuclear repulsion energy       237.1039370004 Hartrees.
 IExCor=    0 DFT=F Ex=HF Corr=None ExCW=0 ScaHFX=  1.000000
 ScaDFX=  1.000000  1.000000  1.000000  1.000000 ScalE2=  1.000000  1.000000
 IRadAn=      5 IRanWt=     -1 IRanGd=            0 ICorTp=0 IEmpDi=  4
 NAtoms=   16 NActive=   16 NUniq=   16 SFac= 1.00D+00 NAtFMM=   60 NAOKFM=F Big=F
 Integral buffers will be    131072 words long.
 Raffenetti 1 integral format.
 Two-electron integral symmetry is turned on.
 Leave Link  301 at Sat Jun 15 16:41:00 2024, MaxMem=   104857600 cpu:               0.4 elap:               0.6
 (Enter /mlatom/software/Gaussian/g16-avx2/l402.exe)
 External calculation of energy and first derivatives.
 Running external command "/mlatom/software/miniconda3/bin/python /mlatom/software/mlatom/mlatom/interfaces/gaussian_interface.py model_predict_kwargs R"
         input file       "/mlatom/home/qhzhang/git/ts-analysis/calculations/C60/irc/pro_opt/da_ani_opt_1/Gau-212676.EIn"
         output file      "/mlatom/home/qhzhang/git/ts-analysis/calculations/C60/irc/pro_opt/da_ani_opt_1/Gau-212676.EOu"
         message file     "/mlatom/home/qhzhang/git/ts-analysis/calculations/C60/irc/pro_opt/da_ani_opt_1/Gau-212676.EMs"
         fchk file        "/mlatom/home/qhzhang/git/ts-analysis/calculations/C60/irc/pro_opt/da_ani_opt_1/Gau-212676.EFC"
         mat. el file     "/mlatom/home/qhzhang/git/ts-analysis/calculations/C60/irc/pro_opt/da_ani_opt_1/Gau-212676.EUF"
model loaded from /mlatom/home/qhzhang/git/ts-analysis/calculations/C60/irc/pro_opt/da_ani_opt_1/da_energy_iteration27.npz
 Recovered energy= -234.668306896     dipole=      0.000000000000      0.000000000000      0.000000000000
 Energy=    -234.668307     NIter=   0.
 Dipole moment=       0.000000       0.000000       0.000000
 Leave Link  402 at Sat Jun 15 16:41:05 2024, MaxMem=   104857600 cpu:              11.0 elap:               4.2
 (Enter /mlatom/software/Gaussian/g16-avx2/l716.exe)
 Dipole        = 0.00000000D+00 0.00000000D+00 0.00000000D+00
 ***** Axes restored to original set *****
 -------------------------------------------------------------------
 Center     Atomic                   Forces (Hartrees/Bohr)
 Number     Number              X              Y              Z
 -------------------------------------------------------------------
      1        6          -0.000083095   -0.000000235   -0.000001754
      2        6          -0.000011322   -0.000009409    0.000088968
      3        1          -0.000041602    0.000006834   -0.000010734
      4        1           0.000022772   -0.000003082   -0.000011763
      5        1          -0.000012608    0.000010624   -0.000006065
      6        6          -0.000057692    0.000015399    0.000036308
      7        6           0.000085103    0.000049420   -0.000076066
      8        1           0.000011349    0.000011401    0.000010308
      9        1           0.000005324    0.000021821   -0.000000175
     10        1           0.000004620    0.000003497    0.000049765
     11        6           0.000102279    0.000089019   -0.000203569
     12        6          -0.000007282   -0.000152104    0.000028223
     13        1          -0.000024207   -0.000018967    0.000064557
     14        1           0.000041264   -0.000023601    0.000055562
     15        1          -0.000004516   -0.000002281   -0.000006083
     16        1          -0.000030387    0.000001667   -0.000017483
 -------------------------------------------------------------------
 Cartesian Forces:  Max     0.000203569 RMS     0.000053465
 Leave Link  716 at Sat Jun 15 16:41:05 2024, MaxMem=   104857600 cpu:               0.3 elap:               0.5
 (Enter /mlatom/software/Gaussian/g16-avx2/l103.exe)

 GradGradGradGradGradGradGradGradGradGradGradGradGradGradGradGradGradGrad
 Berny optimization.
 FormGI is forming the generalized inverse of G from B-inverse, IUseBI=4.
 Internal  Forces:  Max     0.000107610 RMS     0.000027025
 Search for a local minimum.
 Step number  28 out of a maximum of   99
 All quantities printed in internal units (Hartrees-Bohrs-Radians)
 Update second derivatives using D2CorX and points   23   25   26   27   28
 DE= -2.34D-06 DEPred=-1.78D-06 R= 1.32D+00
 TightC=F SS=  1.41D+00  RLast= 1.44D-02 DXNew= 4.2008D+00 4.3216D-02
 Trust test= 1.32D+00 RLast= 1.44D-02 DXMaxT set to 2.50D+00
 ITU=  1  1  1  1  0  1  1  1  1  1  1  0  1  1  1  1  1  1 -1  1
 ITU=  1  1 -1  1  1  1  1  0
     Eigenvalues ---    0.00309   0.00520   0.00966   0.01477   0.01591
     Eigenvalues ---    0.02869   0.03075   0.03987   0.04477   0.04568
     Eigenvalues ---    0.05011   0.05709   0.05774   0.07041   0.08236
     Eigenvalues ---    0.08470   0.09334   0.09558   0.10328   0.11771
     Eigenvalues ---    0.12287   0.15858   0.16203   0.16886   0.18859
     Eigenvalues ---    0.22535   0.25469   0.27875   0.28659   0.30350
     Eigenvalues ---    0.31490   0.33009   0.33821   0.34139   0.34295
     Eigenvalues ---    0.34518   0.34781   0.35403   0.35522   0.36332
     Eigenvalues ---    0.36700   0.56407
 Angle between quadratic step and forces=  71.57 degrees.
 Quartic linear search produced a step of  0.53429.
 Iteration  1 RMS(Cart)=  0.00197075 RMS(Int)=  0.00000202
 Iteration  2 RMS(Cart)=  0.00000241 RMS(Int)=  0.00000063
 Iteration  3 RMS(Cart)=  0.00000000 RMS(Int)=  0.00000063
 ITry= 1 IFail=0 DXMaxC= 7.09D-03 DCOld= 1.00D+10 DXMaxT= 2.50D+00 DXLimC= 3.00D+00 Rises=F
 Variable       Old X    -DE/DX   Delta X   Delta X   Delta X     New X
                                 (Linear)    (Quad)   (Total)
    R1        2.84251  -0.00001  -0.00027   0.00001  -0.00026   2.84225
    R2        2.08307  -0.00001  -0.00016   0.00009  -0.00008   2.08299
    R3        2.07873   0.00000   0.00018  -0.00004   0.00014   2.07887
    R4        2.89256   0.00011   0.00016   0.00028   0.00044   2.89300
    R5        2.05188   0.00002   0.00010  -0.00003   0.00007   2.05195
    R6        2.52995  -0.00001   0.00009  -0.00012  -0.00004   2.52992
    R7        2.84206   0.00006  -0.00011   0.00030   0.00019   2.84225
    R8        2.05196  -0.00002  -0.00006  -0.00001  -0.00007   2.05189
    R9        2.08308  -0.00001   0.00006  -0.00003   0.00003   2.08311
   R10        2.07865   0.00002   0.00013  -0.00001   0.00012   2.07878
   R11        2.89352  -0.00008  -0.00063  -0.00004  -0.00067   2.89285
   R12        2.88558   0.00008   0.00053  -0.00001   0.00052   2.88611
   R13        2.07065  -0.00002  -0.00007  -0.00006  -0.00014   2.07052
   R14        2.06942  -0.00005  -0.00002  -0.00013  -0.00015   2.06928
   R15        2.07061  -0.00000   0.00006  -0.00004   0.00001   2.07062
   R16        2.06928  -0.00002  -0.00005  -0.00001  -0.00006   2.06921
    A1        1.90195  -0.00006  -0.00022  -0.00019  -0.00040   1.90155
    A2        1.92486   0.00002   0.00026   0.00004   0.00031   1.92517
    A3        1.95312   0.00004   0.00032   0.00050   0.00082   1.95394
    A4        1.82327   0.00000  -0.00031  -0.00010  -0.00041   1.82287
    A5        1.92312   0.00002   0.00057  -0.00004   0.00053   1.92365
    A6        1.93299  -0.00003  -0.00067  -0.00026  -0.00093   1.93206
    A7        2.04232   0.00001  -0.00031  -0.00004  -0.00035   2.04197
    A8        2.14976  -0.00002   0.00023  -0.00000   0.00022   2.14998
    A9        2.09095   0.00001   0.00008   0.00005   0.00013   2.09108
   A10        2.15033   0.00000  -0.00027  -0.00013  -0.00039   2.14994
   A11        2.09105  -0.00001   0.00025  -0.00013   0.00011   2.09116
   A12        2.04165   0.00000   0.00003   0.00025   0.00028   2.04193
   A13        1.90083   0.00001  -0.00000   0.00018   0.00018   1.90101
   A14        1.92555  -0.00002  -0.00043   0.00008  -0.00035   1.92520
   A15        1.95472   0.00003   0.00021  -0.00030  -0.00010   1.95462
   A16        1.82219   0.00002   0.00010   0.00032   0.00042   1.82261
   A17        1.92306  -0.00000   0.00031  -0.00008   0.00023   1.92329
   A18        1.93277  -0.00004  -0.00019  -0.00014  -0.00034   1.93243
   A19        1.92349  -0.00004   0.00018  -0.00006   0.00011   1.92360
   A20        1.93337   0.00001  -0.00013  -0.00035  -0.00048   1.93290
   A21        1.89562   0.00004  -0.00057   0.00080   0.00023   1.89586
   A22        1.94512  -0.00000   0.00005  -0.00049  -0.00044   1.94468
   A23        1.89827  -0.00002  -0.00014   0.00008  -0.00006   1.89821
   A24        1.86613   0.00001   0.00060   0.00007   0.00067   1.86680
   A25        1.92349  -0.00001   0.00006  -0.00020  -0.00014   1.92335
   A26        1.93221   0.00003   0.00045   0.00004   0.00049   1.93270
   A27        1.89718  -0.00004  -0.00016  -0.00004  -0.00021   1.89697
   A28        1.94441  -0.00001   0.00002  -0.00005  -0.00003   1.94438
   A29        1.89859   0.00002  -0.00027  -0.00010  -0.00037   1.89822
   A30        1.86621   0.00001  -0.00012   0.00037   0.00025   1.86646
    D1        1.26121  -0.00001  -0.00228  -0.00122  -0.00350   1.25772
    D2       -1.86111  -0.00003  -0.00196  -0.00206  -0.00401  -1.86512
    D3       -0.73062   0.00000  -0.00194  -0.00102  -0.00296  -0.73358
    D4        2.43024  -0.00001  -0.00161  -0.00186  -0.00347   2.42677
    D5       -2.89073   0.00000  -0.00150  -0.00107  -0.00257  -2.89330
    D6        0.27013  -0.00001  -0.00117  -0.00191  -0.00308   0.26705
    D7       -0.80797   0.00003   0.00161   0.00166   0.00327  -0.80470
    D8       -2.96875   0.00005   0.00151   0.00257   0.00408  -2.96467
    D9        1.26989   0.00001   0.00120   0.00221   0.00340   1.27330
   D10        1.31110   0.00000   0.00194   0.00174   0.00368   1.31478
   D11       -0.84967   0.00002   0.00185   0.00264   0.00449  -0.84518
   D12       -2.89422  -0.00002   0.00153   0.00228   0.00381  -2.89040
   D13       -2.96351  -0.00000   0.00152   0.00144   0.00296  -2.96055
   D14        1.15890   0.00002   0.00143   0.00235   0.00377   1.16267
   D15       -0.88564  -0.00002   0.00111   0.00198   0.00309  -0.88255
   D16        0.00882  -0.00000  -0.00007   0.00019   0.00012   0.00894
   D17       -3.11356   0.00000  -0.00079   0.00107   0.00028  -3.11327
   D18       -3.11299  -0.00001   0.00027  -0.00067  -0.00040  -3.11339
   D19        0.04782  -0.00001  -0.00045   0.00021  -0.00024   0.04758
   D20       -1.86905   0.00001   0.00054   0.00196   0.00250  -1.86656
   D21        2.42384  -0.00001   0.00065   0.00144   0.00209   2.42593
   D22        0.26237   0.00003   0.00107   0.00178   0.00285   0.26522
   D23        1.25383   0.00000   0.00125   0.00109   0.00234   1.25617
   D24       -0.73646  -0.00002   0.00136   0.00057   0.00193  -0.73453
   D25       -2.89793   0.00002   0.00177   0.00092   0.00269  -2.89524
   D26       -0.80018  -0.00003  -0.00063  -0.00196  -0.00258  -0.80276
   D27       -2.95925  -0.00003  -0.00100  -0.00178  -0.00278  -2.96203
   D28        1.27903  -0.00003  -0.00102  -0.00223  -0.00324   1.27579
   D29        1.31850  -0.00000  -0.00027  -0.00199  -0.00226   1.31624
   D30       -0.84057  -0.00000  -0.00065  -0.00181  -0.00246  -0.84303
   D31       -2.88548  -0.00001  -0.00066  -0.00225  -0.00292  -2.88840
   D32       -2.95760   0.00000  -0.00008  -0.00173  -0.00181  -2.95941
   D33        1.16652   0.00000  -0.00045  -0.00156  -0.00201   1.16450
   D34       -0.87839  -0.00000  -0.00047  -0.00200  -0.00247  -0.88086
   D35        1.09374  -0.00003  -0.00078   0.00014  -0.00064   1.09310
   D36       -3.03747  -0.00001  -0.00016   0.00002  -0.00014  -3.03760
   D37       -0.98461   0.00001  -0.00045   0.00038  -0.00008  -0.98468
   D38       -3.03549  -0.00004  -0.00079  -0.00069  -0.00148  -3.03697
   D39       -0.88351  -0.00002  -0.00016  -0.00081  -0.00097  -0.88448
   D40        1.16935  -0.00000  -0.00046  -0.00046  -0.00091   1.16844
   D41       -0.98251  -0.00004  -0.00011  -0.00085  -0.00095  -0.98346
   D42        1.16947  -0.00002   0.00052  -0.00097  -0.00045   1.16902
   D43       -3.06085  -0.00000   0.00022  -0.00061  -0.00039  -3.06125
         Item               Value     Threshold  Converged?
 Maximum Force            0.000108     0.000450     YES
 RMS     Force            0.000027     0.000300     YES
 Maximum Displacement     0.007090     0.001800     NO 
 RMS     Displacement     0.001971     0.001200     NO 
 Predicted change in Energy=-6.836087D-07
 GradGradGradGradGradGradGradGradGradGradGradGradGradGradGradGradGradGrad

 Leave Link  103 at Sat Jun 15 16:41:06 2024, MaxMem=   104857600 cpu:               1.6 elap:               0.9
 (Enter /mlatom/software/Gaussian/g16-avx2/l202.exe)
                          Input orientation:                          
 ---------------------------------------------------------------------
 Center     Atomic      Atomic             Coordinates (Angstroms)
 Number     Number       Type             X           Y           Z
 ---------------------------------------------------------------------
      1          6           0        0.652215   -0.272916   -0.162343
      2          6           0       -0.626141   -1.058927   -0.263170
      3          1           0        0.780414    0.070202    0.877290
      4          1           0        0.577728    0.654073   -0.750002
      5          1           0       -1.554805   -0.499306   -0.204249
      6          6           0       -0.658925   -2.390500   -0.397903
      7          6           0        0.578915   -3.243173   -0.451570
      8          1           0       -1.612994   -2.900253   -0.492221
      9          1           0        0.726311   -3.594568   -1.485949
     10          1           0        0.433855   -4.163905    0.132639
     11          6           0        1.866186   -1.095840   -0.601374
     12          6           0        1.818418   -2.485296    0.030811
     13          1           0        2.798009   -0.575362   -0.353784
     14          1           0        1.840216   -1.203533   -1.690769
     15          1           0        2.729535   -3.054396   -0.185075
     16          1           0        1.761145   -2.375407    1.118757
 ---------------------------------------------------------------------
                    Distance matrix (angstroms):
                    1          2          3          4          5
     1  C    0.000000
     2  C    1.504052   0.000000
     3  H    1.102272   2.134005   0.000000
     4  H    1.100091   2.149575   1.740709   0.000000
     5  H    2.218996   1.085847   2.635775   2.485120   0.000000
     6  C    2.501747   1.338774   3.122958   3.304952   2.101599
     7  C    2.985206   2.501717   3.575601   3.908656   3.484643
     8  H    3.484666   2.101625   4.053093   4.183174   2.418856
     9  H    3.576423   3.123106   4.361005   4.314470   4.053010
    10  H    3.908260   3.304716   4.313035   4.900272   4.183007
    11  C    1.530908   2.515440   2.173707   2.178167   3.495245
    12  C    2.508379   2.845492   2.885229   3.464768   3.921485
    13  H    2.175444   3.459314   2.450100   2.568687   4.356046
    14  H    2.147901   2.853396   3.056225   2.435081   3.772511
    15  H    3.471658   3.904940   3.832858   4.324599   4.988429
    16  H    2.700262   3.056465   2.645967   3.751065   4.033067
                    6          7          8          9         10
     6  C    0.000000
     7  C    1.504055   0.000000
     8  H    1.085814   2.218945   0.000000
     9  H    2.133660   1.102336   2.634752   0.000000
    10  H    2.149560   1.100041   2.485329   1.740547   0.000000
    11  C    2.844948   2.508096   3.920780   2.885382   3.464588
    12  C    2.515951   1.530828   3.495761   2.173418   2.178328
    13  H    3.904750   3.471478   4.988110   3.832668   4.324752
    14  H    3.053866   2.699375   4.029893   2.645711   3.750530
    15  H    3.459438   2.175275   4.356106   2.448871   2.569455
    16  H    2.856086   2.148630   3.775650   3.056424   2.435745
                   11         12         13         14         15
    11  C    0.000000
    12  C    1.527261   0.000000
    13  H    1.095671   2.180679   0.000000
    14  H    1.095013   2.146446   1.760539   0.000000
    15  H    2.180508   1.095726   2.485711   2.546310   0.000000
    16  H    2.146433   1.094980   2.546296   3.045156   1.760336
                   16
    16  H    0.000000
 Stoichiometry    C6H10
 Framework group  C1[X(C6H10)]
 Deg. of freedom    42
 Full point group                 C1      NOp   1
 RotChk:  IX=0 Diff= 9.62D-04
 Largest Abelian subgroup         C1      NOp   1
 Largest concise Abelian subgroup C1      NOp   1
                         Standard orientation:                         
 ---------------------------------------------------------------------
 Center     Atomic      Atomic             Coordinates (Angstroms)
 Number     Number       Type             X           Y           Z
 ---------------------------------------------------------------------
      1          6           0        1.488457    0.040193    0.112820
      2          6           0        0.669237    1.300133    0.052804
      3          1           0        1.857093   -0.098401    1.142336
      4          1           0        2.400369    0.148575   -0.492877
      5          1           0        1.206991    2.241261    0.117317
      6          6           0       -0.665349    1.302082   -0.052988
      7          6           0       -1.488279    0.044505   -0.111853
      8          1           0       -1.200342    2.244678   -0.118472
      9          1           0       -1.858295   -0.092667   -1.141133
     10          1           0       -2.399412    0.155785    0.494399
     11          6           0        0.686314   -1.185728   -0.331435
     12          6           0       -0.689857   -1.184289    0.330892
     13          1           0        1.234805   -2.108627   -0.112549
     14          1           0        0.554412   -1.142519   -1.417616
     15          1           0       -1.240921   -2.105243    0.110009
     16          1           0       -0.557839   -1.144215    1.417145
 ---------------------------------------------------------------------
 Rotational constants (GHZ):           4.7524130           4.5679299           2.5714631
 Leave Link  202 at Sat Jun 15 16:41:07 2024, MaxMem=   104857600 cpu:               0.2 elap:               0.4
 (Enter /mlatom/software/Gaussian/g16-avx2/l301.exe)
 Standard basis: STO-3G (5D, 7F)
 Ernie: Thresh=  0.10000D-02 Tol=  0.10000D-05 Strict=F.
 There are    40 symmetry adapted cartesian basis functions of A   symmetry.
 There are    40 symmetry adapted basis functions of A   symmetry.
    40 basis functions,   120 primitive gaussians,    40 cartesian basis functions
    23 alpha electrons       23 beta electrons
       nuclear repulsion energy       237.0994658404 Hartrees.
 IExCor=    0 DFT=F Ex=HF Corr=None ExCW=0 ScaHFX=  1.000000
 ScaDFX=  1.000000  1.000000  1.000000  1.000000 ScalE2=  1.000000  1.000000
 IRadAn=      5 IRanWt=     -1 IRanGd=            0 ICorTp=0 IEmpDi=  4
 NAtoms=   16 NActive=   16 NUniq=   16 SFac= 1.00D+00 NAtFMM=   60 NAOKFM=F Big=F
 Integral buffers will be    131072 words long.
 Raffenetti 1 integral format.
 Two-electron integral symmetry is turned on.
 Leave Link  301 at Sat Jun 15 16:41:08 2024, MaxMem=   104857600 cpu:               0.3 elap:               0.5
 (Enter /mlatom/software/Gaussian/g16-avx2/l402.exe)
 External calculation of energy and first derivatives.
 Running external command "/mlatom/software/miniconda3/bin/python /mlatom/software/mlatom/mlatom/interfaces/gaussian_interface.py model_predict_kwargs R"
         input file       "/mlatom/home/qhzhang/git/ts-analysis/calculations/C60/irc/pro_opt/da_ani_opt_1/Gau-212676.EIn"
         output file      "/mlatom/home/qhzhang/git/ts-analysis/calculations/C60/irc/pro_opt/da_ani_opt_1/Gau-212676.EOu"
         message file     "/mlatom/home/qhzhang/git/ts-analysis/calculations/C60/irc/pro_opt/da_ani_opt_1/Gau-212676.EMs"
         fchk file        "/mlatom/home/qhzhang/git/ts-analysis/calculations/C60/irc/pro_opt/da_ani_opt_1/Gau-212676.EFC"
         mat. el file     "/mlatom/home/qhzhang/git/ts-analysis/calculations/C60/irc/pro_opt/da_ani_opt_1/Gau-212676.EUF"
model loaded from /mlatom/home/qhzhang/git/ts-analysis/calculations/C60/irc/pro_opt/da_ani_opt_1/da_energy_iteration27.npz
 Recovered energy= -234.668307760     dipole=      0.000000000000      0.000000000000      0.000000000000
 Energy=    -234.668308     NIter=   0.
 Dipole moment=       0.000000       0.000000       0.000000
 Leave Link  402 at Sat Jun 15 16:41:12 2024, MaxMem=   104857600 cpu:              11.3 elap:               4.4
 (Enter /mlatom/software/Gaussian/g16-avx2/l716.exe)
 Dipole        = 0.00000000D+00 0.00000000D+00 0.00000000D+00
 ***** Axes restored to original set *****
 -------------------------------------------------------------------
 Center     Atomic                   Forces (Hartrees/Bohr)
 Number     Number              X              Y              Z
 -------------------------------------------------------------------
      1        6           0.000008176    0.000050203   -0.000052155
      2        6          -0.000048382    0.000019162    0.000014225
      3        1           0.000005125   -0.000015390    0.000012849
      4        1          -0.000018340   -0.000023105    0.000019409
      5        1           0.000003890   -0.000013055    0.000003128
      6        6           0.000016587    0.000025907    0.000014919
      7        6          -0.000024367   -0.000079612   -0.000030131
      8        1          -0.000007969    0.000000863    0.000004873
      9        1           0.000006271    0.000011405    0.000011450
     10        1          -0.000007261    0.000003322    0.000006967
     11        6          -0.000018285   -0.000026827   -0.000027002
     12        6           0.000053197    0.000066356    0.000003048
     13        1           0.000007417    0.000005862    0.000008208
     14        1           0.000049886   -0.000005288    0.000019682
     15        1          -0.000014795   -0.000002531   -0.000004618
     16        1          -0.000011146   -0.000017270   -0.000004852
 -------------------------------------------------------------------
 Cartesian Forces:  Max     0.000079612 RMS     0.000025971
 Leave Link  716 at Sat Jun 15 16:41:13 2024, MaxMem=   104857600 cpu:               0.3 elap:               0.5
 (Enter /mlatom/software/Gaussian/g16-avx2/l103.exe)

 GradGradGradGradGradGradGradGradGradGradGradGradGradGradGradGradGradGrad
 Berny optimization.
 FormGI is forming the generalized inverse of G from B-inverse, IUseBI=4.
 Internal  Forces:  Max     0.000046605 RMS     0.000013325
 Search for a local minimum.
 Step number  29 out of a maximum of   99
 All quantities printed in internal units (Hartrees-Bohrs-Radians)
 Update second derivatives using D2CorX and points   25   26   27   28   29
 DE= -8.64D-07 DEPred=-6.84D-07 R= 1.26D+00
 Trust test= 1.26D+00 RLast= 1.70D-02 DXMaxT set to 2.50D+00
 ITU=  0  1  1  1  1  0  1  1  1  1  1  1  0  1  1  1  1  1  1 -1
 ITU=  1  1  1 -1  1  1  1  1  0
     Eigenvalues ---    0.00261   0.00507   0.00918   0.01438   0.01570
     Eigenvalues ---    0.02877   0.03058   0.03920   0.04420   0.04562
     Eigenvalues ---    0.05136   0.05712   0.05757   0.07170   0.08146
     Eigenvalues ---    0.08518   0.09269   0.09605   0.10256   0.11829
     Eigenvalues ---    0.12539   0.15907   0.16232   0.17151   0.18798
     Eigenvalues ---    0.22418   0.26032   0.28049   0.28376   0.30731
     Eigenvalues ---    0.31619   0.32935   0.33824   0.34143   0.34355
     Eigenvalues ---    0.34735   0.34754   0.35441   0.35600   0.36263
     Eigenvalues ---    0.36818   0.56545
 Angle between quadratic step and forces=  61.44 degrees.
 Quartic linear search produced a step of  0.12401.
 Iteration  1 RMS(Cart)=  0.00046101 RMS(Int)=  0.00000016
 Iteration  2 RMS(Cart)=  0.00000016 RMS(Int)=  0.00000008
 ITry= 1 IFail=0 DXMaxC= 2.31D-03 DCOld= 1.00D+10 DXMaxT= 2.50D+00 DXLimC= 3.00D+00 Rises=F
 Variable       Old X    -DE/DX   Delta X   Delta X   Delta X     New X
                                 (Linear)    (Quad)   (Total)
    R1        2.84225   0.00002  -0.00003   0.00003   0.00000   2.84225
    R2        2.08299   0.00001  -0.00001   0.00002   0.00001   2.08300
    R3        2.07887  -0.00003   0.00002  -0.00007  -0.00006   2.07881
    R4        2.89300   0.00003   0.00005   0.00010   0.00015   2.89315
    R5        2.05195  -0.00001   0.00001  -0.00002  -0.00001   2.05194
    R6        2.52992   0.00000  -0.00000   0.00002   0.00001   2.52993
    R7        2.84225   0.00003   0.00002   0.00001   0.00003   2.84228
    R8        2.05189   0.00001  -0.00001   0.00002   0.00002   2.05191
    R9        2.08311  -0.00001   0.00000  -0.00006  -0.00005   2.08306
   R10        2.07878   0.00000   0.00002  -0.00002  -0.00000   2.07877
   R11        2.89285   0.00005  -0.00008   0.00022   0.00014   2.89298
   R12        2.88611  -0.00001   0.00007  -0.00002   0.00004   2.88615
   R13        2.07052   0.00001  -0.00002   0.00004   0.00002   2.07054
   R14        2.06928  -0.00002  -0.00002  -0.00002  -0.00004   2.06923
   R15        2.07062  -0.00001   0.00000  -0.00005  -0.00005   2.07058
   R16        2.06921  -0.00001  -0.00001  -0.00001  -0.00002   2.06920
    A1        1.90155  -0.00001  -0.00005  -0.00017  -0.00022   1.90133
    A2        1.92517  -0.00001   0.00004  -0.00003   0.00001   1.92518
    A3        1.95394   0.00002   0.00010   0.00012   0.00022   1.95416
    A4        1.82287   0.00001  -0.00005   0.00009   0.00004   1.82291
    A5        1.92365  -0.00002   0.00007  -0.00028  -0.00022   1.92344
    A6        1.93206   0.00002  -0.00012   0.00025   0.00014   1.93220
    A7        2.04197   0.00002  -0.00004   0.00006   0.00002   2.04199
    A8        2.14998  -0.00002   0.00003  -0.00002   0.00000   2.14999
    A9        2.09108  -0.00000   0.00002  -0.00004  -0.00002   2.09106
   A10        2.14994   0.00002  -0.00005   0.00011   0.00006   2.14999
   A11        2.09116  -0.00002   0.00001  -0.00008  -0.00006   2.09110
   A12        2.04193  -0.00001   0.00003  -0.00003   0.00001   2.04194
   A13        1.90101   0.00002   0.00002   0.00007   0.00009   1.90110
   A14        1.92520  -0.00000  -0.00004   0.00004  -0.00001   1.92519
   A15        1.95462  -0.00002  -0.00001  -0.00018  -0.00019   1.95443
   A16        1.82261   0.00000   0.00005   0.00011   0.00016   1.82277
   A17        1.92329   0.00000   0.00003  -0.00001   0.00002   1.92331
   A18        1.93243   0.00001  -0.00004  -0.00000  -0.00004   1.93239
   A19        1.92360  -0.00002   0.00001  -0.00003  -0.00002   1.92358
   A20        1.93290  -0.00000  -0.00006  -0.00014  -0.00019   1.93270
   A21        1.89586   0.00003   0.00003   0.00042   0.00044   1.89630
   A22        1.94468   0.00001  -0.00005  -0.00017  -0.00022   1.94446
   A23        1.89821  -0.00001  -0.00001   0.00012   0.00011   1.89832
   A24        1.86680  -0.00001   0.00008  -0.00018  -0.00010   1.86670
   A25        1.92335   0.00002  -0.00002   0.00016   0.00014   1.92349
   A26        1.93270  -0.00000   0.00006  -0.00007  -0.00001   1.93269
   A27        1.89697  -0.00003  -0.00003  -0.00020  -0.00023   1.89674
   A28        1.94438  -0.00001  -0.00000  -0.00003  -0.00003   1.94435
   A29        1.89822   0.00001  -0.00005   0.00003  -0.00002   1.89820
   A30        1.86646   0.00000   0.00003   0.00012   0.00015   1.86661
    D1        1.25772   0.00000  -0.00043   0.00012  -0.00032   1.25740
    D2       -1.86512   0.00001  -0.00050   0.00036  -0.00014  -1.86527
    D3       -0.73358   0.00001  -0.00037   0.00012  -0.00025  -0.73383
    D4        2.42677   0.00001  -0.00043   0.00035  -0.00008   2.42669
    D5       -2.89330  -0.00001  -0.00032  -0.00028  -0.00059  -2.89389
    D6        0.26705  -0.00001  -0.00038  -0.00004  -0.00042   0.26663
    D7       -0.80470   0.00001   0.00041   0.00030   0.00071  -0.80399
    D8       -2.96467   0.00001   0.00051   0.00063   0.00114  -2.96353
    D9        1.27330   0.00001   0.00042   0.00068   0.00110   1.27440
   D10        1.31478  -0.00000   0.00046  -0.00003   0.00043   1.31521
   D11       -0.84518  -0.00000   0.00056   0.00030   0.00086  -0.84433
   D12       -2.89040  -0.00000   0.00047   0.00035   0.00082  -2.88958
   D13       -2.96055   0.00000   0.00037   0.00006   0.00043  -2.96012
   D14        1.16267   0.00001   0.00047   0.00039   0.00086   1.16353
   D15       -0.88255   0.00000   0.00038   0.00044   0.00083  -0.88172
   D16        0.00894   0.00000   0.00002  -0.00030  -0.00029   0.00866
   D17       -3.11327  -0.00000   0.00004  -0.00033  -0.00029  -3.11356
   D18       -3.11339   0.00001  -0.00005  -0.00006  -0.00011  -3.11350
   D19        0.04758   0.00000  -0.00003  -0.00008  -0.00011   0.04746
   D20       -1.86656   0.00000   0.00031   0.00042   0.00073  -1.86582
   D21        2.42593  -0.00001   0.00026   0.00024   0.00050   2.42643
   D22        0.26522   0.00000   0.00035   0.00034   0.00070   0.26592
   D23        1.25617   0.00001   0.00029   0.00045   0.00074   1.25691
   D24       -0.73453  -0.00000   0.00024   0.00026   0.00050  -0.73403
   D25       -2.89524   0.00000   0.00033   0.00037   0.00070  -2.89454
   D26       -0.80276  -0.00001  -0.00032  -0.00017  -0.00049  -0.80325
   D27       -2.96203  -0.00001  -0.00035  -0.00019  -0.00053  -2.96257
   D28        1.27579  -0.00000  -0.00040  -0.00017  -0.00057   1.27522
   D29        1.31624  -0.00001  -0.00028  -0.00021  -0.00049   1.31575
   D30       -0.84303  -0.00001  -0.00030  -0.00023  -0.00054  -0.84357
   D31       -2.88840   0.00000  -0.00036  -0.00021  -0.00057  -2.88897
   D32       -2.95941   0.00000  -0.00022  -0.00008  -0.00031  -2.95972
   D33        1.16450   0.00000  -0.00025  -0.00011  -0.00036   1.16415
   D34       -0.88086   0.00001  -0.00031  -0.00008  -0.00039  -0.88125
   D35        1.09310  -0.00000  -0.00008  -0.00016  -0.00024   1.09286
   D36       -3.03760   0.00000  -0.00002  -0.00016  -0.00018  -3.03778
   D37       -0.98468   0.00001  -0.00001  -0.00002  -0.00003  -0.98471
   D38       -3.03697  -0.00001  -0.00018  -0.00047  -0.00066  -3.03762
   D39       -0.88448  -0.00001  -0.00012  -0.00047  -0.00059  -0.88508
   D40        1.16844   0.00000  -0.00011  -0.00033  -0.00045   1.16799
   D41       -0.98346  -0.00003  -0.00012  -0.00072  -0.00084  -0.98430
   D42        1.16902  -0.00002  -0.00006  -0.00072  -0.00078   1.16824
   D43       -3.06125  -0.00001  -0.00005  -0.00058  -0.00063  -3.06188
         Item               Value     Threshold  Converged?
 Maximum Force            0.000047     0.000450     YES
 RMS     Force            0.000013     0.000300     YES
 Maximum Displacement     0.002306     0.001800     NO 
 RMS     Displacement     0.000461     0.001200     YES
 Predicted change in Energy=-9.350988D-08
 GradGradGradGradGradGradGradGradGradGradGradGradGradGradGradGradGradGrad

 Leave Link  103 at Sat Jun 15 16:41:14 2024, MaxMem=   104857600 cpu:               1.6 elap:               0.9
 (Enter /mlatom/software/Gaussian/g16-avx2/l202.exe)
                          Input orientation:                          
 ---------------------------------------------------------------------
 Center     Atomic      Atomic             Coordinates (Angstroms)
 Number     Number       Type             X           Y           Z
 ---------------------------------------------------------------------
      1          6           0        0.652154   -0.272884   -0.162749
      2          6           0       -0.626204   -1.058960   -0.263066
      3          1           0        0.780367    0.070437    0.876823
      4          1           0        0.577503    0.653942   -0.750590
      5          1           0       -1.554876   -0.499400   -0.203804
      6          6           0       -0.658982   -2.390565   -0.397562
      7          6           0        0.578848   -3.243248   -0.451814
      8          1           0       -1.613114   -2.900336   -0.491236
      9          1           0        0.726140   -3.594228   -1.486320
     10          1           0        0.433946   -4.164119    0.132211
     11          6           0        1.866363   -1.095811   -0.601392
     12          6           0        1.818350   -2.485318    0.030715
     13          1           0        2.797992   -0.575368   -0.352944
     14          1           0        1.841436   -1.203354   -1.690804
     15          1           0        2.729464   -3.054433   -0.185017
     16          1           0        1.760694   -2.375462    1.118636
 ---------------------------------------------------------------------
                    Distance matrix (angstroms):
                    1          2          3          4          5
     1  C    0.000000
     2  C    1.504054   0.000000
     3  H    1.102278   2.133852   0.000000
     4  H    1.100061   2.149563   1.740719   0.000000
     5  H    2.219003   1.085841   2.635494   2.485199   0.000000
     6  C    2.501756   1.338781   3.122868   3.304927   2.101588
     7  C    2.985296   2.501777   3.575806   3.908626   3.484679
     8  H    3.484659   2.101600   4.052879   4.183176   2.418782
     9  H    3.576121   3.122942   4.360866   4.313970   4.052880
    10  H    3.908494   3.304871   4.313457   4.900373   4.183119
    11  C    1.530987   2.515693   2.173624   2.178314   3.495519
    12  C    2.508446   2.845460   2.885340   3.464835   3.921418
    13  H    2.175384   3.459343   2.449531   2.569026   4.356085
    14  H    2.148283   2.854563   3.056324   2.435380   3.773811
    15  H    3.471704   3.904934   3.832922   4.324679   4.988398
    16  H    2.700304   3.056069   2.646117   3.751164   4.032550
                    6          7          8          9         10
     6  C    0.000000
     7  C    1.504072   0.000000
     8  H    1.085823   2.218973   0.000000
     9  H    2.133720   1.102309   2.635106   0.000000
    10  H    2.149569   1.100039   2.485214   1.740631   0.000000
    11  C    2.845223   2.508296   3.921123   2.885358   3.464752
    12  C    2.515863   1.530901   3.495657   2.173477   2.178359
    13  H    3.904817   3.471593   4.988232   3.832835   4.324722
    14  H    3.055165   2.700073   4.031455   2.646125   3.751073
    15  H    3.459401   2.175312   4.356088   2.449097   2.569327
    16  H    2.855506   2.148517   3.774886   3.056385   2.435691
                   11         12         13         14         15
    11  C    0.000000
    12  C    1.527283   0.000000
    13  H    1.095683   2.180550   0.000000
    14  H    1.094991   2.146530   1.760464   0.000000
    15  H    2.180484   1.095702   2.485690   2.546072   0.000000
    16  H    2.146431   1.094972   2.545951   3.045210   1.760406
                   16
    16  H    0.000000
 Stoichiometry    C6H10
 Framework group  C1[X(C6H10)]
 Deg. of freedom    42
 Full point group                 C1      NOp   1
 RotChk:  IX=0 Diff= 1.08D-03
 Largest Abelian subgroup         C1      NOp   1
 Largest concise Abelian subgroup C1      NOp   1
                         Standard orientation:                         
 ---------------------------------------------------------------------
 Center     Atomic      Atomic             Coordinates (Angstroms)
 Number     Number       Type             X           Y           Z
 ---------------------------------------------------------------------
      1          6           0        1.488458    0.041374    0.112523
      2          6           0        0.668248    1.300684    0.052769
      3          1           0        1.857343   -0.096784    1.142015
      4          1           0        2.400150    0.150500   -0.493318
      5          1           0        1.205243    2.242224    0.117499
      6          6           0       -0.666360    1.301611   -0.052859
      7          6           0       -1.488371    0.043432   -0.112148
      8          1           0       -1.202058    2.243848   -0.117881
      9          1           0       -1.857820   -0.094067   -1.141559
     10          1           0       -2.399760    0.153973    0.493854
     11          6           0        0.687265   -1.185462   -0.331193
     12          6           0       -0.689002   -1.184695    0.330988
     13          1           0        1.236408   -2.107738   -0.111264
     14          1           0        0.555565   -1.143566   -1.417427
     15          1           0       -1.239380   -2.106095    0.110379
     16          1           0       -0.557115   -1.143963    1.417225
 ---------------------------------------------------------------------
 Rotational constants (GHZ):           4.7521098           4.5677837           2.5712791
 Leave Link  202 at Sat Jun 15 16:41:15 2024, MaxMem=   104857600 cpu:               0.2 elap:               0.4
 (Enter /mlatom/software/Gaussian/g16-avx2/l301.exe)
 Standard basis: STO-3G (5D, 7F)
 Ernie: Thresh=  0.10000D-02 Tol=  0.10000D-05 Strict=F.
 There are    40 symmetry adapted cartesian basis functions of A   symmetry.
 There are    40 symmetry adapted basis functions of A   symmetry.
    40 basis functions,   120 primitive gaussians,    40 cartesian basis functions
    23 alpha electrons       23 beta electrons
       nuclear repulsion energy       237.0944390455 Hartrees.
 IExCor=    0 DFT=F Ex=HF Corr=None ExCW=0 ScaHFX=  1.000000
 ScaDFX=  1.000000  1.000000  1.000000  1.000000 ScalE2=  1.000000  1.000000
 IRadAn=      5 IRanWt=     -1 IRanGd=            0 ICorTp=0 IEmpDi=  4
 NAtoms=   16 NActive=   16 NUniq=   16 SFac= 1.00D+00 NAtFMM=   60 NAOKFM=F Big=F
 Integral buffers will be    131072 words long.
 Raffenetti 1 integral format.
 Two-electron integral symmetry is turned on.
 Leave Link  301 at Sat Jun 15 16:41:15 2024, MaxMem=   104857600 cpu:               0.3 elap:               0.5
 (Enter /mlatom/software/Gaussian/g16-avx2/l402.exe)
 External calculation of energy and first derivatives.
 Running external command "/mlatom/software/miniconda3/bin/python /mlatom/software/mlatom/mlatom/interfaces/gaussian_interface.py model_predict_kwargs R"
         input file       "/mlatom/home/qhzhang/git/ts-analysis/calculations/C60/irc/pro_opt/da_ani_opt_1/Gau-212676.EIn"
         output file      "/mlatom/home/qhzhang/git/ts-analysis/calculations/C60/irc/pro_opt/da_ani_opt_1/Gau-212676.EOu"
         message file     "/mlatom/home/qhzhang/git/ts-analysis/calculations/C60/irc/pro_opt/da_ani_opt_1/Gau-212676.EMs"
         fchk file        "/mlatom/home/qhzhang/git/ts-analysis/calculations/C60/irc/pro_opt/da_ani_opt_1/Gau-212676.EFC"
         mat. el file     "/mlatom/home/qhzhang/git/ts-analysis/calculations/C60/irc/pro_opt/da_ani_opt_1/Gau-212676.EUF"
model loaded from /mlatom/home/qhzhang/git/ts-analysis/calculations/C60/irc/pro_opt/da_ani_opt_1/da_energy_iteration27.npz
 Recovered energy= -234.668307879     dipole=      0.000000000000      0.000000000000      0.000000000000
 Energy=    -234.668308     NIter=   0.
 Dipole moment=       0.000000       0.000000       0.000000
 Leave Link  402 at Sat Jun 15 16:41:20 2024, MaxMem=   104857600 cpu:              11.6 elap:               4.5
 (Enter /mlatom/software/Gaussian/g16-avx2/l716.exe)
 Dipole        = 0.00000000D+00 0.00000000D+00 0.00000000D+00
 ***** Axes restored to original set *****
 -------------------------------------------------------------------
 Center     Atomic                   Forces (Hartrees/Bohr)
 Number     Number              X              Y              Z
 -------------------------------------------------------------------
      1        6           0.000026036    0.000015934   -0.000042606
      2        6          -0.000027892   -0.000005174    0.000013811
      3        1           0.000005940   -0.000005573    0.000005530
      4        1          -0.000011789   -0.000012629    0.000012686
      5        1           0.000005316   -0.000007220    0.000001172
      6        6           0.000001879    0.000013939    0.000004125
      7        6          -0.000007228   -0.000036024   -0.000006373
      8        1          -0.000003596    0.000003589   -0.000002177
      9        1           0.000006702    0.000006988    0.000006508
     10        1          -0.000007339    0.000005454    0.000001717
     11        6          -0.000027104   -0.000023583    0.000008495
     12        6           0.000015913    0.000062348   -0.000017634
     13        1           0.000006225    0.000007033   -0.000000269
     14        1           0.000020837   -0.000002006    0.000014638
     15        1          -0.000003697   -0.000008191    0.000002716
     16        1          -0.000000197   -0.000014890   -0.000002337
 -------------------------------------------------------------------
 Cartesian Forces:  Max     0.000062348 RMS     0.000016526
 Leave Link  716 at Sat Jun 15 16:41:20 2024, MaxMem=   104857600 cpu:               0.3 elap:               0.5
 (Enter /mlatom/software/Gaussian/g16-avx2/l103.exe)

 GradGradGradGradGradGradGradGradGradGradGradGradGradGradGradGradGradGrad
 Berny optimization.
 FormGI is forming the generalized inverse of G from B-inverse, IUseBI=4.
 Internal  Forces:  Max     0.000023721 RMS     0.000007102
 Search for a local minimum.
 Step number  30 out of a maximum of   99
 All quantities printed in internal units (Hartrees-Bohrs-Radians)
 Update second derivatives using D2CorX and points   25   26   27   28   29
                                                     30
 DE= -1.19D-07 DEPred=-9.35D-08 R= 1.27D+00
 Trust test= 1.27D+00 RLast= 3.90D-03 DXMaxT set to 2.50D+00
 ITU=  0  0  1  1  1  1  0  1  1  1  1  1  1  0  1  1  1  1  1  1
 ITU= -1  1  1  1 -1  1  1  1  1  0
     Eigenvalues ---    0.00254   0.00519   0.00912   0.01404   0.01567
     Eigenvalues ---    0.02872   0.03035   0.03801   0.04406   0.04470
     Eigenvalues ---    0.05027   0.05702   0.05768   0.07107   0.08112
     Eigenvalues ---    0.08443   0.09292   0.09584   0.10134   0.11953
     Eigenvalues ---    0.12071   0.15845   0.16254   0.16909   0.18635
     Eigenvalues ---    0.21788   0.25712   0.28296   0.29530   0.30544
     Eigenvalues ---    0.31477   0.32720   0.33798   0.34086   0.34238
     Eigenvalues ---    0.34442   0.34790   0.35432   0.35629   0.36369
     Eigenvalues ---    0.36783   0.56847
 Angle between quadratic step and forces=  71.67 degrees.
 Quartic linear search produced a step of  0.60269.
 Iteration  1 RMS(Cart)=  0.00039820 RMS(Int)=  0.00000009
 Iteration  2 RMS(Cart)=  0.00000010 RMS(Int)=  0.00000004
 ITry= 1 IFail=0 DXMaxC= 1.68D-03 DCOld= 1.00D+10 DXMaxT= 2.50D+00 DXLimC= 3.00D+00 Rises=F
 Variable       Old X    -DE/DX   Delta X   Delta X   Delta X     New X
                                 (Linear)    (Quad)   (Total)
    R1        2.84225   0.00001   0.00000   0.00004   0.00004   2.84229
    R2        2.08300   0.00000   0.00001   0.00000   0.00001   2.08301
    R3        2.07881  -0.00002  -0.00003  -0.00002  -0.00006   2.07876
    R4        2.89315  -0.00001   0.00009  -0.00009  -0.00000   2.89315
    R5        2.05194  -0.00001  -0.00001  -0.00002  -0.00002   2.05192
    R6        2.52993  -0.00001   0.00001  -0.00002  -0.00002   2.52991
    R7        2.84228   0.00001   0.00002  -0.00000   0.00002   2.84230
    R8        2.05191   0.00000   0.00001  -0.00000   0.00001   2.05191
    R9        2.08306  -0.00001  -0.00003  -0.00001  -0.00004   2.08302
   R10        2.07877  -0.00000  -0.00000  -0.00001  -0.00002   2.07876
   R11        2.89298   0.00002   0.00008   0.00001   0.00010   2.89308
   R12        2.88615  -0.00002   0.00002  -0.00010  -0.00008   2.88607
   R13        2.07054   0.00001   0.00001   0.00002   0.00004   2.07058
   R14        2.06923  -0.00001  -0.00003  -0.00003  -0.00006   2.06918
   R15        2.07058   0.00000  -0.00003   0.00002  -0.00000   2.07057
   R16        2.06920  -0.00000  -0.00001  -0.00001  -0.00002   2.06918
    A1        1.90133  -0.00000  -0.00013   0.00001  -0.00012   1.90121
    A2        1.92518  -0.00001   0.00001  -0.00004  -0.00003   1.92515
    A3        1.95416   0.00001   0.00013   0.00006   0.00019   1.95436
    A4        1.82291   0.00000   0.00003  -0.00004  -0.00001   1.82289
    A5        1.92344  -0.00001  -0.00013  -0.00006  -0.00020   1.92324
    A6        1.93220   0.00001   0.00008   0.00006   0.00015   1.93234
    A7        2.04199   0.00001   0.00001  -0.00002  -0.00001   2.04198
    A8        2.14999  -0.00001   0.00000   0.00002   0.00003   2.15001
    A9        2.09106  -0.00000  -0.00001  -0.00001  -0.00002   2.09104
   A10        2.14999   0.00000   0.00003  -0.00005  -0.00002   2.14998
   A11        2.09110  -0.00001  -0.00004  -0.00000  -0.00004   2.09106
   A12        2.04194   0.00000   0.00000   0.00005   0.00006   2.04200
   A13        1.90110   0.00001   0.00005   0.00001   0.00006   1.90116
   A14        1.92519  -0.00001  -0.00000  -0.00003  -0.00004   1.92515
   A15        1.95443  -0.00001  -0.00012  -0.00002  -0.00014   1.95429
   A16        1.82277   0.00000   0.00010   0.00004   0.00014   1.82290
   A17        1.92331  -0.00001   0.00001  -0.00007  -0.00005   1.92326
   A18        1.93239   0.00001  -0.00003   0.00008   0.00005   1.93244
   A19        1.92358  -0.00000  -0.00001   0.00004   0.00003   1.92361
   A20        1.93270  -0.00000  -0.00012  -0.00002  -0.00014   1.93256
   A21        1.89630   0.00001   0.00027   0.00002   0.00029   1.89659
   A22        1.94446   0.00001  -0.00013   0.00004  -0.00010   1.94436
   A23        1.89832  -0.00001   0.00007  -0.00002   0.00005   1.89837
   A24        1.86670  -0.00001  -0.00006  -0.00006  -0.00012   1.86658
   A25        1.92349   0.00001   0.00009   0.00000   0.00009   1.92358
   A26        1.93269  -0.00000  -0.00001  -0.00004  -0.00004   1.93265
   A27        1.89674  -0.00001  -0.00014  -0.00001  -0.00015   1.89659
   A28        1.94435   0.00000  -0.00002   0.00005   0.00003   1.94438
   A29        1.89820   0.00001  -0.00001   0.00008   0.00007   1.89828
   A30        1.86661  -0.00000   0.00009  -0.00009  -0.00000   1.86660
    D1        1.25740   0.00000  -0.00019  -0.00022  -0.00041   1.25700
    D2       -1.86527   0.00000  -0.00009  -0.00044  -0.00053  -1.86579
    D3       -0.73383   0.00001  -0.00015  -0.00015  -0.00030  -0.73413
    D4        2.42669   0.00001  -0.00005  -0.00038  -0.00042   2.42627
    D5       -2.89389  -0.00001  -0.00036  -0.00025  -0.00061  -2.89450
    D6        0.26663  -0.00001  -0.00025  -0.00047  -0.00073   0.26590
    D7       -0.80399   0.00001   0.00043   0.00031   0.00073  -0.80326
    D8       -2.96353   0.00000   0.00068   0.00025   0.00093  -2.96260
    D9        1.27440   0.00000   0.00066   0.00032   0.00099   1.27539
   D10        1.31521   0.00000   0.00026   0.00031   0.00057   1.31579
   D11       -0.84433  -0.00000   0.00052   0.00026   0.00078  -0.84355
   D12       -2.88958  -0.00000   0.00050   0.00033   0.00083  -2.88875
   D13       -2.96012   0.00000   0.00026   0.00027   0.00053  -2.95959
   D14        1.16353   0.00000   0.00052   0.00021   0.00073   1.16426
   D15       -0.88172   0.00000   0.00050   0.00028   0.00078  -0.88094
   D16        0.00866   0.00001  -0.00017   0.00031   0.00014   0.00880
   D17       -3.11356   0.00000  -0.00018   0.00034   0.00017  -3.11340
   D18       -3.11350   0.00000  -0.00007   0.00008   0.00002  -3.11348
   D19        0.04746   0.00000  -0.00007   0.00011   0.00004   0.04751
   D20       -1.86582   0.00000   0.00044   0.00010   0.00055  -1.86527
   D21        2.42643  -0.00000   0.00030   0.00007   0.00037   2.42680
   D22        0.26592  -0.00000   0.00042   0.00001   0.00043   0.26635
   D23        1.25691   0.00000   0.00044   0.00008   0.00052   1.25743
   D24       -0.73403  -0.00000   0.00030   0.00004   0.00034  -0.73368
   D25       -2.89454  -0.00000   0.00042  -0.00001   0.00041  -2.89413
   D26       -0.80325  -0.00001  -0.00029  -0.00016  -0.00046  -0.80370
   D27       -2.96257  -0.00001  -0.00032  -0.00020  -0.00053  -2.96310
   D28        1.27522   0.00000  -0.00034  -0.00006  -0.00041   1.27481
   D29        1.31575  -0.00000  -0.00030  -0.00021  -0.00050   1.31525
   D30       -0.84357  -0.00001  -0.00032  -0.00025  -0.00058  -0.84415
   D31       -2.88897   0.00001  -0.00034  -0.00011  -0.00046  -2.88943
   D32       -2.95972   0.00000  -0.00019  -0.00015  -0.00034  -2.96006
   D33        1.16415  -0.00000  -0.00021  -0.00020  -0.00041   1.16374
   D34       -0.88125   0.00001  -0.00023  -0.00006  -0.00029  -0.88154
   D35        1.09286  -0.00000  -0.00014  -0.00001  -0.00016   1.09270
   D36       -3.03778  -0.00000  -0.00011  -0.00002  -0.00013  -3.03791
   D37       -0.98471   0.00000  -0.00002  -0.00005  -0.00007  -0.98478
   D38       -3.03762  -0.00000  -0.00039   0.00001  -0.00039  -3.03801
   D39       -0.88508  -0.00000  -0.00036  -0.00000  -0.00036  -0.88544
   D40        1.16799   0.00000  -0.00027  -0.00003  -0.00030   1.16769
   D41       -0.98430  -0.00001  -0.00051  -0.00005  -0.00056  -0.98486
   D42        1.16824  -0.00001  -0.00047  -0.00006  -0.00053   1.16771
   D43       -3.06188  -0.00001  -0.00038  -0.00009  -0.00047  -3.06235
         Item               Value     Threshold  Converged?
 Maximum Force            0.000024     0.000450     YES
 RMS     Force            0.000007     0.000300     YES
 Maximum Displacement     0.001681     0.001800     YES
 RMS     Displacement     0.000398     0.001200     YES
 Predicted change in Energy=-2.683809D-08
 Optimization completed.
    -- Stationary point found.
                           ----------------------------
                           !   Optimized Parameters   !
                           ! (Angstroms and Degrees)  !
 --------------------------                            --------------------------
 ! Name  Definition              Value          Derivative Info.                !
 --------------------------------------------------------------------------------
 ! R1    R(1,2)                  1.5041         -DE/DX =    0.0                 !
 ! R2    R(1,3)                  1.1023         -DE/DX =    0.0                 !
 ! R3    R(1,4)                  1.1001         -DE/DX =    0.0                 !
 ! R4    R(1,11)                 1.531          -DE/DX =    0.0                 !
 ! R5    R(2,5)                  1.0858         -DE/DX =    0.0                 !
 ! R6    R(2,6)                  1.3388         -DE/DX =    0.0                 !
 ! R7    R(6,7)                  1.5041         -DE/DX =    0.0                 !
 ! R8    R(6,8)                  1.0858         -DE/DX =    0.0                 !
 ! R9    R(7,9)                  1.1023         -DE/DX =    0.0                 !
 ! R10   R(7,10)                 1.1            -DE/DX =    0.0                 !
 ! R11   R(7,12)                 1.5309         -DE/DX =    0.0                 !
 ! R12   R(11,12)                1.5273         -DE/DX =    0.0                 !
 ! R13   R(11,13)                1.0957         -DE/DX =    0.0                 !
 ! R14   R(11,14)                1.095          -DE/DX =    0.0                 !
 ! R15   R(12,15)                1.0957         -DE/DX =    0.0                 !
 ! R16   R(12,16)                1.095          -DE/DX =    0.0                 !
 ! A1    A(2,1,3)              108.9383         -DE/DX =    0.0                 !
 ! A2    A(2,1,4)              110.3049         -DE/DX =    0.0                 !
 ! A3    A(2,1,11)             111.9652         -DE/DX =    0.0                 !
 ! A4    A(3,1,4)              104.4449         -DE/DX =    0.0                 !
 ! A5    A(3,1,11)             110.2049         -DE/DX =    0.0                 !
 ! A6    A(4,1,11)             110.7067         -DE/DX =    0.0                 !
 ! A7    A(1,2,5)              116.9973         -DE/DX =    0.0                 !
 ! A8    A(1,2,6)              123.1852         -DE/DX =    0.0                 !
 ! A9    A(5,2,6)              119.8086         -DE/DX =    0.0                 !
 ! A10   A(2,6,7)              123.1855         -DE/DX =    0.0                 !
 ! A11   A(2,6,8)              119.8112         -DE/DX =    0.0                 !
 ! A12   A(7,6,8)              116.9945         -DE/DX =    0.0                 !
 ! A13   A(6,7,9)              108.9249         -DE/DX =    0.0                 !
 ! A14   A(6,7,10)             110.3053         -DE/DX =    0.0                 !
 ! A15   A(6,7,12)             111.9806         -DE/DX =    0.0                 !
 ! A16   A(9,7,10)             104.4369         -DE/DX =    0.0                 !
 ! A17   A(9,7,12)             110.1975         -DE/DX =    0.0                 !
 ! A18   A(10,7,12)            110.7176         -DE/DX =    0.0                 !
 ! A19   A(1,11,12)            110.2131         -DE/DX =    0.0                 !
 ! A20   A(1,11,13)            110.7358         -DE/DX =    0.0                 !
 ! A21   A(1,11,14)            108.6501         -DE/DX =    0.0                 !
 ! A22   A(12,11,13)           111.4093         -DE/DX =    0.0                 !
 ! A23   A(12,11,14)           108.7657         -DE/DX =    0.0                 !
 ! A24   A(13,11,14)           106.954          -DE/DX =    0.0                 !
 ! A25   A(7,12,11)            110.2079         -DE/DX =    0.0                 !
 ! A26   A(7,12,15)            110.735          -DE/DX =    0.0                 !
 ! A27   A(7,12,16)            108.6752         -DE/DX =    0.0                 !
 ! A28   A(11,12,15)           111.4028         -DE/DX =    0.0                 !
 ! A29   A(11,12,16)           108.7591         -DE/DX =    0.0                 !
 ! A30   A(15,12,16)           106.9488         -DE/DX =    0.0                 !
 ! D1    D(3,1,2,5)             72.0438         -DE/DX =    0.0                 !
 ! D2    D(3,1,2,6)           -106.8718         -DE/DX =    0.0                 !
 ! D3    D(4,1,2,5)            -42.0454         -DE/DX =    0.0                 !
 ! D4    D(4,1,2,6)            139.0391         -DE/DX =    0.0                 !
 ! D5    D(11,1,2,5)          -165.8079         -DE/DX =    0.0                 !
 ! D6    D(11,1,2,6)            15.2765         -DE/DX =    0.0                 !
 ! D7    D(2,1,11,12)          -46.0654         -DE/DX =    0.0                 !
 ! D8    D(2,1,11,13)         -169.7978         -DE/DX =    0.0                 !
 ! D9    D(2,1,11,14)           73.0177         -DE/DX =    0.0                 !
 ! D10   D(3,1,11,12)           75.3562         -DE/DX =    0.0                 !
 ! D11   D(3,1,11,13)          -48.3763         -DE/DX =    0.0                 !
 ! D12   D(3,1,11,14)         -165.5607         -DE/DX =    0.0                 !
 ! D13   D(4,1,11,12)         -169.6022         -DE/DX =    0.0                 !
 ! D14   D(4,1,11,13)           66.6654         -DE/DX =    0.0                 !
 ! D15   D(4,1,11,14)          -50.5191         -DE/DX =    0.0                 !
 ! D16   D(1,2,6,7)              0.496          -DE/DX =    0.0                 !
 ! D17   D(1,2,6,8)           -178.3941         -DE/DX =    0.0                 !
 ! D18   D(5,2,6,7)           -178.3904         -DE/DX =    0.0                 !
 ! D19   D(5,2,6,8)              2.7195         -DE/DX =    0.0                 !
 ! D20   D(2,6,7,9)           -106.9036         -DE/DX =    0.0                 !
 ! D21   D(2,6,7,10)           139.0241         -DE/DX =    0.0                 !
 ! D22   D(2,6,7,12)            15.2361         -DE/DX =    0.0                 !
 ! D23   D(8,6,7,9)             72.0156         -DE/DX =    0.0                 !
 ! D24   D(8,6,7,10)           -42.0567         -DE/DX =    0.0                 !
 ! D25   D(8,6,7,12)          -165.8446         -DE/DX =    0.0                 !
 ! D26   D(6,7,12,11)          -46.0227         -DE/DX =    0.0                 !
 ! D27   D(6,7,12,15)         -169.7427         -DE/DX =    0.0                 !
 ! D28   D(6,7,12,16)           73.0645         -DE/DX =    0.0                 !
 ! D29   D(9,7,12,11)           75.387          -DE/DX =    0.0                 !
 ! D30   D(9,7,12,15)          -48.333          -DE/DX =    0.0                 !
 ! D31   D(9,7,12,16)         -165.5257         -DE/DX =    0.0                 !
 ! D32   D(10,7,12,11)        -169.5792         -DE/DX =    0.0                 !
 ! D33   D(10,7,12,15)          66.7008         -DE/DX =    0.0                 !
 ! D34   D(10,7,12,16)         -50.4919         -DE/DX =    0.0                 !
 ! D35   D(1,11,12,7)           62.6161         -DE/DX =    0.0                 !
 ! D36   D(1,11,12,15)        -174.0522         -DE/DX =    0.0                 !
 ! D37   D(1,11,12,16)         -56.42           -DE/DX =    0.0                 !
 ! D38   D(13,11,12,7)        -174.043          -DE/DX =    0.0                 !
 ! D39   D(13,11,12,15)        -50.7113         -DE/DX =    0.0                 !
 ! D40   D(13,11,12,16)         66.9209         -DE/DX =    0.0                 !
 ! D41   D(14,11,12,7)         -56.3965         -DE/DX =    0.0                 !
 ! D42   D(14,11,12,15)         66.9352         -DE/DX =    0.0                 !
 ! D43   D(14,11,12,16)       -175.4326         -DE/DX =    0.0                 !
 --------------------------------------------------------------------------------
 Largest change from initial coordinates is atom   15       1.879 Angstoms.
 GradGradGradGradGradGradGradGradGradGradGradGradGradGradGradGradGradGrad

 Leave Link  103 at Sat Jun 15 16:41:21 2024, MaxMem=   104857600 cpu:               1.6 elap:               0.9
 (Enter /mlatom/software/Gaussian/g16-avx2/l202.exe)
                          Input orientation:                          
 ---------------------------------------------------------------------
 Center     Atomic      Atomic             Coordinates (Angstroms)
 Number     Number       Type             X           Y           Z
 ---------------------------------------------------------------------
      1          6           0        0.652154   -0.272884   -0.162749
      2          6           0       -0.626204   -1.058960   -0.263066
      3          1           0        0.780367    0.070437    0.876823
      4          1           0        0.577503    0.653942   -0.750590
      5          1           0       -1.554876   -0.499400   -0.203804
      6          6           0       -0.658982   -2.390565   -0.397562
      7          6           0        0.578848   -3.243248   -0.451814
      8          1           0       -1.613114   -2.900336   -0.491236
      9          1           0        0.726140   -3.594228   -1.486320
     10          1           0        0.433946   -4.164119    0.132211
     11          6           0        1.866363   -1.095811   -0.601392
     12          6           0        1.818350   -2.485318    0.030715
     13          1           0        2.797992   -0.575368   -0.352944
     14          1           0        1.841436   -1.203354   -1.690804
     15          1           0        2.729464   -3.054433   -0.185017
     16          1           0        1.760694   -2.375462    1.118636
 ---------------------------------------------------------------------
                    Distance matrix (angstroms):
                    1          2          3          4          5
     1  C    0.000000
     2  C    1.504054   0.000000
     3  H    1.102278   2.133852   0.000000
     4  H    1.100061   2.149563   1.740719   0.000000
     5  H    2.219003   1.085841   2.635494   2.485199   0.000000
     6  C    2.501756   1.338781   3.122868   3.304927   2.101588
     7  C    2.985296   2.501777   3.575806   3.908626   3.484679
     8  H    3.484659   2.101600   4.052879   4.183176   2.418782
     9  H    3.576121   3.122942   4.360866   4.313970   4.052880
    10  H    3.908494   3.304871   4.313457   4.900373   4.183119
    11  C    1.530987   2.515693   2.173624   2.178314   3.495519
    12  C    2.508446   2.845460   2.885340   3.464835   3.921418
    13  H    2.175384   3.459343   2.449531   2.569026   4.356085
    14  H    2.148283   2.854563   3.056324   2.435380   3.773811
    15  H    3.471704   3.904934   3.832922   4.324679   4.988398
    16  H    2.700304   3.056069   2.646117   3.751164   4.032550
                    6          7          8          9         10
     6  C    0.000000
     7  C    1.504072   0.000000
     8  H    1.085823   2.218973   0.000000
     9  H    2.133720   1.102309   2.635106   0.000000
    10  H    2.149569   1.100039   2.485214   1.740631   0.000000
    11  C    2.845223   2.508296   3.921123   2.885358   3.464752
    12  C    2.515863   1.530901   3.495657   2.173477   2.178359
    13  H    3.904817   3.471593   4.988232   3.832835   4.324722
    14  H    3.055165   2.700073   4.031455   2.646125   3.751073
    15  H    3.459401   2.175312   4.356088   2.449097   2.569327
    16  H    2.855506   2.148517   3.774886   3.056385   2.435691
                   11         12         13         14         15
    11  C    0.000000
    12  C    1.527283   0.000000
    13  H    1.095683   2.180550   0.000000
    14  H    1.094991   2.146530   1.760464   0.000000
    15  H    2.180484   1.095702   2.485690   2.546072   0.000000
    16  H    2.146431   1.094972   2.545951   3.045210   1.760406
                   16
    16  H    0.000000
 Stoichiometry    C6H10
 Framework group  C1[X(C6H10)]
 Deg. of freedom    42
 Full point group                 C1      NOp   1
 RotChk:  IX=0 Diff= 2.83D-15
 Largest Abelian subgroup         C1      NOp   1
 Largest concise Abelian subgroup C1      NOp   1
                         Standard orientation:                         
 ---------------------------------------------------------------------
 Center     Atomic      Atomic             Coordinates (Angstroms)
 Number     Number       Type             X           Y           Z
 ---------------------------------------------------------------------
      1          6           0        1.488458    0.041374    0.112523
      2          6           0        0.668248    1.300684    0.052769
      3          1           0        1.857343   -0.096784    1.142015
      4          1           0        2.400150    0.150500   -0.493318
      5          1           0        1.205243    2.242224    0.117499
      6          6           0       -0.666360    1.301611   -0.052859
      7          6           0       -1.488371    0.043432   -0.112148
      8          1           0       -1.202058    2.243848   -0.117881
      9          1           0       -1.857820   -0.094067   -1.141559
     10          1           0       -2.399760    0.153973    0.493854
     11          6           0        0.687265   -1.185462   -0.331193
     12          6           0       -0.689002   -1.184695    0.330988
     13          1           0        1.236408   -2.107738   -0.111264
     14          1           0        0.555565   -1.143566   -1.417427
     15          1           0       -1.239380   -2.106095    0.110379
     16          1           0       -0.557115   -1.143963    1.417225
 ---------------------------------------------------------------------
 Rotational constants (GHZ):           4.7521098           4.5677837           2.5712791
 Leave Link  202 at Sat Jun 15 16:41:22 2024, MaxMem=   104857600 cpu:               0.2 elap:               0.4
 (Enter /mlatom/software/Gaussian/g16-avx2/l601.exe)
 Leave Link  601 at Sat Jun 15 16:41:23 2024, MaxMem=   104857600 cpu:               0.3 elap:               0.5
 (Enter /mlatom/software/Gaussian/g16-avx2/l9999.exe)
 1\1\GINC-B003\FOpt\RExternal='/mlatom/software/miniconda3/bin/python /
 mlatom/software/mlatom/mlatom/\ZDO\C6H10\UNKNOWN\15-Jun-2024\0\\#p opt
 (nomicro,Newton) external='/mlatom/software/miniconda3/bin/python /mla
 tom/software/mlatom/mlatom/interfaces/gaussian_interface.py model_pred
 ict_kwargs'\\31133ed6-568b-4343-9df3-05f4ea298ab7\\0,1\C,0.6521538097,
 -0.2728838185,-0.1627487161\C,-0.62620363,-1.0589600842,-0.2630660503\
 H,0.7803668417,0.0704365174,0.8768227484\H,0.577503436,0.6539417049,-0
 .7505896434\H,-1.5548756542,-0.499400153,-0.2038043354\C,-0.6589815103
 ,-2.3905645876,-0.3975619283\C,0.5788478789,-3.2432476682,-0.451814307
 2\H,-1.6131140618,-2.900336482,-0.4912363474\H,0.7261396128,-3.5942276
 958,-1.4863204379\H,0.4339458324,-4.1641190582,0.13221116\C,1.86636276
 72,-1.0958113302,-0.6013922167\C,1.8183495333,-2.4853175474,0.03071516
 75\H,2.7979923898,-0.5753684561,-0.3529437136\H,1.8414362639,-1.203353
 5093,-1.690803834\H,2.7294638677,-3.0544330139,-0.1850171754\H,1.76069
 4103,-2.3754616178,1.1186356298\\Version=ES64L-G16RevA.03\HF=-234.6683
 079\RMSD=0.000e+00\RMSF=1.653e-05\Dipole=0.,0.,0.\PG=C01 [X(C6H10)]\\@


 ALL PAPERS THAT YOU SAVE WILL NEVER BE NEEDED UNTIL
 SUCH TIME AS THEY ARE DISPOSED OF, WHEN THEY BECOME
 ESSENTIAL.

           -- JOHN CORCORAN IN
              PAUL DICKSON'S "THE OFFICIAL RULES"
 Job cpu time:       0 days  0 hours  7 minutes 23.2 seconds.
 Elapsed time:       0 days  0 hours  3 minutes 32.4 seconds.
 File lengths (MBytes):  RWF=     22 Int=      0 D2E=      0 Chk=      2 Scr=      2
 Normal termination of Gaussian 16 at Sat Jun 15 16:41:24 2024.
