 Entering Gaussian System, Link 0=/mlatom/software/Gaussian/g16-avx2/g16
 Input=gaussian.com
 Output=gaussian.log
 Initial command:
 /mlatom/software/Gaussian/g16-avx2/l1.exe "/mlatom/home/qhzhang/git/da_c60/calculation/irc-da/ts-ani/Gau-37748.inp" -scrdir="/mlatom/home/qhzhang/git/da_c60/calculation/irc-da/ts-ani/"
 Entering Link 1 = /mlatom/software/Gaussian/g16-avx2/l1.exe PID=     37749.
  
 Copyright (c) 1988,1990,1992,1993,1995,1998,2003,2009,2016,
            Gaussian, Inc.  All Rights Reserved.
  
 This is part of the Gaussian(R) 16 program.  It is based on
 the Gaussian(R) 09 system (copyright 2009, Gaussian, Inc.),
 the Gaussian(R) 03 system (copyright 2003, Gaussian, Inc.),
 the Gaussian(R) 98 system (copyright 1998, Gaussian, Inc.),
 the Gaussian(R) 94 system (copyright 1995, Gaussian, Inc.),
 the Gaussian 92(TM) system (copyright 1992, Gaussian, Inc.),
 the Gaussian 90(TM) system (copyright 1990, Gaussian, Inc.),
 the Gaussian 88(TM) system (copyright 1988, Gaussian, Inc.),
 the Gaussian 86(TM) system (copyright 1986, Carnegie Mellon
 University), and the Gaussian 82(TM) system (copyright 1983,
 Carnegie Mellon University). Gaussian is a federally registered
 trademark of Gaussian, Inc.
  
 This software contains proprietary and confidential information,
 including trade secrets, belonging to Gaussian, Inc.
  
 This software is provided under written license and may be
 used, copied, transmitted, or stored only in accord with that
 written license.
  
 The following legend is applicable only to US Government
 contracts under FAR:
  
                    RESTRICTED RIGHTS LEGEND
  
 Use, reproduction and disclosure by the US Government is
 subject to restrictions as set forth in subparagraphs (a)
 and (c) of the Commercial Computer Software - Restricted
 Rights clause in FAR 52.227-19.
  
 Gaussian, Inc.
 340 Quinnipiac St., Bldg. 40, Wallingford CT 06492
  
  
 ---------------------------------------------------------------
 Warning -- This program may not be used in any manner that
 competes with the business of Gaussian, Inc. or will provide
 assistance to any competitor of Gaussian, Inc.  The licensee
 of this program is prohibited from giving any competitor of
 Gaussian, Inc. access to this program.  By using this program,
 the user acknowledges that Gaussian, Inc. is engaged in the
 business of creating and licensing software in the field of
 computational chemistry and represents and warrants to the
 licensee that it is not a competitor of Gaussian, Inc. and that
 it will not use this program in any manner prohibited above.
 ---------------------------------------------------------------
  

 Cite this work as:
 Gaussian 16, Revision A.03,
 M. J. Frisch, G. W. Trucks, H. B. Schlegel, G. E. Scuseria, 
 M. A. Robb, J. R. Cheeseman, G. Scalmani, V. Barone, 
 G. A. Petersson, H. Nakatsuji, X. Li, M. Caricato, A. V. Marenich, 
 J. Bloino, B. G. Janesko, R. Gomperts, B. Mennucci, H. P. Hratchian, 
 J. V. Ortiz, A. F. Izmaylov, J. L. Sonnenberg, D. Williams-Young, 
 F. Ding, F. Lipparini, F. Egidi, J. Goings, B. Peng, A. Petrone, 
 T. Henderson, D. Ranasinghe, V. G. Zakrzewski, J. Gao, N. Rega, 
 G. Zheng, W. Liang, M. Hada, M. Ehara, K. Toyota, R. Fukuda, 
 J. Hasegawa, M. Ishida, T. Nakajima, Y. Honda, O. Kitao, H. Nakai, 
 T. Vreven, K. Throssell, J. A. Montgomery, Jr., J. E. Peralta, 
 F. Ogliaro, M. J. Bearpark, J. J. Heyd, E. N. Brothers, K. N. Kudin, 
 V. N. Staroverov, T. A. Keith, R. Kobayashi, J. Normand, 
 K. Raghavachari, A. P. Rendell, J. C. Burant, S. S. Iyengar, 
 J. Tomasi, M. Cossi, J. M. Millam, M. Klene, C. Adamo, R. Cammi, 
 J. W. Ochterski, R. L. Martin, K. Morokuma, O. Farkas, 
 J. B. Foresman, and D. J. Fox, Gaussian, Inc., Wallingford CT, 2016.
 
 ******************************************
 Gaussian 16:  ES64L-G16RevA.03 25-Dec-2016
                23-May-2025 
 ******************************************
 %nproc=1
 Will use up to    1 processors via shared memory.
 ----------------------------------------------------------------------
 #p freq external='/mlatom/software/miniconda3/bin/python /mlatom/home/
 qhzhang/git/mlatom/mlatom/interfaces/gaussian_interface.py model_predi
 ct_kwargs'
 ----------------------------------------------------------------------
 1/10=4,18=10,30=1,38=1/1,3;
 2/12=2,17=6,18=5,40=1/2;
 3/11=9,25=1,30=1,41=9900000,43=2,71=2,140=1/1;
 4/20=17,22=2,24=3,113=1,114=1/2;
 6/7=2,8=2,9=2,10=2/1;
 7/8=1,25=1,44=-1/16;
 1/10=4,18=10,30=1/3;
 99//99;
 Leave Link    1 at Fri May 23 09:02:58 2025, MaxMem=           0 cpu:               0.1 elap:               0.1
 (Enter /mlatom/software/Gaussian/g16-avx2/l101.exe)
 ------------------------------------
 b5b39261-35af-47a9-94d5-6395cbfdde0b
 ------------------------------------
 Symbolic Z-matrix:
 Charge =  0 Multiplicity = 1
 C                     2.03004   0.80426   0. 
 C                     1.15839   0.0849   -0.793 
 H                     2.35991   0.41038   0.95301 
 H                     2.10268   1.88282  -0.08753 
 H                     0.60971   0.6029   -1.57526 
 C                     1.15819  -1.31848  -0.79295 
 C                     2.02968  -2.03803   0.00006 
 H                     0.60935  -1.83637  -1.57517 
 H                     2.10204  -3.11661  -0.08743 
 H                     2.35968  -1.64421   0.95305 
 C                     4.05363   0.07446  -0.7279 
 C                     4.05339  -1.30869  -0.72806 
 H                     4.54976   0.6174    0.06851 
 H                     3.9369    0.62453  -1.65152 
 H                     3.9363   -1.85849  -1.65178 
 H                     4.54942  -1.852     0.06816 
 
 ITRead=  0  0  0  0  0  0  0  0  0  0  0  0  0  0  0  0
 MicOpt= -1 -1 -1 -1 -1 -1 -1 -1 -1 -1 -1 -1 -1 -1 -1 -1
 NAtoms=     16 NQM=       16 NQMF=       0 NMMI=      0 NMMIF=      0
                NMic=       0 NMicF=      0.
                    Isotopes and Nuclear Properties:
 (Nuclear quadrupole moments (NQMom) in fm**2, nuclear magnetic moments (NMagM)
  in nuclear magnetons)

  Atom         1           2           3           4           5           6           7           8           9          10
 IAtWgt=          12          12           1           1           1          12          12           1           1           1
 AtmWgt=  12.0000000  12.0000000   1.0078250   1.0078250   1.0078250  12.0000000  12.0000000   1.0078250   1.0078250   1.0078250
 NucSpn=           0           0           1           1           1           0           0           1           1           1
 AtZEff=  -0.0000000  -0.0000000  -0.0000000  -0.0000000  -0.0000000  -0.0000000  -0.0000000  -0.0000000  -0.0000000  -0.0000000
 NQMom=    0.0000000   0.0000000   0.0000000   0.0000000   0.0000000   0.0000000   0.0000000   0.0000000   0.0000000   0.0000000
 NMagM=    0.0000000   0.0000000   2.7928460   2.7928460   2.7928460   0.0000000   0.0000000   2.7928460   2.7928460   2.7928460
 AtZNuc=   6.0000000   6.0000000   1.0000000   1.0000000   1.0000000   6.0000000   6.0000000   1.0000000   1.0000000   1.0000000

  Atom        11          12          13          14          15          16
 IAtWgt=          12          12           1           1           1           1
 AtmWgt=  12.0000000  12.0000000   1.0078250   1.0078250   1.0078250   1.0078250
 NucSpn=           0           0           1           1           1           1
 AtZEff=  -0.0000000  -0.0000000  -0.0000000  -0.0000000  -0.0000000  -0.0000000
 NQMom=    0.0000000   0.0000000   0.0000000   0.0000000   0.0000000   0.0000000
 NMagM=    0.0000000   0.0000000   2.7928460   2.7928460   2.7928460   2.7928460
 AtZNuc=   6.0000000   6.0000000   1.0000000   1.0000000   1.0000000   1.0000000
 Leave Link  101 at Fri May 23 09:02:58 2025, MaxMem=   104857600 cpu:               0.2 elap:               0.3
 (Enter /mlatom/software/Gaussian/g16-avx2/l103.exe)

 GradGradGradGradGradGradGradGradGradGradGradGradGradGradGradGradGradGrad
 Berny optimization.
 Initialization pass.
 Trust Radius=3.00D-01 FncErr=1.00D-07 GrdErr=1.00D-07 EigMax=2.50D+02 EigMin=1.00D-04
 Number of steps in this run=      2 maximum allowed number of steps=      2.
 GradGradGradGradGradGradGradGradGradGradGradGradGradGradGradGradGradGrad

 Leave Link  103 at Fri May 23 09:02:59 2025, MaxMem=   104857600 cpu:               0.0 elap:               0.1
 (Enter /mlatom/software/Gaussian/g16-avx2/l202.exe)
                          Input orientation:                          
 ---------------------------------------------------------------------
 Center     Atomic      Atomic             Coordinates (Angstroms)
 Number     Number       Type             X           Y           Z
 ---------------------------------------------------------------------
      1          6           0        2.030039    0.804264    0.000000
      2          6           0        1.158393    0.084900   -0.792996
      3          1           0        2.359911    0.410383    0.953010
      4          1           0        2.102681    1.882825   -0.087529
      5          1           0        0.609708    0.602896   -1.575255
      6          6           0        1.158194   -1.318481   -0.792949
      7          6           0        2.029677   -2.038030    0.000056
      8          1           0        0.609350   -1.836372   -1.575166
      9          1           0        2.102037   -3.116614   -0.087430
     10          1           0        2.359680   -1.644206    0.953045
     11          6           0        4.053627    0.074463   -0.727903
     12          6           0        4.053386   -1.308692   -0.728059
     13          1           0        4.549757    0.617397    0.068506
     14          1           0        3.936904    0.624534   -1.651517
     15          1           0        3.936301   -1.858494   -1.651783
     16          1           0        4.549420   -1.851996    0.068156
 ---------------------------------------------------------------------
                    Distance matrix (angstroms):
                    1          2          3          4          5
     1  C    0.000000
     2  C    1.380614   0.000000
     3  H    1.082675   2.144323   0.000000
     4  H    1.084542   2.149860   1.821256   0.000000
     5  H    2.130567   1.086878   3.080973   2.465870   0.000000
     6  C    2.427947   1.403381   2.735227   3.411456   2.145817
     7  C    2.842294   2.427941   2.648000   3.922513   3.387094
     8  H    3.387103   2.145816   3.808418   4.274989   2.439268
     9  H    3.922513   3.411448   3.686288   4.999439   4.274976
    10  H    2.648011   2.735244   2.054589   3.686298   3.808434
    11  C    2.270982   2.895984   2.409769   2.736136   3.585781
    12  C    3.014728   3.213612   2.940930   3.794906   4.028750
    13  H    2.527566   3.539363   2.370786   2.759318   4.269209
    14  H    2.529021   2.957767   3.052266   2.719141   3.328140
    15  H    3.667765   3.497294   3.797072   4.450452   4.138903
    16  H    3.661645   3.999027   3.270363   4.467623   4.924289
                    6          7          8          9         10
     6  C    0.000000
     7  C    1.380612   0.000000
     8  H    1.086878   2.130568   0.000000
     9  H    2.149856   1.084543   2.465865   0.000000
    10  H    2.144332   1.082676   3.080979   1.821251   0.000000
    11  C    3.213729   3.014784   4.028919   3.794981   2.940895
    12  C    2.895936   2.271009   3.585725   2.736193   2.409838
    13  H    3.999053   3.661527   4.924373   4.467492   3.270122
    14  H    3.497667   3.668032   4.139384   4.450763   3.797178
    15  H    2.957548   2.529035   3.327907   2.719300   3.052340
    16  H    3.539287   2.527519   4.269063   2.759194   2.370900
                   11         12         13         14         15
    11  C    0.000000
    12  C    1.383155   0.000000
    13  H    1.084062   2.142596   0.000000
    14  H    1.081326   2.145625   1.825957   0.000000
    15  H    2.145610   1.081322   3.076647   2.483028   0.000000
    16  H    2.142607   1.084061   2.469393   3.076630   1.825965
                   16
    16  H    0.000000
 Stoichiometry    C6H10
 Framework group  C1[X(C6H10)]
 Deg. of freedom    42
 Full point group                 C1      NOp   1
 Largest Abelian subgroup         C1      NOp   1
 Largest concise Abelian subgroup C1      NOp   1
                         Standard orientation:                         
 ---------------------------------------------------------------------
 Center     Atomic      Atomic             Coordinates (Angstroms)
 Number     Number       Type             X           Y           Z
 ---------------------------------------------------------------------
      1          6           0       -0.448562    1.421201    0.496458
      2          6           0       -1.320208    0.701837   -0.296538
      3          1           0       -0.118690    1.027320    1.449468
      4          1           0       -0.375920    2.499762    0.408929
      5          1           0       -1.868893    1.219833   -1.078797
      6          6           0       -1.320407   -0.701544   -0.296491
      7          6           0       -0.448924   -1.421093    0.496514
      8          1           0       -1.869251   -1.219435   -1.078708
      9          1           0       -0.376564   -2.499677    0.409028
     10          1           0       -0.118921   -1.027269    1.449503
     11          6           0        1.575026    0.691400   -0.231445
     12          6           0        1.574785   -0.691755   -0.231601
     13          1           0        2.071156    1.234334    0.564964
     14          1           0        1.458303    1.241471   -1.155059
     15          1           0        1.457700   -1.241557   -1.155325
     16          1           0        2.070819   -1.235059    0.564614
 ---------------------------------------------------------------------
 Rotational constants (GHZ):           4.3878314           3.4619928           2.2750799
 Leave Link  202 at Fri May 23 09:02:59 2025, MaxMem=   104857600 cpu:               0.0 elap:               0.1
 (Enter /mlatom/software/Gaussian/g16-avx2/l301.exe)
 Standard basis: STO-3G (5D, 7F)
 Ernie: Thresh=  0.10000D-02 Tol=  0.10000D-05 Strict=F.
 There are    40 symmetry adapted cartesian basis functions of A   symmetry.
 There are    40 symmetry adapted basis functions of A   symmetry.
    40 basis functions,   120 primitive gaussians,    40 cartesian basis functions
    23 alpha electrons       23 beta electrons
       nuclear repulsion energy       224.6599167265 Hartrees.
 IExCor=    0 DFT=F Ex=HF Corr=None ExCW=0 ScaHFX=  1.000000
 ScaDFX=  1.000000  1.000000  1.000000  1.000000 ScalE2=  1.000000  1.000000
 IRadAn=      5 IRanWt=     -1 IRanGd=            0 ICorTp=0 IEmpDi=  4
 NAtoms=   16 NActive=   16 NUniq=   16 SFac= 1.00D+00 NAtFMM=   60 NAOKFM=F Big=F
 Integral buffers will be    131072 words long.
 Raffenetti 1 integral format.
 Two-electron integral symmetry is turned on.
 Leave Link  301 at Fri May 23 09:02:59 2025, MaxMem=   104857600 cpu:               0.1 elap:               0.2
 (Enter /mlatom/software/Gaussian/g16-avx2/l402.exe)
 External calculation of energy, first and second derivatives.
 Running external command "/mlatom/software/miniconda3/bin/python /mlatom/home/qhzhang/git/mlatom/mlatom/interfaces/gaussian_interface.py model_predict_kwargs R"
         input file       "/mlatom/home/qhzhang/git/da_c60/calculation/irc-da/ts-ani/Gau-37749.EIn"
         output file      "/mlatom/home/qhzhang/git/da_c60/calculation/irc-da/ts-ani/Gau-37749.EOu"
         message file     "/mlatom/home/qhzhang/git/da_c60/calculation/irc-da/ts-ani/Gau-37749.EMs"
         fchk file        "/mlatom/home/qhzhang/git/da_c60/calculation/irc-da/ts-ani/Gau-37749.EFC"
         mat. el file     "/mlatom/home/qhzhang/git/da_c60/calculation/irc-da/ts-ani/Gau-37749.EUF"
 Recovered energy= -234.566082649     dipole=      0.381100000000     -0.000100000000      0.009700000000
 Energy=    -234.566083     NIter=   0.
 Dipole moment=       0.381100      -0.000100       0.009700
 Leave Link  402 at Fri May 23 09:08:21 2025, MaxMem=   104857600 cpu:               0.1 elap:             322.1
 (Enter /mlatom/software/Gaussian/g16-avx2/l601.exe)
 Leave Link  601 at Fri May 23 09:08:21 2025, MaxMem=   104857600 cpu:               0.1 elap:               0.1
 (Enter /mlatom/software/Gaussian/g16-avx2/l716.exe)
 Dipole        = 3.81100000D-01-1.00000000D-04 9.70000000D-03
 Full mass-weighted force constant matrix:
 Low frequencies --- -520.3370  -54.5197  -32.7897  -30.8381   -0.1961   -0.1385
 Low frequencies ---    0.2531  118.5333  202.8760
 ******    1 imaginary frequencies (negative Signs) ****** 
 Diagonal vibrational polarizability:
        0.0000000       0.0000000       0.0000000
 Harmonic frequencies (cm**-1), IR intensities (KM/Mole), Raman scattering
 activities (A**4/AMU), depolarization ratios for plane and unpolarized
 incident light, reduced masses (AMU), force constants (mDyne/A),
 and normal coordinates:
                      1                      2                      3
                      A                      A                      A
 Frequencies --   -520.3370               118.3715               202.8227
 Red. masses --      8.2687                 2.0884                 4.1476
 Frc consts  --      1.3190                 0.0172                 0.1005
 IR Inten    --      0.0000                 0.0000                 0.0000
  Atom  AN      X      Y      Z        X      Y      Z        X      Y      Z
     1   6    -0.36   0.12   0.11    -0.08   0.06  -0.05    -0.23   0.13   0.10
     2   6    -0.01   0.07   0.02    -0.02  -0.02  -0.04    -0.10   0.05   0.06
     3   1     0.18  -0.04  -0.15    -0.09   0.12  -0.02     0.00   0.08  -0.00
     4   1    -0.23   0.10   0.06    -0.08   0.05  -0.14    -0.33   0.14   0.14
     5   1     0.09  -0.01  -0.09    -0.02  -0.09  -0.09    -0.22   0.03   0.13
     6   6    -0.01  -0.07   0.02     0.02  -0.02   0.04     0.10   0.05  -0.06
     7   6    -0.36  -0.12   0.11     0.08   0.06   0.05     0.23   0.13  -0.10
     8   1     0.09   0.01  -0.09     0.02  -0.09   0.09     0.22   0.03  -0.13
     9   1    -0.23  -0.10   0.06     0.08   0.05   0.14     0.33   0.14  -0.14
    10   1     0.18   0.04  -0.15     0.09   0.12   0.02    -0.00   0.08   0.00
    11   6     0.38  -0.10  -0.12     0.08  -0.04   0.16     0.08  -0.17  -0.11
    12   6     0.38   0.10  -0.12    -0.08  -0.04  -0.16    -0.08  -0.17   0.11
    13   1    -0.08   0.05   0.06     0.05  -0.29   0.35     0.05  -0.05  -0.17
    14   1    -0.14   0.04   0.03     0.20   0.21   0.30    -0.06  -0.27  -0.15
    15   1    -0.14  -0.04   0.03    -0.20   0.21  -0.30     0.06  -0.27   0.15
    16   1    -0.08  -0.05   0.06    -0.05  -0.29  -0.35    -0.05  -0.05   0.17
                      4                      5                      6
                      A                      A                      A
 Frequencies --    283.2237               393.0336               402.1517
 Red. masses --      2.7345                 2.5119                 2.8109
 Frc consts  --      0.1292                 0.2286                 0.2678
 IR Inten    --      0.0000                 0.0000                 0.0000
  Atom  AN      X      Y      Z        X      Y      Z        X      Y      Z
     1   6    -0.05  -0.03   0.16    -0.01   0.22  -0.04     0.05  -0.04  -0.03
     2   6     0.16   0.00  -0.09     0.09   0.00   0.06    -0.02  -0.05   0.05
     3   1    -0.14  -0.10   0.16     0.01   0.47   0.05     0.30  -0.09  -0.14
     4   1    -0.04  -0.02   0.25    -0.05   0.20  -0.35    -0.12  -0.02   0.07
     5   1     0.38   0.02  -0.23     0.13  -0.12  -0.06    -0.16  -0.02   0.17
     6   6     0.16  -0.00  -0.09     0.09  -0.00   0.06     0.02  -0.05  -0.05
     7   6    -0.05   0.03   0.16    -0.01  -0.22  -0.04    -0.05  -0.04   0.03
     8   1     0.38  -0.02  -0.23     0.13   0.12  -0.06     0.16  -0.02  -0.17
     9   1    -0.04   0.02   0.25    -0.05  -0.20  -0.35     0.12  -0.02  -0.07
    10   1    -0.14   0.10   0.16     0.01  -0.47   0.05    -0.30  -0.09   0.14
    11   6    -0.11  -0.00  -0.07    -0.07  -0.00   0.01     0.24   0.10  -0.07
    12   6    -0.11   0.00  -0.07    -0.07   0.00   0.01    -0.24   0.10   0.07
    13   1     0.01   0.00  -0.15    -0.04  -0.01  -0.00     0.30   0.03  -0.06
    14   1    -0.28   0.00  -0.04    -0.09  -0.01   0.01     0.34   0.09  -0.09
    15   1    -0.28  -0.00  -0.04    -0.09   0.01   0.01    -0.34   0.09   0.09
    16   1     0.01  -0.00  -0.15    -0.04   0.01  -0.00    -0.30   0.03   0.06
                      7                      8                      9
                      A                      A                      A
 Frequencies --    486.8922               586.4225               611.2498
 Red. masses --      2.5421                 1.9717                 1.0948
 Frc consts  --      0.3551                 0.3995                 0.2410
 IR Inten    --      0.0000                 0.0000                 0.0000
  Atom  AN      X      Y      Z        X      Y      Z        X      Y      Z
     1   6    -0.09  -0.02   0.09     0.03   0.07   0.06    -0.00   0.00   0.02
     2   6     0.14  -0.01  -0.14     0.10  -0.11   0.11     0.02   0.00   0.01
     3   1    -0.30  -0.08   0.15     0.08   0.47   0.22     0.01  -0.02   0.00
     4   1     0.06  -0.03   0.08    -0.12   0.05  -0.34    -0.02   0.01   0.05
     5   1     0.40  -0.04  -0.34     0.20  -0.01   0.10     0.05  -0.01  -0.01
     6   6    -0.14  -0.01   0.14    -0.10  -0.11  -0.11     0.02  -0.00   0.01
     7   6     0.09  -0.02  -0.09    -0.03   0.07  -0.06    -0.00  -0.00   0.02
     8   1    -0.40  -0.04   0.34    -0.20  -0.01  -0.10     0.05   0.01  -0.01
     9   1    -0.06  -0.03  -0.08     0.12   0.05   0.34    -0.02  -0.01   0.05
    10   1     0.30  -0.08  -0.15    -0.08   0.47  -0.22     0.01   0.02   0.00
    11   6     0.10   0.03  -0.05    -0.00   0.00   0.00    -0.02  -0.00  -0.05
    12   6    -0.10   0.03   0.05     0.00   0.00  -0.00    -0.02   0.00  -0.05
    13   1     0.09   0.06  -0.07     0.03   0.00  -0.02    -0.45  -0.06   0.24
    14   1     0.04   0.00  -0.06    -0.03  -0.00   0.00     0.47   0.06  -0.08
    15   1    -0.04   0.00   0.06     0.03  -0.00  -0.00     0.47  -0.06  -0.08
    16   1    -0.09   0.06   0.07    -0.03   0.00   0.02    -0.45   0.06   0.24
                     10                     11                     12
                      A                      A                      A
 Frequencies --    688.6383               774.7801               813.1813
 Red. masses --      1.2151                 1.5246                 1.1087
 Frc consts  --      0.3395                 0.5392                 0.4319
 IR Inten    --      0.0000                 0.0000                 0.0000
  Atom  AN      X      Y      Z        X      Y      Z        X      Y      Z
     1   6     0.00  -0.05   0.01    -0.01  -0.04   0.01    -0.00   0.01   0.02
     2   6    -0.07   0.00   0.04    -0.12   0.03   0.06    -0.03  -0.03  -0.01
     3   1    -0.19   0.10   0.14    -0.29   0.11   0.18    -0.30   0.14   0.19
     4   1     0.33  -0.09  -0.28     0.44  -0.10  -0.31    -0.28   0.04   0.06
     5   1     0.37  -0.04  -0.30     0.11  -0.02  -0.14    -0.01  -0.02  -0.02
     6   6    -0.07  -0.00   0.04     0.12   0.03  -0.06    -0.03   0.03  -0.01
     7   6     0.00   0.05   0.01     0.01  -0.04  -0.01    -0.00  -0.01   0.02
     8   1     0.37   0.04  -0.30    -0.11  -0.02   0.14    -0.01   0.02  -0.02
     9   1     0.33   0.09  -0.28    -0.44  -0.10   0.31    -0.28  -0.04   0.06
    10   1    -0.19  -0.10   0.14     0.29   0.11  -0.18    -0.30  -0.14   0.19
    11   6     0.02  -0.00  -0.01     0.04   0.01  -0.01     0.02   0.04  -0.02
    12   6     0.02   0.00  -0.01    -0.04   0.01   0.01     0.02  -0.04  -0.02
    13   1    -0.02   0.01   0.00     0.10   0.01  -0.05     0.35  -0.16  -0.08
    14   1     0.01   0.00  -0.01     0.02  -0.01  -0.03     0.33   0.07  -0.05
    15   1     0.01  -0.00  -0.01    -0.02  -0.01   0.03     0.33  -0.07  -0.05
    16   1    -0.02  -0.01   0.00    -0.10   0.01   0.05     0.35   0.16  -0.08
                     13                     14                     15
                      A                      A                      A
 Frequencies --    842.3438               900.6197               946.3073
 Red. masses --      1.0308                 1.1492                 1.3316
 Frc consts  --      0.4309                 0.5492                 0.7026
 IR Inten    --      0.0000                 0.0000                 0.0000
  Atom  AN      X      Y      Z        X      Y      Z        X      Y      Z
     1   6     0.00   0.00   0.01    -0.03   0.00   0.01     0.03   0.08  -0.04
     2   6    -0.00  -0.01   0.00     0.02  -0.00  -0.01    -0.05   0.05   0.04
     3   1    -0.08   0.03   0.05     0.26  -0.05  -0.12     0.06  -0.27  -0.19
     4   1    -0.09   0.01   0.03     0.27  -0.04  -0.16     0.02   0.12   0.43
     5   1     0.01  -0.01  -0.01    -0.04   0.03   0.06     0.25  -0.11  -0.29
     6   6    -0.00   0.01   0.00    -0.02  -0.00   0.01    -0.05  -0.05   0.04
     7   6     0.00  -0.00   0.01     0.03   0.00  -0.01     0.03  -0.08  -0.04
     8   1     0.01   0.01  -0.01     0.04   0.03  -0.06     0.25   0.11  -0.29
     9   1    -0.09  -0.01   0.03    -0.27  -0.04   0.16     0.02  -0.12   0.43
    10   1    -0.08  -0.03   0.05    -0.26  -0.05   0.12     0.06   0.27  -0.19
    11   6     0.02   0.01   0.02     0.06  -0.01  -0.02    -0.02   0.00   0.01
    12   6     0.02  -0.01   0.02    -0.06  -0.01   0.02    -0.02  -0.00   0.01
    13   1    -0.10   0.42  -0.19    -0.34   0.11   0.14     0.11  -0.03  -0.04
    14   1     0.10  -0.43  -0.25    -0.36   0.12   0.12     0.06  -0.03  -0.02
    15   1     0.10   0.43  -0.25     0.36   0.12  -0.12     0.06   0.03  -0.02
    16   1    -0.10  -0.42  -0.19     0.34   0.11  -0.14     0.11   0.03  -0.04
                     16                     17                     18
                      A                      A                      A
 Frequencies --    967.1933               975.9878               989.4058
 Red. masses --      1.2903                 1.3289                 1.1256
 Frc consts  --      0.7111                 0.7458                 0.6492
 IR Inten    --      0.0000                 0.0000                 0.0000
  Atom  AN      X      Y      Z        X      Y      Z        X      Y      Z
     1   6    -0.02   0.07   0.05    -0.06   0.01   0.04     0.03  -0.01  -0.02
     2   6    -0.00   0.05  -0.05     0.05  -0.01  -0.05     0.00   0.00  -0.01
     3   1    -0.17  -0.10   0.03     0.21  -0.02  -0.07    -0.17   0.05   0.08
     4   1     0.56   0.03   0.03     0.33  -0.04  -0.19    -0.13   0.01   0.04
     5   1    -0.27   0.04   0.13    -0.26   0.03   0.20    -0.12  -0.00   0.07
     6   6    -0.00  -0.05  -0.05    -0.05  -0.01   0.05    -0.00   0.00   0.01
     7   6    -0.02  -0.07   0.05     0.06   0.01  -0.04    -0.03  -0.01   0.02
     8   1    -0.27  -0.04   0.13     0.26   0.03  -0.20     0.12  -0.00  -0.07
     9   1     0.56  -0.03   0.03    -0.33  -0.04   0.19     0.13   0.01  -0.04
    10   1    -0.17   0.10   0.03    -0.21  -0.02   0.07     0.17   0.05  -0.08
    11   6    -0.01   0.00  -0.00    -0.05   0.02   0.04     0.04  -0.00   0.04
    12   6    -0.01  -0.00  -0.00     0.05   0.02  -0.04    -0.04  -0.00  -0.04
    13   1     0.10  -0.02  -0.05     0.37  -0.07  -0.16     0.31   0.05  -0.16
    14   1     0.15  -0.05  -0.06     0.10  -0.07  -0.04    -0.53  -0.00   0.12
    15   1     0.15   0.05  -0.06    -0.10  -0.07   0.04     0.53  -0.00  -0.12
    16   1     0.10   0.02  -0.05    -0.37  -0.07   0.16    -0.31   0.05   0.16
                     19                     20                     21
                      A                      A                      A
 Frequencies --   1007.7101              1010.7710              1109.4472
 Red. masses --      1.1786                 1.1240                 1.5385
 Frc consts  --      0.7052                 0.6766                 1.1158
 IR Inten    --      0.0000                 0.0000                 0.0000
  Atom  AN      X      Y      Z        X      Y      Z        X      Y      Z
     1   6    -0.06  -0.03   0.03    -0.02   0.02  -0.00     0.03   0.12  -0.00
     2   6     0.01  -0.01  -0.00    -0.04  -0.01   0.04     0.02  -0.08   0.05
     3   1     0.46   0.01  -0.15     0.35  -0.11  -0.19    -0.22  -0.20  -0.03
     4   1     0.04  -0.05  -0.19     0.01   0.02   0.07     0.38   0.12   0.32
     5   1     0.11   0.06  -0.02     0.38  -0.08  -0.30    -0.13  -0.32  -0.02
     6   6     0.01   0.01  -0.00     0.04  -0.01  -0.04    -0.02  -0.08  -0.05
     7   6    -0.06   0.03   0.03     0.02   0.02   0.00    -0.03   0.12   0.00
     8   1     0.11  -0.06  -0.02    -0.38  -0.08   0.30     0.13  -0.32   0.02
     9   1     0.04   0.05  -0.19    -0.01   0.02  -0.07    -0.38   0.12  -0.32
    10   1     0.47  -0.01  -0.15    -0.35  -0.11   0.19     0.22  -0.20   0.03
    11   6    -0.05  -0.00   0.02    -0.02   0.00   0.03     0.00  -0.00  -0.00
    12   6    -0.05   0.00   0.02     0.02   0.00  -0.03    -0.00  -0.00   0.00
    13   1     0.27  -0.09  -0.11     0.23  -0.02  -0.10    -0.01   0.01   0.00
    14   1     0.29  -0.12  -0.09    -0.13  -0.02   0.03    -0.01  -0.00  -0.00
    15   1     0.29   0.12  -0.09     0.13  -0.02  -0.03     0.01  -0.00   0.00
    16   1     0.27   0.09  -0.11    -0.23  -0.02   0.10     0.01   0.01  -0.00
                     22                     23                     24
                      A                      A                      A
 Frequencies --   1113.8203              1250.5373              1264.9766
 Red. masses --      1.6571                 1.4159                 1.7676
 Frc consts  --      1.2112                 1.3046                 1.6665
 IR Inten    --      0.0000                 0.0000                 0.0000
  Atom  AN      X      Y      Z        X      Y      Z        X      Y      Z
     1   6     0.06   0.03   0.05    -0.01   0.00  -0.02    -0.01  -0.02  -0.06
     2   6    -0.08   0.11  -0.07     0.01  -0.00   0.02     0.04   0.04   0.05
     3   1     0.16   0.22   0.10    -0.03  -0.06  -0.04    -0.27  -0.10   0.00
     4   1    -0.12   0.06   0.02     0.01  -0.00  -0.01    -0.06  -0.02  -0.02
     5   1     0.17   0.57   0.05     0.05   0.08   0.05     0.10   0.26   0.16
     6   6    -0.08  -0.11  -0.07    -0.01  -0.00  -0.02     0.04  -0.04   0.05
     7   6     0.06  -0.03   0.05     0.01   0.00   0.02    -0.01   0.02  -0.06
     8   1     0.17  -0.57   0.05    -0.05   0.08  -0.05     0.10  -0.26   0.16
     9   1    -0.12  -0.06   0.02    -0.01  -0.00   0.01    -0.06   0.02  -0.02
    10   1     0.16  -0.22   0.10     0.03  -0.06   0.04    -0.27   0.10   0.00
    11   6     0.01   0.01  -0.00     0.04  -0.00   0.13    -0.02  -0.16   0.00
    12   6     0.01  -0.01  -0.00    -0.04  -0.00  -0.13    -0.02   0.16   0.00
    13   1    -0.06   0.03   0.02    -0.15   0.45  -0.07     0.07  -0.36   0.06
    14   1    -0.04   0.03   0.02     0.09  -0.45  -0.15     0.00  -0.36  -0.10
    15   1    -0.04  -0.03   0.02    -0.09  -0.45   0.15     0.00   0.36  -0.10
    16   1    -0.06  -0.03   0.02     0.15   0.45   0.07     0.07   0.36   0.06
                     25                     26                     27
                      A                      A                      A
 Frequencies --   1280.7295              1328.0753              1451.4020
 Red. masses --      1.4544                 1.5320                 1.2182
 Frc consts  --      1.4056                 1.5920                 1.5120
 IR Inten    --      0.0000                 0.0000                 0.0000
  Atom  AN      X      Y      Z        X      Y      Z        X      Y      Z
     1   6    -0.06   0.01  -0.09     0.06   0.00   0.07    -0.01  -0.00  -0.02
     2   6     0.05  -0.02   0.07    -0.05  -0.00  -0.06    -0.05  -0.06  -0.06
     3   1    -0.25  -0.26  -0.14     0.19   0.23   0.12     0.11   0.37   0.11
     4   1     0.05  -0.01  -0.03    -0.03   0.02   0.07     0.21   0.03   0.40
     5   1     0.24   0.43   0.25    -0.21  -0.39  -0.22     0.11   0.33   0.08
     6   6    -0.05  -0.02  -0.07    -0.05   0.00  -0.06     0.05  -0.06   0.06
     7   6     0.06   0.01   0.09     0.06  -0.00   0.07     0.01  -0.00   0.02
     8   1    -0.24   0.43  -0.25    -0.21   0.39  -0.22    -0.11   0.33  -0.08
     9   1    -0.05  -0.01   0.03    -0.03  -0.02   0.07    -0.21   0.03  -0.40
    10   1     0.25  -0.26   0.14     0.19  -0.23   0.12    -0.11   0.37  -0.11
    11   6    -0.01   0.00  -0.02     0.01  -0.10  -0.00     0.00  -0.00   0.00
    12   6     0.01   0.00   0.02     0.01   0.10  -0.00    -0.00  -0.00  -0.00
    13   1     0.08  -0.10  -0.00    -0.04  -0.22   0.10    -0.01   0.00   0.00
    14   1    -0.02   0.08   0.02    -0.08  -0.23  -0.05    -0.01  -0.00   0.00
    15   1     0.02   0.08  -0.02    -0.08   0.23  -0.05     0.01  -0.00  -0.00
    16   1    -0.08  -0.10   0.00    -0.04   0.22   0.10     0.01   0.00  -0.00
                     28                     29                     30
                      A                      A                      A
 Frequencies --   1491.1931              1517.6260              1570.2955
 Red. masses --      1.1080                 1.6307                 1.4534
 Frc consts  --      1.4517                 2.2128                 2.1115
 IR Inten    --      0.0000                 0.0000                 0.0000
  Atom  AN      X      Y      Z        X      Y      Z        X      Y      Z
     1   6    -0.00   0.00  -0.00    -0.03   0.01  -0.04     0.02   0.05   0.04
     2   6    -0.00  -0.00   0.00    -0.02  -0.16  -0.01    -0.02  -0.05  -0.01
     3   1    -0.01  -0.00  -0.00     0.09   0.31   0.06    -0.03  -0.31  -0.09
     4   1     0.00   0.00   0.00     0.27   0.03   0.41    -0.09   0.02  -0.24
     5   1     0.00   0.01   0.00     0.15   0.20   0.13     0.04   0.05   0.01
     6   6     0.00  -0.00  -0.00    -0.02   0.16  -0.01    -0.02   0.05  -0.01
     7   6     0.00   0.00   0.00    -0.03  -0.01  -0.04     0.02  -0.05   0.04
     8   1    -0.00   0.01  -0.00     0.15  -0.20   0.13     0.04  -0.05   0.01
     9   1    -0.00   0.00  -0.00     0.27  -0.03   0.41    -0.09  -0.02  -0.24
    10   1     0.01  -0.00   0.00     0.09  -0.31   0.06    -0.03   0.31  -0.09
    11   6    -0.01  -0.07   0.00     0.02   0.02  -0.00     0.02   0.11  -0.01
    12   6     0.01  -0.07  -0.00     0.02  -0.02  -0.00     0.02  -0.11  -0.01
    13   1     0.01   0.39  -0.30    -0.02  -0.10   0.10    -0.02  -0.27   0.28
    14   1     0.19   0.40   0.24    -0.08  -0.10  -0.06    -0.19  -0.27  -0.21
    15   1    -0.19   0.40  -0.24    -0.08   0.10  -0.06    -0.19   0.27  -0.21
    16   1    -0.01   0.39   0.30    -0.02   0.10   0.10    -0.02   0.27   0.28
                     31                     32                     33
                      A                      A                      A
 Frequencies --   1620.2336              1620.7467              3174.0898
 Red. masses --      2.5917                 2.4388                 1.0822
 Frc consts  --      4.0086                 3.7745                 6.4239
 IR Inten    --      0.0000                 0.0000                 0.0000
  Atom  AN      X      Y      Z        X      Y      Z        X      Y      Z
     1   6    -0.06  -0.09  -0.07     0.10   0.10   0.10    -0.00  -0.01  -0.00
     2   6     0.06   0.17   0.04    -0.11  -0.10  -0.11    -0.03   0.03  -0.04
     3   1     0.07   0.38   0.09    -0.06  -0.38  -0.04     0.02  -0.03   0.05
     4   1     0.07  -0.08   0.22    -0.16   0.09  -0.32     0.01   0.17  -0.02
     5   1    -0.10  -0.15  -0.05     0.09   0.37   0.04     0.35  -0.32   0.49
     6   6     0.06  -0.17   0.04     0.11  -0.10   0.11     0.03   0.03   0.04
     7   6    -0.06   0.09  -0.07    -0.10   0.10  -0.10     0.00  -0.01   0.00
     8   1    -0.10   0.14  -0.05    -0.09   0.37  -0.04    -0.35  -0.32  -0.49
     9   1     0.07   0.08   0.21     0.16   0.09   0.32    -0.01   0.17   0.02
    10   1     0.06  -0.37   0.08     0.06  -0.38   0.04    -0.02  -0.03  -0.05
    11   6     0.00   0.15  -0.00     0.00  -0.00  -0.00     0.00   0.00   0.00
    12   6     0.00  -0.15  -0.00    -0.00  -0.00   0.00    -0.00   0.00  -0.00
    13   1     0.04  -0.20   0.22    -0.01   0.00   0.01    -0.02  -0.02  -0.03
    14   1    -0.11  -0.20  -0.20    -0.01  -0.00   0.00     0.00  -0.01   0.02
    15   1    -0.11   0.20  -0.20     0.01  -0.00  -0.00    -0.00  -0.01  -0.02
    16   1     0.04   0.20   0.22     0.01   0.00  -0.01     0.02  -0.02   0.03
                     34                     35                     36
                      A                      A                      A
 Frequencies --   3184.2561              3184.3226              3191.0293
 Red. masses --      1.0556                 1.0630                 1.0593
 Frc consts  --      6.3062                 6.3509                 6.3550
 IR Inten    --      0.0000                 0.0000                 0.0000
  Atom  AN      X      Y      Z        X      Y      Z        X      Y      Z
     1   6     0.01   0.01   0.02     0.01   0.03   0.02    -0.02  -0.03  -0.03
     2   6    -0.01   0.00  -0.01     0.01  -0.02   0.02     0.01  -0.00   0.01
     3   1    -0.07   0.09  -0.20    -0.12   0.15  -0.33     0.13  -0.16   0.36
     4   1    -0.01  -0.21   0.02    -0.03  -0.45   0.05     0.03   0.44  -0.05
     5   1     0.05  -0.05   0.08    -0.19   0.18  -0.26    -0.06   0.06  -0.09
     6   6     0.01   0.00   0.01     0.01   0.02   0.02    -0.01  -0.00  -0.01
     7   6    -0.01   0.01  -0.02     0.01  -0.03   0.02     0.02  -0.03   0.03
     8   1    -0.06  -0.05  -0.08    -0.18  -0.17  -0.26     0.06   0.06   0.09
     9   1     0.01  -0.21  -0.02    -0.03   0.46   0.05    -0.03   0.44   0.05
    10   1     0.07   0.09   0.20    -0.12  -0.15  -0.33    -0.13  -0.16  -0.36
    11   6    -0.02  -0.04  -0.01    -0.00  -0.01  -0.00    -0.01  -0.02  -0.00
    12   6     0.02  -0.04   0.01    -0.00   0.01  -0.00     0.01  -0.02   0.00
    13   1     0.23   0.26   0.39     0.03   0.04   0.05     0.12   0.13   0.20
    14   1    -0.05   0.16  -0.29    -0.01   0.02  -0.04    -0.03   0.09  -0.17
    15   1     0.05   0.16   0.29    -0.01  -0.03  -0.04     0.03   0.09   0.17
    16   1    -0.23   0.26  -0.39     0.04  -0.04   0.06    -0.12   0.13  -0.20
                     37                     38                     39
                      A                      A                      A
 Frequencies --   3196.6059              3198.1558              3261.2384
 Red. masses --      1.0822                 1.0696                 1.1148
 Frc consts  --      6.5150                 6.4457                 6.9859
 IR Inten    --      0.0000                 0.0000                 0.0000
  Atom  AN      X      Y      Z        X      Y      Z        X      Y      Z
     1   6     0.01   0.01   0.02    -0.01  -0.01  -0.01     0.01  -0.05   0.03
     2   6    -0.02   0.02  -0.03     0.01  -0.01   0.02     0.00  -0.00   0.00
     3   1    -0.07   0.09  -0.20     0.07  -0.08   0.18    -0.14   0.16  -0.37
     4   1    -0.01  -0.14   0.01     0.01   0.19  -0.02     0.03   0.39  -0.03
     5   1     0.26  -0.24   0.36    -0.15   0.14  -0.22    -0.03   0.03  -0.05
     6   6    -0.02  -0.02  -0.03     0.01   0.01   0.02    -0.00  -0.00  -0.00
     7   6     0.01  -0.01   0.02    -0.01   0.01  -0.01    -0.01  -0.05  -0.03
     8   1     0.26   0.24   0.36    -0.15  -0.14  -0.22     0.03   0.03   0.05
     9   1    -0.01   0.14   0.01     0.01  -0.19  -0.02    -0.03   0.40   0.03
    10   1    -0.07  -0.09  -0.20     0.07   0.08   0.18     0.14   0.16   0.37
    11   6    -0.01  -0.03  -0.00    -0.01  -0.04  -0.00    -0.01   0.01  -0.04
    12   6    -0.01   0.03  -0.00    -0.01   0.04  -0.00     0.01   0.01   0.04
    13   1     0.15   0.16   0.25     0.21   0.23   0.35     0.09   0.10   0.14
    14   1    -0.03   0.11  -0.20    -0.04   0.16  -0.29     0.04  -0.17   0.28
    15   1    -0.03  -0.11  -0.20    -0.04  -0.16  -0.29    -0.04  -0.17  -0.28
    16   1     0.15  -0.16   0.25     0.21  -0.23   0.35    -0.09   0.10  -0.14
                     40                     41                     42
                      A                      A                      A
 Frequencies --   3262.3114              3266.4993              3287.4477
 Red. masses --      1.1150                 1.1136                 1.1161
 Frc consts  --      6.9917                 7.0007                 7.1067
 IR Inten    --      0.0000                 0.0000                 0.0000
  Atom  AN      X      Y      Z        X      Y      Z        X      Y      Z
     1   6     0.01  -0.06   0.04    -0.01   0.03  -0.02    -0.00   0.00  -0.00
     2   6     0.00  -0.00   0.01    -0.00   0.00  -0.00    -0.00   0.00  -0.00
     3   1    -0.16   0.18  -0.44     0.09  -0.11   0.26     0.01  -0.02   0.04
     4   1     0.04   0.48  -0.04    -0.02  -0.25   0.02    -0.00  -0.03   0.00
     5   1    -0.04   0.04  -0.06     0.02  -0.02   0.03     0.00  -0.00   0.00
     6   6     0.00   0.00   0.01     0.00   0.00   0.00    -0.00  -0.00  -0.00
     7   6     0.01   0.06   0.04     0.01   0.03   0.02    -0.00  -0.00  -0.00
     8   1    -0.04  -0.04  -0.06    -0.02  -0.02  -0.03     0.00   0.00   0.00
     9   1     0.04  -0.48  -0.04     0.02  -0.25  -0.02    -0.00   0.03   0.00
    10   1    -0.16  -0.18  -0.44    -0.09  -0.11  -0.26     0.01   0.02   0.04
    11   6    -0.00   0.00  -0.01    -0.02   0.01  -0.05    -0.02   0.01  -0.07
    12   6    -0.00  -0.00  -0.00     0.02   0.01   0.05    -0.02  -0.01  -0.07
    13   1     0.01   0.01   0.01     0.15   0.17   0.24     0.18   0.21   0.30
    14   1     0.01  -0.03   0.05     0.06  -0.25   0.42     0.07  -0.29   0.49
    15   1     0.01   0.03   0.05    -0.06  -0.25  -0.42     0.07   0.29   0.49
    16   1     0.01  -0.01   0.01    -0.15   0.17  -0.24     0.18  -0.21   0.30

 -------------------
 - Thermochemistry -
 -------------------
 Temperature   298.150 Kelvin.  Pressure   1.00000 Atm.
 Atom     1 has atomic number  6 and mass  12.00000
 Atom     2 has atomic number  6 and mass  12.00000
 Atom     3 has atomic number  1 and mass   1.00783
 Atom     4 has atomic number  1 and mass   1.00783
 Atom     5 has atomic number  1 and mass   1.00783
 Atom     6 has atomic number  6 and mass  12.00000
 Atom     7 has atomic number  6 and mass  12.00000
 Atom     8 has atomic number  1 and mass   1.00783
 Atom     9 has atomic number  1 and mass   1.00783
 Atom    10 has atomic number  1 and mass   1.00783
 Atom    11 has atomic number  6 and mass  12.00000
 Atom    12 has atomic number  6 and mass  12.00000
 Atom    13 has atomic number  1 and mass   1.00783
 Atom    14 has atomic number  1 and mass   1.00783
 Atom    15 has atomic number  1 and mass   1.00783
 Atom    16 has atomic number  1 and mass   1.00783
 Molecular mass:    82.07825 amu.
 Principal axes and moments of inertia in atomic units:
                           1         2         3
     Eigenvalues --   411.30596 521.30126 793.26497
           X            0.99976   0.00003   0.02191
           Y           -0.00003   1.00000  -0.00000
           Z           -0.02191   0.00000   0.99976
 This molecule is an asymmetric top.
 Rotational symmetry number  1.
 Rotational temperatures (Kelvin)      0.21058     0.16615     0.10919
 Rotational constants (GHZ):           4.38783     3.46199     2.27508
    1 imaginary frequencies ignored.
 Zero-point vibrational energy     369802.5 (Joules/Mol)
                                   88.38491 (Kcal/Mol)
 Warning -- explicit consideration of   8 degrees of freedom as
           vibrations may cause significant error
 Vibrational temperatures:    170.31   291.82   407.50   565.49   578.61
          (Kelvin)            700.53   843.73   879.45   990.80  1114.74
                             1169.99  1211.94  1295.79  1361.53  1391.58
                             1404.23  1423.53  1449.87  1454.27  1596.25
                             1602.54  1799.24  1820.02  1842.68  1910.80
                             2088.24  2145.49  2183.53  2259.31  2331.15
                             2331.89  4566.81  4581.43  4581.53  4591.18
                             4599.20  4601.43  4692.19  4693.74  4699.76
                             4729.90
 
 Zero-point correction=                           0.140850 (Hartree/Particle)
 Thermal correction to Energy=                    0.147317
 Thermal correction to Enthalpy=                  0.148261
 Thermal correction to Gibbs Free Energy=         0.111195
 Sum of electronic and zero-point Energies=           -234.425232
 Sum of electronic and thermal Energies=              -234.418765
 Sum of electronic and thermal Enthalpies=            -234.417821
 Sum of electronic and thermal Free Energies=         -234.454888
 
                     E (Thermal)             CV                S
                      KCal/Mol        Cal/Mol-Kelvin    Cal/Mol-Kelvin
 Total                   92.443             24.940             78.013
 Electronic               0.000              0.000              0.000
 Translational            0.889              2.981             39.129
 Rotational               0.889              2.981             26.633
 Vibrational             90.665             18.978             12.250
 Vibration     1          0.609              1.934              3.127
 Vibration     2          0.639              1.836              2.107
 Vibration     3          0.682              1.705              1.514
 Vibration     4          0.760              1.485              0.989
 Vibration     5          0.768              1.465              0.955
 Vibration     6          0.843              1.279              0.692
 Vibration     7          0.943              1.061              0.474
 Vibration     8          0.970              1.008              0.431
                       Q            Log10(Q)             Ln(Q)
 Total Bot       0.714373D-51        -51.146075       -117.768190
 Total V=0       0.437038D+14         13.640519         31.408456
 Vib (Bot)       0.165557D-63        -63.781052       -146.861301
 Vib (Bot)    1  0.172705D+01          0.237305          0.546416
 Vib (Bot)    2  0.982033D+00         -0.007874         -0.018130
 Vib (Bot)    3  0.677673D+00         -0.168980         -0.389090
 Vib (Bot)    4  0.455788D+00         -0.341237         -0.785726
 Vib (Bot)    5  0.442507D+00         -0.354080         -0.815299
 Vib (Bot)    6  0.341461D+00         -0.466659         -1.074521
 Vib (Bot)    7  0.258177D+00         -0.588083         -1.354111
 Vib (Bot)    8  0.241455D+00         -0.617164         -1.421073
 Vib (V=0)       0.101284D+02          1.005541          2.315345
 Vib (V=0)    1  0.229797D+01          0.361345          0.832028
 Vib (V=0)    2  0.160199D+01          0.204661          0.471249
 Vib (V=0)    3  0.134216D+01          0.127806          0.294284
 Vib (V=0)    4  0.117657D+01          0.070617          0.162601
 Vib (V=0)    5  0.116769D+01          0.067328          0.155029
 Vib (V=0)    6  0.110547D+01          0.043548          0.100272
 Vib (V=0)    7  0.106272D+01          0.026419          0.060833
 Vib (V=0)    8  0.105525D+01          0.023355          0.053776
 Electronic      0.100000D+01          0.000000          0.000000
 Translational   0.292278D+08          7.465796         17.190631
 Rotational      0.147632D+06          5.169182         11.902481
 ***** Axes restored to original set *****
 -------------------------------------------------------------------
 Center     Atomic                   Forces (Hartrees/Bohr)
 Number     Number              X              Y              Z
 -------------------------------------------------------------------
      1        6           0.001856170   -0.000050557   -0.000112467
      2        6           0.000028205    0.002883487    0.001328189
      3        1          -0.000366437    0.000231206    0.000809188
      4        1          -0.001006567    0.001586518   -0.000634410
      5        1          -0.000316538    0.000417964   -0.001144973
      6        6           0.000030644   -0.002879445    0.001325620
      7        6           0.001856076    0.000048453   -0.000111079
      8        1          -0.000315849   -0.000418203   -0.001145367
      9        1          -0.001006675   -0.001586387   -0.000634679
     10        1          -0.000364935   -0.000229477    0.000807979
     11        6          -0.000863347   -0.000298041    0.000497158
     12        6          -0.000863391    0.000297238    0.000498236
     13        1           0.000745495    0.000478596    0.001202180
     14        1          -0.000080702    0.000260222   -0.001943096
     15        1          -0.000075084   -0.000262154   -0.001945368
     16        1           0.000742934   -0.000479420    0.001202892
 -------------------------------------------------------------------
 Cartesian Forces:  Max     0.002883487 RMS     0.001061632
 Z-matrix is all fixed cartesians, so copy forces.
 Leave Link  716 at Fri May 23 09:08:21 2025, MaxMem=   104857600 cpu:               0.1 elap:               0.2
 (Enter /mlatom/software/Gaussian/g16-avx2/l103.exe)

 GradGradGradGradGradGradGradGradGradGradGradGradGradGradGradGradGradGrad
 Berny optimization.
 Search for a local minimum.
 Step number   1 out of a maximum of    2
 All quantities printed in internal units (Hartrees-Bohrs-Radians)
 Second derivative matrix not updated -- analytic derivatives used.
 ITU=  0
     Eigenvalues ---   -0.10734   0.00111   0.00620   0.00718   0.01225
     Eigenvalues ---    0.01388   0.01955   0.02010   0.02606   0.02810
     Eigenvalues ---    0.03042   0.03294   0.03390   0.04038   0.05267
     Eigenvalues ---    0.05995   0.06750   0.07463   0.08525   0.08593
     Eigenvalues ---    0.11598   0.12889   0.14091   0.14154   0.14578
     Eigenvalues ---    0.15519   0.17014   0.22335   0.25801   0.30744
     Eigenvalues ---    0.40345   0.53412   0.58395   0.72967   0.79200
     Eigenvalues ---    0.90353   0.92434   1.01526   1.07411   1.09307
     Eigenvalues ---    1.25296   1.27428
 Eigenvalue     1 is  -1.07D-01 should be greater than     0.000000 Eigenvector:
                          X12       X11       X7        X1        Z12
   1                    0.46947   0.46947  -0.41562  -0.41560  -0.15246
                          Z11       Z7        Z1        Y11       Y12
   1                   -0.15243   0.14300   0.14297  -0.11860   0.11849
 Angle between quadratic step and forces=  64.39 degrees.
 Linear search not attempted -- first point.
 B after Tr=     0.001620    0.000009    0.006698
         Rot=    1.000000   -0.000002   -0.000417    0.000001 Ang=  -0.05 deg.
 Variable       Old X    -DE/DX   Delta X   Delta X   Delta X     New X
                                 (Linear)    (Quad)   (Total)
    X1        3.83622   0.00186   0.00000   0.01172   0.01333   3.84955
    Y1        1.51984  -0.00005   0.00000   0.02195   0.02195   1.54179
    Z1        0.00000  -0.00011   0.00000  -0.00305   0.00045   0.00045
    X2        2.18905   0.00003   0.00000   0.00456   0.00495   2.19399
    Y2        0.16044   0.00288   0.00000   0.00181   0.00182   0.16225
    Z2       -1.49855   0.00133   0.00000   0.01452   0.01939  -1.47915
    X3        4.45959  -0.00037   0.00000  -0.00909  -0.00595   4.45363
    Y3        0.77551   0.00023   0.00000   0.05975   0.05974   0.83525
    Z3        1.80093   0.00081   0.00000   0.02210   0.02509   1.82602
    X4        3.97349  -0.00101   0.00000  -0.02937  -0.02791   3.94558
    Y4        3.55802   0.00159   0.00000   0.02707   0.02707   3.58509
    Z4       -0.16541  -0.00063   0.00000  -0.03611  -0.03268  -0.19809
    X5        1.15218  -0.00032   0.00000   0.01576   0.01490   1.16708
    Y5        1.13931   0.00042   0.00000  -0.01009  -0.01007   1.12923
    Z5       -2.97680  -0.00114   0.00000  -0.00631  -0.00058  -2.97738
    X6        2.18867   0.00003   0.00000   0.00459   0.00497   2.19364
    Y6       -2.49157  -0.00288   0.00000  -0.00168  -0.00167  -2.49324
    Z6       -1.49846   0.00133   0.00000   0.01436   0.01922  -1.47923
    X7        3.83553   0.00186   0.00000   0.01167   0.01328   3.84881
    Y7       -3.85132   0.00005   0.00000  -0.02199  -0.02199  -3.87331
    Z7        0.00011  -0.00011   0.00000  -0.00328   0.00020   0.00030
    X8        1.15150  -0.00032   0.00000   0.01585   0.01498   1.16648
    Y8       -3.47024  -0.00042   0.00000   0.01037   0.01039  -3.45986
    Z8       -2.97663  -0.00115   0.00000  -0.00660  -0.00089  -2.97753
    X9        3.97227  -0.00101   0.00000  -0.02941  -0.02797   3.94431
    Y9       -5.88955  -0.00159   0.00000  -0.02708  -0.02708  -5.91663
    Z9       -0.16522  -0.00063   0.00000  -0.03653  -0.03315  -0.19836
   X10        4.45915  -0.00036   0.00000  -0.00922  -0.00609   4.45306
   Y10       -3.10710  -0.00023   0.00000  -0.05994  -0.05995  -3.16705
   Z10        1.80099   0.00081   0.00000   0.02196   0.02494   1.82593
   X11        7.66024  -0.00086   0.00000  -0.01159  -0.01111   7.64913
   Y11        0.14071  -0.00030   0.00000   0.00358   0.00358   0.14429
   Z11       -1.37554   0.00050   0.00000   0.00291   0.00323  -1.37230
   X12        7.65979  -0.00086   0.00000  -0.01143  -0.01096   7.64883
   Y12       -2.47307   0.00030   0.00000  -0.00364  -0.00365  -2.47672
   Z12       -1.37583   0.00050   0.00000   0.00326   0.00357  -1.37226
   X13        8.59779   0.00075   0.00000   0.00468   0.00640   8.60420
   Y13        1.16671   0.00048   0.00000   0.00249   0.00248   1.16919
   Z13        0.12946   0.00120   0.00000  -0.00101  -0.00147   0.12799
   X14        7.43967  -0.00008   0.00000   0.00603   0.00504   7.44471
   Y14        1.18020   0.00026   0.00000  -0.01135  -0.01134   1.16885
   Z14       -3.12091  -0.00194   0.00000  -0.01411  -0.01360  -3.13452
   X15        7.43853  -0.00008   0.00000   0.00669   0.00569   7.44422
   Y15       -3.51205  -0.00026   0.00000   0.01074   0.01074  -3.50130
   Z15       -3.12142  -0.00195   0.00000  -0.01350  -0.01302  -3.13444
   X16        8.59716   0.00074   0.00000   0.00474   0.00645   8.60361
   Y16       -3.49977  -0.00048   0.00000  -0.00200  -0.00201  -3.50177
   Z16        0.12880   0.00120   0.00000  -0.00021  -0.00070   0.12810
         Item               Value     Threshold  Converged?
 Maximum Force            0.002883     0.000450     NO 
 RMS     Force            0.001062     0.000300     NO 
 Maximum Displacement     0.059945     0.001800     NO 
 RMS     Displacement     0.019096     0.001200     NO 
 Predicted change in Energy=-2.341358D-04
 GradGradGradGradGradGradGradGradGradGradGradGradGradGradGradGradGradGrad

 Leave Link  103 at Fri May 23 09:08:22 2025, MaxMem=   104857600 cpu:               0.1 elap:               0.1
 (Enter /mlatom/software/Gaussian/g16-avx2/l9999.exe)
 1\1\GINC-B004\Freq\RExternal='/mlatom/software/miniconda3/bin/python /
 mlatom/home/qhzhang/git/mlatom\ZDO\C6H10\UNKNOWN\23-May-2025\0\\#p fre
 q external='/mlatom/software/miniconda3/bin/python /mlatom/home/qhzhan
 g/git/mlatom/mlatom/interfaces/gaussian_interface.py model_predict_kwa
 rgs'\\b5b39261-35af-47a9-94d5-6395cbfdde0b\\0,1\C,2.03003877,0.8042635
 5,0.\C,1.15839277,0.08489955,-0.792996\H,2.35991077,0.41038255,0.95301
 \H,2.10268077,1.88282455,-0.087529\H,0.60970777,0.60289555,-1.575255\C
 ,1.15819377,-1.31848145,-0.792949\C,2.02967677,-2.03803045,0.000056\H,
 0.60934977,-1.83637245,-1.575166\H,2.10203677,-3.11661445,-0.08743\H,2
 .35967977,-1.64420645,0.953045\C,4.05362677,0.07446255,-0.727903\C,4.0
 5338577,-1.30869245,-0.728059\H,4.54975677,0.61739655,0.068506\H,3.936
 90377,0.62453355,-1.651517\H,3.93630077,-1.85849445,-1.651783\H,4.5494
 1977,-1.85199645,0.068156\\Version=ES64L-G16RevA.03\HF=-234.5660826\RM
 SD=0.000e+00\RMSF=1.062e-03\ZeroPoint=0.1408503\Thermal=0.1473172\Dipo
 le=0.3811,-0.0001001,0.0097\PG=C01 [X(C6H10)]\NImag=1\\0.23609514,0.12
 579080,0.67581357,0.25461313,-0.02180465,0.54915603,-0.16943452,-0.114
 85326,-0.14620369,0.39364150,-0.05506476,-0.18624586,-0.07915692,0.026
 72245,0.67773674,-0.12549260,-0.09234312,-0.20146353,0.29024262,-0.023
 94537,0.47695348,-0.04792650,0.02768369,-0.08357876,-0.01028583,0.0012
 8216,-0.02323101,0.06879587,0.02405797,-0.09727413,0.09724368,-0.00171
 799,0.01452929,-0.01270836,-0.03255953,0.09914037,-0.09769717,0.097581
 65,-0.27554797,-0.00319615,0.01194740,-0.00985894,0.09662027,-0.105371
 30,0.28627768,-0.03844416,-0.01654891,-0.00906422,0.00285832,-0.023723
 42,0.00346824,0.00134041,0.00886552,-0.00071651,0.03615019,-0.02364398
 ,-0.34305033,0.02866775,0.00206573,-0.01112434,0.00369472,-0.00097055,
 -0.00797975,-0.00040593,0.02456328,0.36174405,-0.01153448,0.02841320,-
 0.05281933,0.00084628,-0.01878516,0.00375395,0.00161238,0.02645747,0.0
 0083365,0.01051691,-0.02962896,0.04820964,-0.00316348,0.01064774,-0.01
 588455,-0.11638937,0.06053799,-0.11094584,0.00240193,-0.00318180,-0.00
 327495,-0.00260836,0.00060328,0.00271505,0.11520803,-0.00848121,0.0103
 8828,-0.01514780,0.06285727,-0.12065712,0.09738289,-0.00330087,-0.0009
 6374,-0.00179586,0.00084558,0.00091065,-0.00010725,-0.06922922,0.12748
 456,-0.01083192,0.00920393,-0.01231538,-0.11285113,0.10089802,-0.19125
 629,-0.00618056,-0.00075233,0.00120301,0.00332603,-0.00094697,-0.00103
 701,0.12585012,-0.10413217,0.19975883,0.01694139,-0.01768037,0.0033637
 0,-0.07637706,-0.01736611,-0.03217968,-0.00465003,0.00171177,0.0018995
 7,0.00051021,-0.00286310,-0.00468130,0.00271463,0.01808140,-0.00000493
 ,0.39364206,-0.06792597,-0.03574330,-0.02150700,0.01729227,-0.32115717
 ,0.03400428,0.00760340,-0.00337421,-0.00153556,-0.00005306,0.00042676,
 -0.00194103,0.00167839,-0.01222198,-0.00420529,-0.02662835,0.67775291,
 0.02043291,-0.01705775,0.01289069,-0.03218849,-0.03397898,-0.10389099,
 0.00018902,0.00113106,0.00087917,-0.00736317,-0.00106022,0.00161186,0.
 00087866,0.02479502,0.00182294,0.29025389,0.02385342,0.47693951,-0.052
 46967,-0.00594162,-0.00689716,0.01696251,0.06791178,0.02043479,0.00650
 382,-0.00244154,-0.00338081,-0.00048685,0.00016479,-0.00107206,0.00578
 647,-0.00158527,-0.00283951,-0.16940024,0.05506071,-0.12547603,0.23605
 135,0.00595107,-0.00506787,0.00522075,0.01766813,-0.03576317,0.0170545
 7,-0.00086101,-0.00133574,0.00099682,0.00167105,0.00007967,-0.00016940
 ,-0.00082237,-0.00563922,0.00033311,0.11484696,-0.18628311,0.09237389,
 -0.12566941,0.67587279,-0.00689597,-0.00521851,-0.00429193,0.00336709,
 0.02150639,0.01288813,0.00056382,-0.00330025,0.00042237,0.00048180,-0.
 00033704,-0.00138966,-0.00238266,-0.00172910,0.00270246,-0.14619242,0.
 07919295,-0.20146475,0.25463728,0.02173394,0.54914283,0.00578719,0.000
 81904,-0.00238196,0.00270930,-0.00168232,0.00087176,-0.00057464,-0.000
 12250,0.00035537,0.00026821,0.00003563,-0.00017867,-0.00205853,-0.0000
 2490,0.00216541,-0.11642798,-0.06054834,-0.11096975,-0.00316511,-0.010
 64471,-0.01588043,0.11525133,0.00158166,-0.00563991,0.00173033,-0.0180
 8555,-0.01221756,-0.02479441,0.00016948,0.00012843,-0.00016668,-0.0014
 5709,-0.00068985,-0.00075620,0.00002597,0.00117343,0.00033328,-0.06286
 736,-0.12063519,-0.09735490,0.00848447,0.01038910,0.01515077,0.0692422
 2,0.12745897,-0.00283992,-0.00033179,0.00270232,-0.00000273,0.00420599
 ,0.00182421,0.00044885,0.00045900,-0.00017739,-0.00020342,0.00011428,0
 .00017879,0.00216543,-0.00033400,-0.00042504,-0.11287674,-0.10086952,-
 0.19124094,-0.01083431,-0.00920222,-0.01231510,0.12587609,0.10410043,0
 .19974173,-0.00048807,-0.00167096,0.00048180,0.00051088,0.00005317,-0.
 00736281,-0.00054856,0.00003798,0.00049207,0.00068418,-0.00013726,-0.0
 0000637,0.00026870,0.00145691,-0.00020355,0.00286462,0.02372005,0.0034
 6657,-0.03843630,0.01646824,-0.00907247,-0.00260859,-0.00084442,0.0033
 2639,0.03613778,-0.00016486,0.00008009,0.00033681,0.00286296,0.0004262
 3,0.00106211,-0.00012407,0.00029486,0.00016587,0.00013707,-0.00008561,
 0.00003594,-0.00003588,-0.00069018,-0.00011418,-0.00206929,-0.01112974
 ,-0.00369465,0.02356351,-0.34306120,-0.02865400,-0.00060224,0.00091113
 ,0.00094605,-0.02447766,0.36175783,-0.00107154,0.00016976,-0.00138957,
 -0.00468101,0.00194197,0.00161202,0.00051483,0.00012715,0.00052473,-0.
 00000639,-0.00003593,0.00036476,-0.00017846,0.00075618,0.00017870,0.00
 085060,0.01878560,0.00375276,-0.01154199,-0.02839829,-0.05281614,0.002
 71516,0.00010645,-0.00103724,0.01052656,0.02961383,0.04820675,0.006504
 73,0.00085926,0.00056475,-0.00465210,-0.00760277,0.00018928,0.00089090
 ,0.00035756,-0.00011798,-0.00054859,0.00012430,0.00051489,-0.00057471,
 -0.00016923,0.00044875,-0.01028652,-0.00127751,-0.02322780,-0.04794666
 ,-0.02770137,-0.08360974,0.00240329,0.00329971,-0.00618062,0.00133874,
 0.00096815,0.00160524,0.06881681,0.00243942,-0.00133658,0.00329999,-0.
 00171149,-0.00337170,-0.00113103,-0.00035841,-0.00233390,-0.00081700,-
 0.00003775,0.00029481,-0.00012722,0.00012269,0.00012841,-0.00045911,0.
 00172459,0.01452941,0.01271277,-0.02407649,-0.09726576,-0.09722597,0.0
 0318077,-0.00096531,0.00075389,-0.00886899,-0.00797906,-0.02645754,0.0
 3257354,0.09912993,-0.00338185,-0.00099617,0.00042224,0.00190013,0.001
 53557,0.00087918,-0.00011778,0.00081732,0.00059539,0.00049211,-0.00016
 601,0.00052471,0.00035550,0.00016658,-0.00017743,-0.00319904,-0.011947
 44,-0.00985751,-0.09772872,-0.09756134,-0.27553514,-0.00327450,0.00179
 670,0.00120320,-0.00071626,0.00040623,0.00083438,0.09665346,0.10535132
 ,0.28626335,0.05666935,-0.01185971,-0.00055465,-0.03217098,-0.03902538
 ,-0.01462004,-0.01325716,0.00445237,0.00747581,0.00061540,-0.00037554,
 0.00087339,-0.00151094,-0.00032379,0.00110491,-0.01403106,0.03140091,-
 0.01129820,0.02894849,-0.00505432,0.00191648,-0.00093699,0.00042468,0.
 00072650,-0.00109657,0.00012320,0.00116027,-0.00367965,-0.00139682,0.0
 0284932,0.15666410,-0.06832802,-0.00871612,0.00131579,0.02442045,0.042
 77998,0.02027311,0.00801780,-0.00225936,-0.00555460,0.00563054,-0.0003
 0926,-0.00413810,0.00196204,0.00029934,-0.00160934,0.01615815,-0.04475
 248,0.01818368,-0.06077084,-0.00381243,-0.00160993,0.00233860,-0.00028
 004,-0.00136309,0.00029830,-0.00022676,-0.00094698,0.00677978,0.001489
 21,-0.00455982,0.11731426,0.68115115,-0.01845638,0.00398171,-0.0131991
 4,0.00504733,0.01064059,0.00417216,0.01079449,-0.00281486,-0.00593241,
 -0.00112049,0.00057199,0.00021056,0.00043598,0.00012913,-0.00068361,0.
 00086367,-0.01159903,0.00626674,-0.01139437,0.00286287,-0.00295299,0.0
 0045416,-0.00004908,-0.00019244,0.00048971,0.00007574,-0.00049208,0.00
 226584,0.00114565,-0.00089814,0.17474082,-0.04459137,0.59806395,0.0289
 6482,0.00504875,0.00191959,-0.01404501,-0.03140831,-0.01130121,-0.0036
 8140,0.00139850,0.00285026,-0.00109749,-0.00012278,0.00116101,-0.00093
 797,-0.00042441,0.00072703,-0.03216791,0.03904476,-0.01462583,0.056687
 84,0.01184510,-0.00056008,-0.00151097,0.00032428,0.00110514,0.00061523
 ,0.00037560,0.00087364,-0.01325794,-0.00444886,0.00747709,-0.07239307,
 0.04272853,-0.01262833,0.15663212,0.06076763,-0.00382743,0.00161349,-0
 .01616520,-0.04474225,-0.01818015,-0.00677933,0.00149105,0.00455904,-0
 .00029882,-0.00022649,0.00094720,-0.00233858,-0.00027923,0.00136291,-0
 .02440282,0.04277622,-0.02026962,0.06830885,-0.00873296,-0.00132151,-0
 .00196139,0.00029988,0.00160898,-0.00562927,-0.00030742,0.00413679,-0.
 00801355,-0.00225562,0.00555268,-0.04284494,-0.38794938,0.01488634,-0.
 11715868,0.68120951,-0.01138916,-0.00285741,-0.00295441,0.00086419,0.0
 1159638,0.00626519,0.00226499,-0.00114615,-0.00089765,0.00048878,-0.00
 007587,-0.00049143,0.00045388,0.00004898,-0.00019234,0.00504452,-0.010
 63745,0.00416964,-0.01845232,-0.00398156,-0.01319859,0.00043555,-0.000
 12949,-0.00068320,-0.00112169,-0.00057135,0.00021131,0.01079442,0.0028
 1213,-0.00593196,-0.01263691,-0.01495595,-0.10499889,0.17479788,0.0445
 6654,0.59804734,-0.01355046,-0.00124217,-0.00353201,0.00154609,0.00390
 712,0.00268177,0.00004790,-0.00077296,-0.00052732,0.00008675,0.0003670
 3,-0.00024742,0.00029971,0.00015443,-0.00018350,0.00050384,-0.00482326
 ,0.00193742,-0.00520975,0.00033268,-0.00038103,0.00028651,0.00004756,-
 0.00014618,0.00004039,-0.00003393,0.00000676,0.00035757,-0.00004960,-0
 .00021137,-0.08715325,-0.08121966,-0.11230317,0.00556839,0.00906573,-0
 .00016618,0.09572861,0.00244538,0.00101809,0.00021801,-0.00037928,-0.0
 0082335,-0.00017526,-0.00005202,0.00012171,0.00035736,0.00004066,-0.00
 009648,0.00010971,-0.00006001,0.00003347,0.00007603,0.00028418,0.00080
 533,-0.00023710,0.00089210,-0.00071691,-0.00026593,-0.00004545,-0.0000
 3155,0.00005137,-0.00015496,0.00005761,0.00012800,-0.00015120,-0.00002
 665,0.00008179,-0.07068763,-0.12236596,-0.10021351,-0.01405999,-0.0141
 5839,-0.02609764,0.07358549,0.13058758,0.00719863,0.00113388,0.0007429
 0,-0.00063892,-0.00246858,-0.00101990,0.00074327,-0.00008829,0.0011003
 4,-0.00047767,0.00007704,0.00006022,-0.00016945,-0.00002995,0.00030686
 ,-0.00064109,0.00273312,-0.00109974,0.00334987,0.00038648,0.00018042,-
 0.00012448,0.00005009,0.00008776,0.00003677,0.00005551,-0.00003915,-0.
 00033344,-0.00007951,0.00013090,-0.10977971,-0.09933101,-0.21239729,-0
 .00077865,-0.00206074,0.00359497,0.11273994,0.11378868,0.22136212,-0.0
 1454704,-0.00132711,0.00798506,0.00262952,0.00577194,0.00400267,-0.000
 17873,0.00002243,-0.00010488,0.00076272,0.00005844,-0.00045642,0.00010
 424,0.00011322,-0.00026470,0.00199063,-0.00486351,0.00130529,-0.005728
 68,-0.00060584,-0.00044960,0.00017311,-0.00007784,-0.00011629,-0.00013
 166,-0.00009676,-0.00006962,0.00076437,0.00015691,-0.00046623,-0.02784
 342,0.00096030,-0.03838584,0.00560845,0.00721255,-0.00063561,-0.000314
 64,0.00857271,-0.01151051,0.03526794,0.00237467,0.00093833,-0.00226815
 ,-0.00083091,-0.00075932,-0.00063892,0.00018817,-0.00014154,0.00009496
 ,0.00004492,0.00000708,-0.00003637,-0.00004271,0.00008691,0.00006557,-
 0.00013872,0.00058676,-0.00020864,0.00091044,-0.00062018,0.00002813,-0
 .00008706,-0.00002197,0.00000217,-0.00016543,0.00004164,0.00014593,0.0
 0008962,-0.00001673,-0.00002529,0.00955340,-0.12705225,0.12736773,0.00
 574384,-0.01383965,0.02847867,-0.00023048,0.00905554,-0.01415328,-0.01
 631095,0.13509917,0.00301958,0.00005281,-0.00240365,-0.00156265,-0.001
 58501,0.00065268,-0.00005218,-0.00022995,0.00030056,0.00015111,-0.0004
 1763,-0.00006441,0.00015836,0.00001847,0.00000272,-0.00029985,0.001617
 53,-0.00041124,0.00097425,-0.00046119,0.00029031,-0.00005255,-0.000028
 95,0.00002376,-0.00001007,-0.00000429,0.00009294,-0.00025807,-0.000096
 18,0.00014635,-0.04040860,0.13299197,-0.27507870,-0.00077260,-0.003839
 84,0.00451685,-0.00074510,0.01114091,-0.01527310,0.03952572,-0.1384922
 9,0.28444358,-0.00572378,0.00060639,-0.00044983,0.00199094,0.00485968,
 0.00130277,0.00076391,-0.00015710,-0.00046566,-0.00013137,0.00009669,-
 0.00006975,0.00017289,0.00007782,-0.00011606,0.00262644,-0.00577033,0.
 00400254,-0.01454147,0.00132964,0.00798769,0.00010403,-0.00011321,-0.0
 0026464,0.00076256,-0.00005858,-0.00045641,-0.00017951,-0.00002260,-0.
 00010439,0.00560160,-0.00721201,-0.00064346,-0.02786506,-0.00101642,-0
 .03847546,0.00595115,-0.00116778,-0.00208132,-0.00450611,0.00075396,0.
 00172159,0.03529284,-0.00090763,-0.00061971,-0.00002810,0.00013836,0.0
 0058465,0.00020795,-0.00008998,-0.00001668,0.00002554,0.00016529,0.000
 04153,-0.00014579,0.00008701,-0.00002203,-0.00000210,0.00082988,-0.000
 75727,0.00063752,-0.00236919,0.00093841,0.00226647,0.00004267,0.000086
 94,-0.00006556,-0.00004490,0.00000686,0.00003656,-0.00018839,-0.000141
 63,-0.00009489,-0.00575446,-0.01382844,-0.02848431,-0.00960301,-0.1269
 8976,-0.12731892,0.00184862,-0.00516175,-0.00011100,-0.00075173,0.0017
 9694,0.00047024,0.01636182,0.13502404,0.00097395,0.00046042,0.00029025
 ,-0.00030046,-0.00161739,-0.00041077,-0.00025804,0.00009622,0.00014623
 ,-0.00000999,0.00000430,0.00009286,-0.00005247,0.00002892,0.00002371,-
 0.00156212,0.00158534,0.00065293,0.00301944,-0.00005288,-0.00240484,0.
 00015845,-0.00001847,0.00000270,0.00015112,0.00041742,-0.00006458,-0.0
 0005186,0.00023005,0.00030048,-0.00077246,0.00383518,0.00451027,-0.040
 49850,-0.13294321,-0.27513461,-0.00138999,0.00113560,0.00192765,0.0017
 2259,-0.00047085,0.00083468,0.03962084,0.13844283,0.28450332,-0.005214
 95,-0.00033156,-0.00038122,0.00050579,0.00482678,0.00193930,0.00035812
 ,0.00004931,-0.00021193,0.00004045,0.00003401,0.00000658,0.00028675,-0
 .00004770,-0.00014639,0.00154696,-0.00391017,0.00268297,-0.01355576,0.
 00124617,-0.00352973,0.00029985,-0.00015456,-0.00018357,0.00008670,-0.
 00036722,-0.00024763,0.00004930,0.00077309,-0.00052748,0.00557413,-0.0
 0907820,-0.00015995,-0.08712003,0.08125423,-0.11226690,-0.00418882,0.0
 0093778,0.00246674,0.00594928,-0.00185278,-0.00138891,-0.00031903,0.00
 023564,-0.00075048,0.09570124,-0.00089218,-0.00071712,0.00026601,-0.00
 028392,0.00080497,0.00023697,0.00015108,-0.00002669,-0.00008174,0.0001
 5515,0.00005758,-0.00012807,0.00004546,-0.00003155,-0.00005136,0.00037
 920,-0.00082289,0.00017448,-0.00244233,0.00101859,-0.00021642,0.000059
 97,0.00003350,-0.00007600,-0.00004080,-0.00009628,-0.00010949,0.000052
 09,0.00012119,-0.00035723,0.01405378,-0.01416719,0.02609043,0.07071670
 ,-0.12246805,0.10026908,-0.00093659,0.00170172,0.00009753,0.00116524,-
 0.00516071,-0.00113661,-0.00856799,0.00905789,-0.01113350,-0.07361485,
 0.13069505,0.00335279,-0.00038795,0.00018045,-0.00064240,-0.00273490,-
 0.00110057,-0.00033358,0.00007958,0.00013120,0.00003686,-0.00005556,-0
 .00003917,-0.00012462,-0.00005006,0.00008787,-0.00063878,0.00247007,-0
 .00102107,0.00720165,-0.00113558,0.00074263,-0.00016960,0.00003012,0.0
 0030688,-0.00047778,-0.00007704,0.00006040,0.00074288,0.00008776,0.001
 10000,-0.00077693,0.00206043,0.00360200,-0.10974644,0.09938113,-0.2123
 2223,0.00246738,-0.00009804,0.00033503,-0.00208162,0.00011061,0.001926
 67,-0.01150843,0.01416355,-0.01527030,0.11269860,-0.11384410,0.2212802
 2\\-0.00185617,0.00005056,0.00011247,-0.00002821,-0.00288349,-0.001328
 19,0.00036644,-0.00023121,-0.00080919,0.00100657,-0.00158652,0.0006344
 1,0.00031654,-0.00041796,0.00114497,-0.00003064,0.00287944,-0.00132562
 ,-0.00185608,-0.00004845,0.00011108,0.00031585,0.00041820,0.00114537,0
 .00100667,0.00158639,0.00063468,0.00036494,0.00022948,-0.00080798,0.00
 086335,0.00029804,-0.00049716,0.00086339,-0.00029724,-0.00049824,-0.00
 074549,-0.00047860,-0.00120218,0.00008070,-0.00026022,0.00194310,0.000
 07508,0.00026215,0.00194537,-0.00074293,0.00047942,-0.00120289\\\@


 ... UNTIL SCIENCE IS MIXED WITH EMOTION AND APPEALS TO THE HEART AND
 IMAGINATION , IT IS LIKE DEAD INORGANIC MATTER; AND WHEN IT IS SO MIXED
 AND SO TRANSFORMED IT IS LITERATURE.

                                  -- JOHN BURROUGHS
 Job cpu time:       0 days  0 hours  0 minutes  1.0 seconds.
 Elapsed time:       0 days  0 hours  5 minutes 23.4 seconds.
 File lengths (MBytes):  RWF=     22 Int=      0 D2E=      0 Chk=      2 Scr=      2
 Normal termination of Gaussian 16 at Fri May 23 09:08:22 2025.
