 Entering Gaussian System, Link 0=/mlatom/software/Gaussian/g16-avx2/g16
 Input=gaussian.com
 Output=gaussian.log
 Initial command:
 /mlatom/software/Gaussian/g16-avx2/l1.exe "/mlatom/home/qhzhang/git/ts-analysis/calculations/C60/irc/pro_opt/c60_ani/Gau-51344.inp" -scrdir="/mlatom/home/qhzhang/git/ts-analysis/calculations/C60/irc/pro_opt/c60_ani/"
 Entering Link 1 = /mlatom/software/Gaussian/g16-avx2/l1.exe PID=     51345.
  
 Copyright (c) 1988,1990,1992,1993,1995,1998,2003,2009,2016,
            Gaussian, Inc.  All Rights Reserved.
  
 This is part of the Gaussian(R) 16 program.  It is based on
 the Gaussian(R) 09 system (copyright 2009, Gaussian, Inc.),
 the Gaussian(R) 03 system (copyright 2003, Gaussian, Inc.),
 the Gaussian(R) 98 system (copyright 1998, Gaussian, Inc.),
 the Gaussian(R) 94 system (copyright 1995, Gaussian, Inc.),
 the Gaussian 92(TM) system (copyright 1992, Gaussian, Inc.),
 the Gaussian 90(TM) system (copyright 1990, Gaussian, Inc.),
 the Gaussian 88(TM) system (copyright 1988, Gaussian, Inc.),
 the Gaussian 86(TM) system (copyright 1986, Carnegie Mellon
 University), and the Gaussian 82(TM) system (copyright 1983,
 Carnegie Mellon University). Gaussian is a federally registered
 trademark of Gaussian, Inc.
  
 This software contains proprietary and confidential information,
 including trade secrets, belonging to Gaussian, Inc.
  
 This software is provided under written license and may be
 used, copied, transmitted, or stored only in accord with that
 written license.
  
 The following legend is applicable only to US Government
 contracts under FAR:
  
                    RESTRICTED RIGHTS LEGEND
  
 Use, reproduction and disclosure by the US Government is
 subject to restrictions as set forth in subparagraphs (a)
 and (c) of the Commercial Computer Software - Restricted
 Rights clause in FAR 52.227-19.
  
 Gaussian, Inc.
 340 Quinnipiac St., Bldg. 40, Wallingford CT 06492
  
  
 ---------------------------------------------------------------
 Warning -- This program may not be used in any manner that
 competes with the business of Gaussian, Inc. or will provide
 assistance to any competitor of Gaussian, Inc.  The licensee
 of this program is prohibited from giving any competitor of
 Gaussian, Inc. access to this program.  By using this program,
 the user acknowledges that Gaussian, Inc. is engaged in the
 business of creating and licensing software in the field of
 computational chemistry and represents and warrants to the
 licensee that it is not a competitor of Gaussian, Inc. and that
 it will not use this program in any manner prohibited above.
 ---------------------------------------------------------------
  

 Cite this work as:
 Gaussian 16, Revision A.03,
 M. J. Frisch, G. W. Trucks, H. B. Schlegel, G. E. Scuseria, 
 M. A. Robb, J. R. Cheeseman, G. Scalmani, V. Barone, 
 G. A. Petersson, H. Nakatsuji, X. Li, M. Caricato, A. V. Marenich, 
 J. Bloino, B. G. Janesko, R. Gomperts, B. Mennucci, H. P. Hratchian, 
 J. V. Ortiz, A. F. Izmaylov, J. L. Sonnenberg, D. Williams-Young, 
 F. Ding, F. Lipparini, F. Egidi, J. Goings, B. Peng, A. Petrone, 
 T. Henderson, D. Ranasinghe, V. G. Zakrzewski, J. Gao, N. Rega, 
 G. Zheng, W. Liang, M. Hada, M. Ehara, K. Toyota, R. Fukuda, 
 J. Hasegawa, M. Ishida, T. Nakajima, Y. Honda, O. Kitao, H. Nakai, 
 T. Vreven, K. Throssell, J. A. Montgomery, Jr., J. E. Peralta, 
 F. Ogliaro, M. J. Bearpark, J. J. Heyd, E. N. Brothers, K. N. Kudin, 
 V. N. Staroverov, T. A. Keith, R. Kobayashi, J. Normand, 
 K. Raghavachari, A. P. Rendell, J. C. Burant, S. S. Iyengar, 
 J. Tomasi, M. Cossi, J. M. Millam, M. Klene, C. Adamo, R. Cammi, 
 J. W. Ochterski, R. L. Martin, K. Morokuma, O. Farkas, 
 J. B. Foresman, and D. J. Fox, Gaussian, Inc., Wallingford CT, 2016.
 
 ******************************************
 Gaussian 16:  ES64L-G16RevA.03 25-Dec-2016
                31-May-2024 
 ******************************************
 %nproc=1
 Will use up to    1 processors via shared memory.
 ----------------------------------------------------------------------
 #p freq external='/mlatom/software/miniconda3/bin/python /mlatom/softw
 are/mlatom/mlatom/interfaces/gaussian_interface.py model_predict_kwarg
 s'
 ----------------------------------------------------------------------
 1/10=4,18=10,30=1,38=1/1,3;
 2/12=2,17=6,18=5,40=1/2;
 3/11=9,25=1,30=1,41=9900000,43=2,71=2,140=1/1;
 4/20=17,22=2,24=3,113=1,114=1/2;
 6/7=2,8=2,9=2,10=2/1;
 7/8=1,25=1,44=-1/16;
 1/10=4,18=10,30=1/3;
 99//99;
 Leave Link    1 at Fri May 31 12:09:02 2024, MaxMem=           0 cpu:               0.0 elap:               0.2
 (Enter /mlatom/software/Gaussian/g16-avx2/l101.exe)
 ------------------------------------
 1279dcb9-7814-4b80-89bc-e6a67e2e93d4
 ------------------------------------
 Symbolic Z-matrix:
 Charge =  0 Multiplicity = 1
 C                    -1.96124   2.30105  -2.36845 
 C                    -0.54503   2.30557  -2.67358 
 C                     0.05927   1.17349  -3.22438 
 C                    -0.74141   0.00031  -3.5074 
 C                    -2.10698   0.00028  -3.22675 
 C                    -2.72997   1.17261  -2.64228 
 C                    -2.15539   3.02713  -1.12814 
 C                    -0.85541   3.47383  -0.6669 
 C                     0.13387   3.02194  -1.62614 
 C                     1.37774   2.56698  -1.17958 
 C                     1.35971   0.73926  -2.7681 
 C                     0.05928  -1.17292  -3.22458 
 C                    -0.54502  -2.3051   -2.67398 
 C                    -1.96123  -2.30063  -2.36885 
 C                    -2.72996  -1.17216  -2.64249 
 C                    -3.72393  -0.72427  -1.68744 
 C                    -3.72393   0.72456  -1.68731 
 C                    -3.91053   1.42126  -0.49457 
 C                    -3.11021   2.59542  -0.20909 
 C                    -0.56176   3.47367   0.69322 
 C                    -1.55453   3.02682   1.65055 
 C                    -2.80383   2.5953    1.2083 
 C                    -3.41451   1.42103   1.79883 
 C                    -4.10036   0.69641   0.74679 
 C                    -4.10036  -0.69654   0.74667 
 C                    -3.91053  -1.42118  -0.49482 
 C                    -3.1102   -2.59539  -0.20954 
 C                    -2.15538  -3.02693  -1.12866 
 C                     1.35972  -0.73877  -2.76823 
 C                     0.73507  -3.02041   1.15674 
 C                     1.68146  -2.56294   0.23601 
 C                     2.49963  -1.42055   0.51747 
 C                     2.32746  -0.73881   1.69604 
 C                     1.32906  -1.1738    2.64593 
 C                    -0.86477  -2.3009    2.69911 
 C                    -1.55453  -3.02711   1.65003 
 C                    -0.56175  -3.47379   0.69262 
 C                    -0.8554   -3.47371  -0.66751 
 C                     0.13388  -3.02165  -1.62667 
 C                     1.37774  -2.56676  -1.18002 
 C                     2.49962   1.42048   0.51771 
 C                     2.32746   0.73853   1.69617 
 C                     1.32905   1.17335   2.64613 
 C                     0.71665  -0.00028   3.23469 
 C                    -0.64344  -0.00031   3.54247 
 C                    -1.45186  -1.17275   3.26676 
 C                    -2.80382  -2.59551   1.20785 
 C                    -3.4145   -1.42135   1.79859 
 C                    -2.75152  -0.72465   2.80754 
 C                    -2.75152   0.72416   2.80767 
 C                    -1.45187   1.17218   3.26696 
 C                    -0.86477   2.30044   2.69951 
 C                     0.55108   2.30523   2.39214 
 C                     0.73506   3.02022   1.15726 
 C                     1.68145   2.56292   0.23646 
 C                     2.01238  -1.42563  -1.77484 
 C                     2.01238   1.42595  -1.7746 
 C                     0.55109  -2.30564   2.39174 
 C                     3.00245  -0.8014   -0.788 
 C                     3.00245   0.80155  -0.78786 
 C                     5.41901   0.67338  -0.09252 
 C                     5.41902  -0.67345  -0.09266 
 C                     6.20686   1.57376   0.8178 
 H                     6.84098   2.26568   0.24747 
 H                     5.53197   2.19087   1.42932 
 H                     6.84938   1.01384   1.50002 
 C                     6.20657  -1.57394   0.81781 
 H                     6.85027  -1.01412   1.49899 
 H                     5.53142  -2.18965   1.43049 
 H                     6.83933  -2.26718   0.24762 
 C                     4.45499  -1.32231  -1.05178 
 H                     4.72046  -1.10072  -2.09383 
 H                     4.45284  -2.4135   -0.94642 
 C                     4.45498   1.32247  -1.05152 
 H                     4.45289   2.41364  -0.94594 
 H                     4.72051   1.10113  -2.09361 
 
 ITRead=  0  0  0  0  0  0  0  0  0  0  0  0  0  0  0  0  0  0  0  0
 ITRead=  0  0  0  0  0  0  0  0  0  0  0  0  0  0  0  0  0  0  0  0
 ITRead=  0  0  0  0  0  0  0  0  0  0  0  0  0  0  0  0  0  0  0  0
 ITRead=  0  0  0  0  0  0  0  0  0  0  0  0  0  0  0  0
 MicOpt= -1 -1 -1 -1 -1 -1 -1 -1 -1 -1 -1 -1 -1 -1 -1 -1 -1 -1 -1 -1
 MicOpt= -1 -1 -1 -1 -1 -1 -1 -1 -1 -1 -1 -1 -1 -1 -1 -1 -1 -1 -1 -1
 MicOpt= -1 -1 -1 -1 -1 -1 -1 -1 -1 -1 -1 -1 -1 -1 -1 -1 -1 -1 -1 -1
 MicOpt= -1 -1 -1 -1 -1 -1 -1 -1 -1 -1 -1 -1 -1 -1 -1 -1
 NAtoms=     76 NQM=       76 NQMF=       0 NMMI=      0 NMMIF=      0
                NMic=       0 NMicF=      0.
                    Isotopes and Nuclear Properties:
 (Nuclear quadrupole moments (NQMom) in fm**2, nuclear magnetic moments (NMagM)
  in nuclear magnetons)

  Atom         1           2           3           4           5           6           7           8           9          10
 IAtWgt=          12          12          12          12          12          12          12          12          12          12
 AtmWgt=  12.0000000  12.0000000  12.0000000  12.0000000  12.0000000  12.0000000  12.0000000  12.0000000  12.0000000  12.0000000
 NucSpn=           0           0           0           0           0           0           0           0           0           0
 AtZEff=  -0.0000000  -0.0000000  -0.0000000  -0.0000000  -0.0000000  -0.0000000  -0.0000000  -0.0000000  -0.0000000  -0.0000000
 NQMom=    0.0000000   0.0000000   0.0000000   0.0000000   0.0000000   0.0000000   0.0000000   0.0000000   0.0000000   0.0000000
 NMagM=    0.0000000   0.0000000   0.0000000   0.0000000   0.0000000   0.0000000   0.0000000   0.0000000   0.0000000   0.0000000
 AtZNuc=   6.0000000   6.0000000   6.0000000   6.0000000   6.0000000   6.0000000   6.0000000   6.0000000   6.0000000   6.0000000

  Atom        11          12          13          14          15          16          17          18          19          20
 IAtWgt=          12          12          12          12          12          12          12          12          12          12
 AtmWgt=  12.0000000  12.0000000  12.0000000  12.0000000  12.0000000  12.0000000  12.0000000  12.0000000  12.0000000  12.0000000
 NucSpn=           0           0           0           0           0           0           0           0           0           0
 AtZEff=  -0.0000000  -0.0000000  -0.0000000  -0.0000000  -0.0000000  -0.0000000  -0.0000000  -0.0000000  -0.0000000  -0.0000000
 NQMom=    0.0000000   0.0000000   0.0000000   0.0000000   0.0000000   0.0000000   0.0000000   0.0000000   0.0000000   0.0000000
 NMagM=    0.0000000   0.0000000   0.0000000   0.0000000   0.0000000   0.0000000   0.0000000   0.0000000   0.0000000   0.0000000
 AtZNuc=   6.0000000   6.0000000   6.0000000   6.0000000   6.0000000   6.0000000   6.0000000   6.0000000   6.0000000   6.0000000

  Atom        21          22          23          24          25          26          27          28          29          30
 IAtWgt=          12          12          12          12          12          12          12          12          12          12
 AtmWgt=  12.0000000  12.0000000  12.0000000  12.0000000  12.0000000  12.0000000  12.0000000  12.0000000  12.0000000  12.0000000
 NucSpn=           0           0           0           0           0           0           0           0           0           0
 AtZEff=  -0.0000000  -0.0000000  -0.0000000  -0.0000000  -0.0000000  -0.0000000  -0.0000000  -0.0000000  -0.0000000  -0.0000000
 NQMom=    0.0000000   0.0000000   0.0000000   0.0000000   0.0000000   0.0000000   0.0000000   0.0000000   0.0000000   0.0000000
 NMagM=    0.0000000   0.0000000   0.0000000   0.0000000   0.0000000   0.0000000   0.0000000   0.0000000   0.0000000   0.0000000
 AtZNuc=   6.0000000   6.0000000   6.0000000   6.0000000   6.0000000   6.0000000   6.0000000   6.0000000   6.0000000   6.0000000

  Atom        31          32          33          34          35          36          37          38          39          40
 IAtWgt=          12          12          12          12          12          12          12          12          12          12
 AtmWgt=  12.0000000  12.0000000  12.0000000  12.0000000  12.0000000  12.0000000  12.0000000  12.0000000  12.0000000  12.0000000
 NucSpn=           0           0           0           0           0           0           0           0           0           0
 AtZEff=  -0.0000000  -0.0000000  -0.0000000  -0.0000000  -0.0000000  -0.0000000  -0.0000000  -0.0000000  -0.0000000  -0.0000000
 NQMom=    0.0000000   0.0000000   0.0000000   0.0000000   0.0000000   0.0000000   0.0000000   0.0000000   0.0000000   0.0000000
 NMagM=    0.0000000   0.0000000   0.0000000   0.0000000   0.0000000   0.0000000   0.0000000   0.0000000   0.0000000   0.0000000
 AtZNuc=   6.0000000   6.0000000   6.0000000   6.0000000   6.0000000   6.0000000   6.0000000   6.0000000   6.0000000   6.0000000

  Atom        41          42          43          44          45          46          47          48          49          50
 IAtWgt=          12          12          12          12          12          12          12          12          12          12
 AtmWgt=  12.0000000  12.0000000  12.0000000  12.0000000  12.0000000  12.0000000  12.0000000  12.0000000  12.0000000  12.0000000
 NucSpn=           0           0           0           0           0           0           0           0           0           0
 AtZEff=  -0.0000000  -0.0000000  -0.0000000  -0.0000000  -0.0000000  -0.0000000  -0.0000000  -0.0000000  -0.0000000  -0.0000000
 NQMom=    0.0000000   0.0000000   0.0000000   0.0000000   0.0000000   0.0000000   0.0000000   0.0000000   0.0000000   0.0000000
 NMagM=    0.0000000   0.0000000   0.0000000   0.0000000   0.0000000   0.0000000   0.0000000   0.0000000   0.0000000   0.0000000
 AtZNuc=   6.0000000   6.0000000   6.0000000   6.0000000   6.0000000   6.0000000   6.0000000   6.0000000   6.0000000   6.0000000

  Atom        51          52          53          54          55          56          57          58          59          60
 IAtWgt=          12          12          12          12          12          12          12          12          12          12
 AtmWgt=  12.0000000  12.0000000  12.0000000  12.0000000  12.0000000  12.0000000  12.0000000  12.0000000  12.0000000  12.0000000
 NucSpn=           0           0           0           0           0           0           0           0           0           0
 AtZEff=  -0.0000000  -0.0000000  -0.0000000  -0.0000000  -0.0000000  -0.0000000  -0.0000000  -0.0000000  -0.0000000  -0.0000000
 NQMom=    0.0000000   0.0000000   0.0000000   0.0000000   0.0000000   0.0000000   0.0000000   0.0000000   0.0000000   0.0000000
 NMagM=    0.0000000   0.0000000   0.0000000   0.0000000   0.0000000   0.0000000   0.0000000   0.0000000   0.0000000   0.0000000
 AtZNuc=   6.0000000   6.0000000   6.0000000   6.0000000   6.0000000   6.0000000   6.0000000   6.0000000   6.0000000   6.0000000

  Atom        61          62          63          64          65          66          67          68          69          70
 IAtWgt=          12          12          12           1           1           1          12           1           1           1
 AtmWgt=  12.0000000  12.0000000  12.0000000   1.0078250   1.0078250   1.0078250  12.0000000   1.0078250   1.0078250   1.0078250
 NucSpn=           0           0           0           1           1           1           0           1           1           1
 AtZEff=  -0.0000000  -0.0000000  -0.0000000  -0.0000000  -0.0000000  -0.0000000  -0.0000000  -0.0000000  -0.0000000  -0.0000000
 NQMom=    0.0000000   0.0000000   0.0000000   0.0000000   0.0000000   0.0000000   0.0000000   0.0000000   0.0000000   0.0000000
 NMagM=    0.0000000   0.0000000   0.0000000   2.7928460   2.7928460   2.7928460   0.0000000   2.7928460   2.7928460   2.7928460
 AtZNuc=   6.0000000   6.0000000   6.0000000   1.0000000   1.0000000   1.0000000   6.0000000   1.0000000   1.0000000   1.0000000

  Atom        71          72          73          74          75          76
 IAtWgt=          12           1           1          12           1           1
 AtmWgt=  12.0000000   1.0078250   1.0078250  12.0000000   1.0078250   1.0078250
 NucSpn=           0           1           1           0           1           1
 AtZEff=  -0.0000000  -0.0000000  -0.0000000  -0.0000000  -0.0000000  -0.0000000
 NQMom=    0.0000000   0.0000000   0.0000000   0.0000000   0.0000000   0.0000000
 NMagM=    0.0000000   2.7928460   2.7928460   0.0000000   2.7928460   2.7928460
 AtZNuc=   6.0000000   1.0000000   1.0000000   6.0000000   1.0000000   1.0000000
 Leave Link  101 at Fri May 31 12:09:04 2024, MaxMem=   104857600 cpu:               0.1 elap:               0.5
 (Enter /mlatom/software/Gaussian/g16-avx2/l103.exe)

 GradGradGradGradGradGradGradGradGradGradGradGradGradGradGradGradGradGrad
 Berny optimization.
 Initialization pass.
 Trust Radius=3.00D-01 FncErr=1.00D-07 GrdErr=1.00D-07 EigMax=2.50D+02 EigMin=1.00D-04
 Number of steps in this run=      2 maximum allowed number of steps=      2.
 GradGradGradGradGradGradGradGradGradGradGradGradGradGradGradGradGradGrad

 Leave Link  103 at Fri May 31 12:09:04 2024, MaxMem=   104857600 cpu:               0.0 elap:               0.1
 (Enter /mlatom/software/Gaussian/g16-avx2/l202.exe)
 Stoichiometry    C66H10
 Framework group  C1[X(C66H10)]
 Deg. of freedom   222
 Full point group                 C1      NOp   1
 Largest Abelian subgroup         C1      NOp   1
 Largest concise Abelian subgroup C1      NOp   1
                         Standard orientation:                         
 ---------------------------------------------------------------------
 Center     Atomic      Atomic             Coordinates (Angstroms)
 Number     Number       Type             X           Y           Z
 ---------------------------------------------------------------------
      1          6           0       -1.961242    2.301049   -2.368445
      2          6           0       -0.545030    2.305572   -2.673575
      3          6           0        0.059273    1.173492   -3.224375
      4          6           0       -0.741410    0.000308   -3.507401
      5          6           0       -2.106976    0.000281   -3.226746
      6          6           0       -2.729966    1.172614   -2.642284
      7          6           0       -2.155389    3.027128   -1.128139
      8          6           0       -0.855411    3.473828   -0.666904
      9          6           0        0.133869    3.021939   -1.626145
     10          6           0        1.377738    2.566983   -1.179581
     11          6           0        1.359715    0.739262   -2.768101
     12          6           0        0.059277   -1.172923   -3.224580
     13          6           0       -0.545022   -2.305100   -2.673977
     14          6           0       -1.961234   -2.300635   -2.368846
     15          6           0       -2.729963   -1.172155   -2.642489
     16          6           0       -3.723926   -0.724275   -1.687439
     17          6           0       -3.723928    0.724564   -1.687313
     18          6           0       -3.910532    1.421257   -0.494569
     19          6           0       -3.110209    2.595419   -0.209088
     20          6           0       -0.561759    3.473671    0.693219
     21          6           0       -1.554535    3.026825    1.650554
     22          6           0       -2.803827    2.595300    1.208299
     23          6           0       -3.414505    1.421031    1.798835
     24          6           0       -4.100363    0.696407    0.746793
     25          6           0       -4.100360   -0.696543    0.746672
     26          6           0       -3.910528   -1.421176   -0.494816
     27          6           0       -3.110202   -2.595385   -0.209540
     28          6           0       -2.155380   -3.026930   -1.128665
     29          6           0        1.359716   -0.738768   -2.768231
     30          6           0        0.735071   -3.020413    1.156735
     31          6           0        1.681455   -2.562943    0.236014
     32          6           0        2.499626   -1.420554    0.517466
     33          6           0        2.327459   -0.738811    1.696043
     34          6           0        1.329057   -1.173803    2.645933
     35          6           0       -0.864765   -2.300904    2.699107
     36          6           0       -1.554525   -3.027108    1.650027
     37          6           0       -0.561748   -3.473786    0.692616
     38          6           0       -0.855402   -3.473710   -0.667508
     39          6           0        0.133876   -3.021647   -1.626668
     40          6           0        1.377741   -2.566764   -1.180021
     41          6           0        2.499617    1.420477    0.517711
     42          6           0        2.327464    0.738531    1.696175
     43          6           0        1.329053    1.173348    2.646134
     44          6           0        0.716653   -0.000280    3.234688
     45          6           0       -0.643436   -0.000306    3.542471
     46          6           0       -1.451863   -1.172746    3.266757
     47          6           0       -2.803820   -2.595512    1.207847
     48          6           0       -3.414500   -1.421347    1.798587
     49          6           0       -2.751523   -0.724648    2.807542
     50          6           0       -2.751525    0.724158    2.807667
     51          6           0       -1.451866    1.172179    3.266961
     52          6           0       -0.864770    2.300438    2.699505
     53          6           0        0.551081    2.305233    2.392136
     54          6           0        0.735061    3.020216    1.157259
     55          6           0        1.681452    2.562918    0.236457
     56          6           0        2.012376   -1.425629   -1.774842
     57          6           0        2.012380    1.425955   -1.774598
     58          6           0        0.551088   -2.305643    2.391737
     59          6           0        3.002450   -0.801403   -0.788005
     60          6           0        3.002452    0.801554   -0.787864
     61          6           0        5.419011    0.673383   -0.092516
     62          6           0        5.419017   -0.673451   -0.092659
     63          6           0        6.206863    1.573756    0.817796
     64          1           0        6.840977    2.265678    0.247468
     65          1           0        5.531973    2.190868    1.429319
     66          1           0        6.849379    1.013843    1.500024
     67          6           0        6.206570   -1.573936    0.817808
     68          1           0        6.850269   -1.014119    1.498993
     69          1           0        5.531416   -2.189650    1.430490
     70          1           0        6.839335   -2.267182    0.247617
     71          6           0        4.454989   -1.322314   -1.051781
     72          1           0        4.720459   -1.100724   -2.093834
     73          1           0        4.452839   -2.413502   -0.946417
     74          6           0        4.454984    1.322474   -1.051525
     75          1           0        4.452890    2.413643   -0.945939
     76          1           0        4.720513    1.101126   -2.093611
 ---------------------------------------------------------------------
 Rotational constants (GHZ):           0.0812752           0.0567252           0.0561002
 Leave Link  202 at Fri May 31 12:09:05 2024, MaxMem=   104857600 cpu:               0.0 elap:               0.3
 (Enter /mlatom/software/Gaussian/g16-avx2/l301.exe)
 Standard basis: STO-3G (5D, 7F)
 Ernie: Thresh=  0.10000D-02 Tol=  0.10000D-05 Strict=F.
 There are   340 symmetry adapted cartesian basis functions of A   symmetry.
 There are   340 symmetry adapted basis functions of A   symmetry.
   340 basis functions,  1020 primitive gaussians,   340 cartesian basis functions
   203 alpha electrons      203 beta electrons
       nuclear repulsion energy      9956.8220137930 Hartrees.
 IExCor=    0 DFT=F Ex=HF Corr=None ExCW=0 ScaHFX=  1.000000
 ScaDFX=  1.000000  1.000000  1.000000  1.000000 ScalE2=  1.000000  1.000000
 IRadAn=      5 IRanWt=     -1 IRanGd=            0 ICorTp=0 IEmpDi=  4
 NAtoms=   76 NActive=   76 NUniq=   76 SFac= 1.00D+00 NAtFMM=   60 NAOKFM=T Big=T
 Integral buffers will be    131072 words long.
 Raffenetti 1 integral format.
 Two-electron integral symmetry is turned on.
 Leave Link  301 at Fri May 31 12:09:05 2024, MaxMem=   104857600 cpu:               0.0 elap:               0.4
 (Enter /mlatom/software/Gaussian/g16-avx2/l402.exe)
 External calculation of energy, first and second derivatives.
 Running external command "/mlatom/software/miniconda3/bin/python /mlatom/software/mlatom/mlatom/interfaces/gaussian_interface.py model_predict_kwargs R"
         input file       "/mlatom/home/qhzhang/git/ts-analysis/calculations/C60/irc/pro_opt/c60_ani/Gau-51345.EIn"
         output file      "/mlatom/home/qhzhang/git/ts-analysis/calculations/C60/irc/pro_opt/c60_ani/Gau-51345.EOu"
         message file     "/mlatom/home/qhzhang/git/ts-analysis/calculations/C60/irc/pro_opt/c60_ani/Gau-51345.EMs"
         fchk file        "/mlatom/home/qhzhang/git/ts-analysis/calculations/C60/irc/pro_opt/c60_ani/Gau-51345.EFC"
         mat. el file     "/mlatom/home/qhzhang/git/ts-analysis/calculations/C60/irc/pro_opt/c60_ani/Gau-51345.EUF"
model loaded from /mlatom/home/qhzhang/git/ts-analysis/calculations/C60/irc/pro_opt/c60_ani/c60_d4_energy_iteration43.npz
 Recovered energy= -2521.21749489     dipole=      0.000000000000      0.000000000000      0.000000000000
 Energy=    -2521.21749     NIter=   0.
 Dipole moment=       0.000000       0.000000       0.000000
 Leave Link  402 at Fri May 31 12:09:39 2024, MaxMem=   104857600 cpu:               0.0 elap:              33.7
 (Enter /mlatom/software/Gaussian/g16-avx2/l601.exe)
 Leave Link  601 at Fri May 31 12:09:43 2024, MaxMem=   104857600 cpu:               0.0 elap:               3.1
 (Enter /mlatom/software/Gaussian/g16-avx2/l716.exe)
 Dipole        = 0.00000000D+00 0.00000000D+00 0.00000000D+00
 Full mass-weighted force constant matrix:
 Low frequencies ---   -1.0826   -0.3112    0.2883    1.0518    1.8955    2.0464
 Low frequencies ---   58.0405   84.8026  104.8431
 Diagonal vibrational polarizability:
        0.0000000       0.0000000       0.0000000
 Harmonic frequencies (cm**-1), IR intensities (KM/Mole), Raman scattering
 activities (A**4/AMU), depolarization ratios for plane and unpolarized
 incident light, reduced masses (AMU), force constants (mDyne/A),
 and normal coordinates:
                      1                      2                      3
                      A                      A                      A
 Frequencies --     58.0405                84.8026               104.8431
 Red. masses --      3.8149                 3.6450                 3.1818
 Frc consts  --      0.0076                 0.0154                 0.0206
 IR Inten    --      0.0000                 0.0000                 0.0000
  Atom  AN      X      Y      Z        X      Y      Z        X      Y      Z
     1   6    -0.02  -0.00   0.00     0.02   0.01   0.01     0.02   0.00  -0.00
     2   6    -0.02  -0.00  -0.01     0.02  -0.00   0.01     0.02  -0.01  -0.00
     3   6    -0.02  -0.00  -0.02     0.01  -0.01   0.00     0.01  -0.02  -0.00
     4   6    -0.03  -0.00  -0.01    -0.00  -0.00  -0.00     0.00  -0.01   0.00
     5   6    -0.02  -0.00   0.00    -0.00   0.01   0.00     0.00  -0.00  -0.00
     6   6    -0.02  -0.00   0.01     0.01   0.02   0.00     0.01   0.01  -0.00
     7   6    -0.00  -0.00   0.00     0.03   0.01   0.01     0.02   0.00  -0.00
     8   6     0.00   0.00  -0.01     0.03  -0.01   0.01     0.03  -0.00  -0.00
     9   6    -0.01   0.00  -0.02     0.02  -0.01   0.01     0.02  -0.01  -0.00
    10   6    -0.00   0.00  -0.04     0.01  -0.03   0.01     0.01  -0.03  -0.00
    11   6    -0.02   0.00  -0.03     0.00  -0.02   0.00     0.00  -0.03  -0.00
    12   6    -0.02   0.00  -0.02    -0.01  -0.01  -0.00    -0.01  -0.02   0.00
    13   6    -0.02   0.00  -0.01    -0.02  -0.00  -0.01    -0.02  -0.01   0.00
    14   6    -0.02   0.00   0.00    -0.02   0.01  -0.01    -0.02   0.00   0.00
    15   6    -0.02   0.00   0.01    -0.01   0.02  -0.00    -0.01   0.01   0.00
    16   6    -0.01   0.00   0.02    -0.01   0.02  -0.00    -0.01   0.02   0.00
    17   6    -0.01  -0.00   0.02     0.01   0.02   0.00     0.01   0.02  -0.00
    18   6     0.01  -0.00   0.02     0.01   0.02   0.01     0.01   0.02  -0.00
    19   6     0.01   0.00   0.01     0.02   0.01   0.01     0.02   0.01  -0.00
    20   6     0.02   0.00  -0.01     0.03  -0.01   0.01     0.03  -0.01  -0.00
    21   6     0.03   0.00  -0.00     0.03  -0.01   0.01     0.02   0.00  -0.00
    22   6     0.02   0.00   0.01     0.02   0.00   0.01     0.02   0.01  -0.00
    23   6     0.03   0.00   0.02     0.01   0.01   0.01     0.01   0.02  -0.00
    24   6     0.02  -0.00   0.03     0.01   0.02   0.00     0.01   0.02  -0.00
    25   6     0.02   0.00   0.03    -0.01   0.02  -0.00    -0.01   0.02   0.00
    26   6     0.01   0.00   0.02    -0.01   0.02  -0.01    -0.01   0.02   0.00
    27   6     0.01  -0.00   0.01    -0.02   0.01  -0.01    -0.02   0.01   0.00
    28   6    -0.00   0.00   0.00    -0.03   0.01  -0.01    -0.02   0.00   0.00
    29   6    -0.02  -0.00  -0.03    -0.00  -0.02  -0.00    -0.00  -0.03   0.00
    30   6     0.02  -0.00  -0.03    -0.03  -0.03  -0.01    -0.02  -0.02   0.00
    31   6     0.01   0.00  -0.04    -0.02  -0.03  -0.01    -0.01  -0.03   0.00
    32   6     0.01   0.00  -0.05    -0.02  -0.03  -0.01     0.00  -0.03  -0.00
    33   6     0.02  -0.00  -0.04    -0.01  -0.04  -0.00    -0.00  -0.03   0.00
    34   6     0.04  -0.00  -0.03    -0.01  -0.04  -0.00    -0.01  -0.02  -0.00
    35   6     0.04  -0.00  -0.01    -0.02  -0.02  -0.01    -0.02  -0.00   0.00
    36   6     0.03  -0.00  -0.00    -0.03  -0.01  -0.01    -0.02   0.00   0.00
    37   6     0.02  -0.00  -0.01    -0.03  -0.01  -0.01    -0.03  -0.01   0.00
    38   6     0.00  -0.00  -0.01    -0.03  -0.01  -0.01    -0.03  -0.00   0.00
    39   6    -0.01  -0.00  -0.02    -0.02  -0.01  -0.01    -0.02  -0.01   0.00
    40   6    -0.00  -0.00  -0.04    -0.01  -0.03  -0.01    -0.01  -0.03   0.00
    41   6     0.01  -0.00  -0.05     0.02  -0.03   0.01    -0.00  -0.03   0.00
    42   6     0.02   0.00  -0.04     0.01  -0.04   0.00     0.00  -0.03   0.00
    43   6     0.04   0.00  -0.03     0.01  -0.04   0.00     0.01  -0.02   0.00
    44   6     0.04   0.00  -0.03     0.00  -0.03  -0.00    -0.00  -0.02   0.00
    45   6     0.05   0.00  -0.01     0.00  -0.02  -0.00    -0.00  -0.00   0.00
    46   6     0.05  -0.00  -0.00    -0.01  -0.02  -0.00    -0.01   0.00   0.00
    47   6     0.02  -0.00   0.01    -0.02   0.00  -0.01    -0.02   0.01   0.00
    48   6     0.03  -0.00   0.02    -0.01   0.01  -0.01    -0.01   0.02   0.00
    49   6     0.04  -0.00   0.01    -0.01  -0.00  -0.00    -0.01   0.01   0.00
    50   6     0.04   0.00   0.01     0.01  -0.00   0.00     0.01   0.01  -0.00
    51   6     0.05   0.00  -0.00     0.01  -0.02   0.00     0.01   0.00  -0.00
    52   6     0.04   0.00  -0.01     0.02  -0.02   0.01     0.02  -0.00  -0.00
    53   6     0.04   0.00  -0.03     0.02  -0.03   0.01     0.02  -0.02  -0.00
    54   6     0.02   0.00  -0.03     0.03  -0.03   0.01     0.02  -0.02  -0.00
    55   6     0.01  -0.00  -0.04     0.02  -0.03   0.01     0.01  -0.03  -0.00
    56   6    -0.00  -0.00  -0.04     0.01  -0.04  -0.01     0.00  -0.03  -0.00
    57   6    -0.00   0.00  -0.04    -0.01  -0.04   0.01    -0.00  -0.03   0.00
    58   6     0.04  -0.00  -0.03    -0.02  -0.03  -0.01    -0.02  -0.02   0.00
    59   6     0.00  -0.00  -0.05     0.01  -0.03   0.01     0.01  -0.03  -0.00
    60   6     0.00   0.00  -0.05    -0.01  -0.03  -0.01    -0.01  -0.03   0.00
    61   6    -0.07   0.00   0.09     0.00   0.09  -0.07    -0.04   0.06   0.02
    62   6    -0.07  -0.00   0.09    -0.00   0.09   0.07     0.04   0.06  -0.02
    63   6    -0.19  -0.00   0.21     0.03   0.19  -0.19    -0.21   0.09   0.14
    64   1    -0.12   0.02   0.31     0.01   0.12  -0.29    -0.28   0.24   0.24
    65   1    -0.28  -0.03   0.13     0.05   0.27  -0.25    -0.33  -0.06   0.16
    66   1    -0.28  -0.01   0.28     0.05   0.27  -0.14    -0.17   0.13   0.12
    67   6    -0.19   0.00   0.20    -0.03   0.19   0.19     0.21   0.09  -0.14
    68   1    -0.28   0.01   0.28    -0.05   0.27   0.14     0.17   0.13  -0.13
    69   1    -0.28   0.02   0.13    -0.05   0.27   0.25     0.33  -0.06  -0.16
    70   1    -0.12  -0.02   0.31    -0.01   0.12   0.30     0.28   0.24  -0.24
    71   6     0.01   0.00   0.00     0.03  -0.01   0.09     0.04   0.02   0.00
    72   1     0.08   0.03   0.03     0.06  -0.07   0.08     0.02   0.02  -0.00
    73   1     0.01   0.00  -0.01     0.07  -0.00   0.16     0.09   0.02   0.00
    74   6     0.01  -0.00   0.01    -0.03  -0.01  -0.09    -0.04   0.02  -0.00
    75   1     0.01  -0.00  -0.01    -0.07  -0.00  -0.16    -0.09   0.02  -0.01
    76   1     0.08  -0.03   0.03    -0.06  -0.07  -0.08    -0.02   0.02   0.00
                      4                      5                      6
                      A                      A                      A
 Frequencies --    136.6493               162.7917               193.9662
 Red. masses --      1.0247                 4.1557                 1.1867
 Frc consts  --      0.0113                 0.0649                 0.0263
 IR Inten    --      0.0000                 0.0000                 0.0000
  Atom  AN      X      Y      Z        X      Y      Z        X      Y      Z
     1   6    -0.00  -0.00   0.00    -0.04  -0.01  -0.00     0.00  -0.00  -0.00
     2   6    -0.00  -0.00   0.00    -0.04  -0.01  -0.01     0.00  -0.01  -0.00
     3   6    -0.00  -0.00   0.00    -0.04  -0.01  -0.01     0.00  -0.01  -0.00
     4   6    -0.00  -0.00   0.00    -0.05  -0.00  -0.00    -0.00  -0.01  -0.00
     5   6    -0.00  -0.00   0.00    -0.05  -0.00   0.01    -0.00  -0.00   0.00
     6   6    -0.00  -0.00   0.00    -0.05  -0.00   0.01     0.00  -0.00  -0.00
     7   6    -0.00   0.00   0.00    -0.03  -0.01  -0.00     0.01  -0.00  -0.00
     8   6    -0.00  -0.00  -0.00    -0.02  -0.01  -0.02     0.01  -0.00  -0.00
     9   6    -0.00  -0.00  -0.00    -0.03  -0.01  -0.03     0.00  -0.00  -0.00
    10   6    -0.00   0.00  -0.00    -0.01  -0.01  -0.05     0.00  -0.00  -0.00
    11   6    -0.00  -0.00   0.00    -0.03  -0.00  -0.03     0.00  -0.01  -0.00
    12   6    -0.00   0.00   0.00    -0.04   0.01  -0.01    -0.00  -0.01   0.00
    13   6    -0.00   0.00   0.00    -0.04   0.01  -0.01    -0.00  -0.01   0.00
    14   6    -0.00   0.00   0.00    -0.04   0.01  -0.00    -0.00  -0.00   0.00
    15   6    -0.00   0.00   0.00    -0.05   0.00   0.01    -0.00  -0.00   0.00
    16   6    -0.00   0.00   0.00    -0.04  -0.00   0.02    -0.00   0.00   0.00
    17   6    -0.00   0.00   0.00    -0.04   0.00   0.02     0.00   0.00  -0.00
    18   6    -0.00   0.00   0.00    -0.03   0.00   0.02     0.00   0.00  -0.00
    19   6    -0.00   0.00   0.00    -0.02  -0.00   0.01     0.01   0.00  -0.00
    20   6    -0.00   0.00  -0.00    -0.01  -0.01  -0.02     0.01  -0.00  -0.00
    21   6    -0.00   0.00  -0.00    -0.00  -0.00  -0.01     0.01  -0.00  -0.00
    22   6    -0.00   0.00   0.00    -0.01  -0.00   0.01     0.01   0.00  -0.00
    23   6    -0.00   0.00   0.00    -0.00   0.00   0.02     0.00   0.00  -0.00
    24   6    -0.00   0.00   0.00    -0.02   0.00   0.03     0.00   0.01  -0.00
    25   6    -0.00   0.00   0.00    -0.02  -0.00   0.03    -0.00   0.01   0.00
    26   6    -0.00  -0.00   0.00    -0.03  -0.00   0.02    -0.00   0.00   0.00
    27   6    -0.00  -0.00   0.00    -0.02   0.00   0.01    -0.01   0.00   0.00
    28   6    -0.00   0.00   0.00    -0.03   0.01  -0.00    -0.01  -0.00   0.00
    29   6    -0.00   0.00   0.00    -0.03   0.00  -0.03    -0.00  -0.01   0.00
    30   6    -0.00  -0.00  -0.00    -0.01   0.01  -0.04    -0.00  -0.01   0.00
    31   6    -0.00  -0.00  -0.00    -0.01   0.01  -0.05    -0.00  -0.01   0.00
    32   6     0.00  -0.00  -0.00    -0.02   0.01  -0.04     0.01  -0.01  -0.00
    33   6    -0.00  -0.00  -0.00    -0.00   0.00  -0.04     0.00  -0.01  -0.00
    34   6    -0.00   0.00  -0.00     0.01  -0.00  -0.03    -0.00  -0.01   0.00
    35   6    -0.00   0.00  -0.00     0.01   0.00  -0.02    -0.00  -0.00   0.00
    36   6    -0.00  -0.00  -0.00    -0.00   0.00  -0.01    -0.01  -0.00   0.00
    37   6    -0.00  -0.00  -0.00    -0.01   0.01  -0.02    -0.01  -0.00   0.00
    38   6    -0.00   0.00  -0.00    -0.02   0.01  -0.02    -0.01  -0.00   0.00
    39   6    -0.00   0.00  -0.00    -0.03   0.01  -0.03    -0.00  -0.00   0.00
    40   6    -0.00  -0.00  -0.00    -0.01   0.01  -0.05    -0.00  -0.00   0.00
    41   6     0.00   0.00  -0.00    -0.02  -0.01  -0.04    -0.01  -0.01   0.00
    42   6    -0.00   0.00  -0.00    -0.00  -0.00  -0.04    -0.00  -0.01   0.00
    43   6    -0.00  -0.00  -0.00     0.01   0.00  -0.03     0.00  -0.01  -0.00
    44   6    -0.00  -0.00  -0.00     0.02  -0.00  -0.03     0.00  -0.01  -0.00
    45   6    -0.00  -0.00  -0.00     0.02  -0.00  -0.02     0.00  -0.00  -0.00
    46   6    -0.00  -0.00  -0.00     0.02  -0.00  -0.01    -0.00  -0.00   0.00
    47   6    -0.00  -0.00   0.00    -0.01   0.00   0.01    -0.01   0.00   0.00
    48   6    -0.00  -0.00   0.00    -0.00  -0.00   0.02    -0.00   0.00   0.00
    49   6    -0.00   0.00   0.00     0.01  -0.00   0.01    -0.00   0.00   0.00
    50   6    -0.00   0.00   0.00     0.01   0.00   0.01     0.00   0.00  -0.00
    51   6    -0.00   0.00  -0.00     0.02   0.00  -0.01     0.00  -0.00  -0.00
    52   6    -0.00  -0.00  -0.00     0.01  -0.00  -0.02     0.00  -0.00  -0.00
    53   6    -0.00   0.00  -0.00     0.01  -0.00  -0.03     0.00  -0.01  -0.00
    54   6    -0.00   0.00  -0.00    -0.01  -0.01  -0.04     0.00  -0.01  -0.00
    55   6    -0.00   0.00  -0.00    -0.01  -0.01  -0.05     0.00  -0.01  -0.00
    56   6    -0.00  -0.00  -0.00     0.02  -0.00  -0.05    -0.00  -0.00   0.00
    57   6    -0.00  -0.00  -0.00     0.02   0.00  -0.05     0.00  -0.00  -0.00
    58   6    -0.00  -0.00  -0.00     0.01   0.00  -0.03    -0.00  -0.01   0.00
    59   6    -0.00   0.00   0.00     0.03  -0.00  -0.03     0.00   0.00  -0.00
    60   6    -0.00  -0.00   0.00     0.03   0.00  -0.03    -0.00   0.00   0.00
    61   6    -0.01  -0.00   0.01     0.04  -0.00   0.18     0.01   0.03   0.00
    62   6    -0.01   0.00   0.01     0.04   0.00   0.18    -0.01   0.03  -0.00
    63   6     0.02  -0.00  -0.01     0.20  -0.01   0.06     0.06   0.00  -0.00
    64   1     0.32  -0.29  -0.02     0.12  -0.03  -0.06    -0.23   0.25  -0.02
    65   1     0.04   0.29  -0.29     0.32   0.02   0.17     0.09  -0.26   0.30
    66   1    -0.27  -0.03   0.25     0.30  -0.01  -0.04     0.33  -0.02  -0.28
    67   6     0.02   0.00  -0.01     0.20   0.01   0.06    -0.06   0.00   0.00
    68   1    -0.27   0.03   0.25     0.30   0.01  -0.05    -0.33  -0.02   0.28
    69   1     0.04  -0.29  -0.29     0.32  -0.02   0.17    -0.09  -0.26  -0.30
    70   1     0.33   0.29  -0.02     0.12   0.03  -0.06     0.23   0.25   0.02
    71   6     0.00   0.00   0.00     0.06  -0.02   0.15     0.00   0.04  -0.03
    72   1     0.01   0.02   0.01     0.18  -0.10   0.16    -0.00   0.09  -0.02
    73   1     0.01   0.01  -0.01     0.04  -0.02   0.22     0.03   0.04  -0.07
    74   6     0.00  -0.00   0.00     0.06   0.02   0.15    -0.00   0.04   0.03
    75   1     0.01  -0.00  -0.01     0.04   0.02   0.22    -0.03   0.04   0.07
    76   1     0.01  -0.02   0.01     0.18   0.10   0.16     0.00   0.09   0.02
                      7                      8                      9
                      A                      A                      A
 Frequencies --    206.7729               233.1730               252.8107
 Red. masses --      2.4163                 6.5538                11.8166
 Frc consts  --      0.0609                 0.2099                 0.4450
 IR Inten    --      0.0000                 0.0000                 0.0000
  Atom  AN      X      Y      Z        X      Y      Z        X      Y      Z
     1   6     0.02  -0.01  -0.01    -0.02  -0.02   0.04     0.05  -0.12   0.11
     2   6     0.01  -0.02  -0.01    -0.01  -0.03   0.06     0.03  -0.14   0.13
     3   6     0.01  -0.02  -0.01     0.01  -0.01   0.06     0.00  -0.13   0.11
     4   6     0.00  -0.02  -0.00     0.00  -0.00   0.08    -0.00  -0.11  -0.00
     5   6     0.00  -0.02  -0.00    -0.01  -0.00   0.07    -0.00  -0.09  -0.00
     6   6     0.01  -0.01  -0.01    -0.03  -0.01   0.04     0.05  -0.09   0.06
     7   6     0.02  -0.00  -0.01    -0.03  -0.02   0.03     0.05  -0.08   0.08
     8   6     0.02  -0.01  -0.01    -0.02  -0.03   0.02     0.03  -0.05   0.09
     9   6     0.02  -0.01  -0.02     0.00  -0.03   0.04     0.01  -0.10   0.11
    10   6     0.01  -0.01  -0.01     0.03  -0.01   0.01     0.00  -0.07   0.11
    11   6     0.00  -0.02  -0.00     0.04  -0.00   0.02    -0.01  -0.12   0.09
    12   6    -0.01  -0.02   0.01     0.01   0.01   0.06    -0.00  -0.13  -0.11
    13   6    -0.01  -0.02   0.01    -0.01   0.03   0.06    -0.03  -0.14  -0.13
    14   6    -0.02  -0.01   0.01    -0.02   0.02   0.04    -0.05  -0.12  -0.11
    15   6    -0.01  -0.01   0.01    -0.03   0.01   0.04    -0.05  -0.09  -0.06
    16   6    -0.01   0.01   0.00    -0.07  -0.00   0.02    -0.03  -0.06  -0.03
    17   6     0.01   0.01  -0.00    -0.07   0.00   0.02     0.03  -0.06   0.03
    18   6     0.01   0.01  -0.01    -0.09   0.01   0.01     0.04  -0.03   0.03
    19   6     0.02   0.00  -0.01    -0.06  -0.01   0.01     0.03  -0.03   0.06
    20   6     0.02  -0.01  -0.01    -0.02  -0.03   0.00     0.02   0.05   0.09
    21   6     0.02  -0.00  -0.01    -0.04  -0.03  -0.01     0.00   0.07   0.09
    22   6     0.02   0.01  -0.01    -0.06  -0.01   0.01     0.01   0.03   0.06
    23   6     0.01   0.01  -0.01    -0.09   0.00   0.01    -0.02   0.03   0.04
    24   6     0.01   0.02  -0.00    -0.11   0.00   0.02     0.01   0.00   0.02
    25   6    -0.01   0.02   0.00    -0.11  -0.00   0.02    -0.01   0.00  -0.02
    26   6    -0.01   0.01   0.01    -0.09  -0.01   0.01    -0.04  -0.03  -0.03
    27   6    -0.02   0.00   0.01    -0.06   0.01   0.01    -0.03  -0.03  -0.06
    28   6    -0.02  -0.00   0.01    -0.03   0.02   0.03    -0.05  -0.08  -0.08
    29   6    -0.00  -0.02   0.00     0.04   0.00   0.02     0.01  -0.11  -0.09
    30   6    -0.01  -0.02   0.00    -0.01   0.03  -0.02    -0.04   0.10  -0.11
    31   6    -0.00  -0.02   0.00     0.04   0.00  -0.00    -0.04   0.07  -0.10
    32   6     0.02  -0.03  -0.00     0.11  -0.02  -0.01    -0.08   0.09  -0.09
    33   6     0.00  -0.03  -0.00     0.04  -0.00  -0.03    -0.05   0.11  -0.08
    34   6    -0.00  -0.03   0.00    -0.01   0.02  -0.06    -0.05   0.12  -0.10
    35   6    -0.02  -0.01   0.01    -0.04   0.03  -0.03    -0.01   0.11  -0.12
    36   6    -0.02  -0.00   0.01    -0.04   0.03  -0.01    -0.00   0.07  -0.09
    37   6    -0.02  -0.01   0.01    -0.02   0.03   0.00    -0.02   0.05  -0.09
    38   6    -0.02  -0.01   0.01    -0.02   0.03   0.02    -0.03  -0.05  -0.09
    39   6    -0.02  -0.01   0.02     0.00   0.03   0.04    -0.01  -0.10  -0.11
    40   6    -0.01  -0.01   0.01     0.03   0.01   0.01    -0.00  -0.07  -0.11
    41   6    -0.02  -0.03   0.00     0.11   0.02  -0.01     0.08   0.09   0.09
    42   6    -0.00  -0.03   0.00     0.04   0.00  -0.03     0.05   0.11   0.08
    43   6     0.00  -0.03  -0.00    -0.01  -0.02  -0.06     0.05   0.12   0.10
    44   6    -0.00  -0.03   0.00    -0.03   0.00  -0.08     0.00   0.10   0.00
    45   6    -0.00  -0.01   0.00    -0.04   0.00  -0.06     0.00   0.09   0.00
    46   6    -0.01  -0.00   0.00    -0.05   0.01  -0.03     0.01   0.09  -0.07
    47   6    -0.02   0.01   0.01    -0.06   0.01   0.01    -0.01   0.03  -0.06
    48   6    -0.01   0.01   0.01    -0.09  -0.00   0.01     0.02   0.03  -0.04
    49   6    -0.01   0.01   0.00    -0.08   0.00   0.00     0.01   0.06  -0.04
    50   6     0.01   0.01  -0.00    -0.08  -0.00   0.00    -0.01   0.06   0.04
    51   6     0.01  -0.00  -0.00    -0.05  -0.01  -0.03    -0.01   0.09   0.07
    52   6     0.02  -0.01  -0.01    -0.04  -0.03  -0.03     0.01   0.11   0.12
    53   6     0.01  -0.02  -0.00    -0.03  -0.03  -0.04     0.04   0.13   0.14
    54   6     0.01  -0.02  -0.00    -0.01  -0.03  -0.02     0.04   0.10   0.11
    55   6     0.00  -0.02  -0.00     0.04  -0.00  -0.00     0.04   0.07   0.10
    56   6    -0.00  -0.01   0.01     0.08  -0.01  -0.01     0.04  -0.09  -0.11
    57   6     0.00  -0.01  -0.01     0.08   0.01  -0.01    -0.04  -0.09   0.11
    58   6    -0.01  -0.02   0.00    -0.03   0.03  -0.04    -0.04   0.13  -0.14
    59   6     0.01   0.01  -0.01     0.14  -0.02  -0.03    -0.01   0.01  -0.07
    60   6    -0.01   0.01   0.01     0.14   0.02  -0.03     0.01   0.01   0.07
    61   6     0.01   0.09   0.05     0.20   0.00  -0.11     0.01   0.02   0.00
    62   6    -0.01   0.09  -0.05     0.20  -0.00  -0.11    -0.01   0.02  -0.00
    63   6     0.09   0.02   0.05     0.01  -0.02   0.08     0.02  -0.01   0.02
    64   1     0.32  -0.19   0.05     0.08   0.07   0.26     0.04  -0.00   0.04
    65   1     0.16   0.24  -0.10    -0.14  -0.10   0.00     0.03  -0.01   0.03
    66   1    -0.11  -0.05   0.19    -0.09  -0.03   0.16     0.01  -0.03   0.02
    67   6    -0.09   0.02  -0.05     0.01   0.02   0.08    -0.02  -0.01  -0.02
    68   1     0.11  -0.05  -0.19    -0.09   0.03   0.16    -0.01  -0.03  -0.02
    69   1    -0.16   0.24   0.10    -0.14   0.10   0.00    -0.03  -0.01  -0.03
    70   1    -0.32  -0.19  -0.05     0.08  -0.07   0.26    -0.04  -0.00  -0.04
    71   6     0.02   0.13  -0.10     0.18   0.02  -0.11    -0.00   0.03  -0.01
    72   1    -0.04   0.27  -0.08     0.11   0.08  -0.11     0.02   0.03  -0.01
    73   1     0.09   0.12  -0.22     0.21   0.01  -0.18     0.01   0.03  -0.02
    74   6    -0.02   0.13   0.10     0.18  -0.02  -0.11     0.00   0.03   0.01
    75   1    -0.09   0.12   0.22     0.21  -0.01  -0.18    -0.01   0.03   0.02
    76   1     0.04   0.27   0.08     0.11  -0.08  -0.11    -0.02   0.03   0.01
                     10                     11                     12
                      A                      A                      A
 Frequencies --    256.7644               264.9762               267.6579
 Red. masses --     11.7174                10.3300                11.8506
 Frc consts  --      0.4551                 0.4273                 0.5002
 IR Inten    --      0.0000                 0.0000                 0.0000
  Atom  AN      X      Y      Z        X      Y      Z        X      Y      Z
     1   6    -0.03  -0.05  -0.08     0.07  -0.04   0.00    -0.09   0.02  -0.03
     2   6    -0.02  -0.06  -0.08     0.06   0.04  -0.04    -0.08  -0.01   0.05
     3   6    -0.01  -0.02  -0.15     0.03   0.04  -0.04    -0.10  -0.02   0.12
     4   6    -0.04   0.00  -0.18    -0.00   0.02   0.00    -0.10  -0.00   0.07
     5   6    -0.07   0.00  -0.16    -0.00  -0.03  -0.00    -0.12   0.00  -0.03
     6   6    -0.07  -0.01  -0.12     0.05  -0.04   0.02    -0.13   0.03  -0.07
     7   6     0.01  -0.13  -0.02     0.11  -0.08   0.00    -0.06   0.05  -0.04
     8   6     0.01  -0.20   0.00     0.10  -0.01  -0.02    -0.03   0.02   0.00
     9   6    -0.02  -0.16  -0.01     0.09   0.07  -0.05    -0.04  -0.03   0.05
    10   6    -0.03  -0.15   0.01     0.12   0.13  -0.04    -0.04  -0.01   0.09
    11   6    -0.00  -0.01  -0.10     0.03   0.07  -0.02    -0.12  -0.02   0.17
    12   6    -0.01   0.02  -0.15    -0.03   0.04   0.04    -0.10   0.02   0.11
    13   6    -0.02   0.06  -0.08    -0.06   0.04   0.04    -0.08   0.01   0.05
    14   6    -0.03   0.05  -0.08    -0.07  -0.04  -0.00    -0.09  -0.02  -0.03
    15   6    -0.07   0.01  -0.12    -0.05  -0.04  -0.02    -0.13  -0.03  -0.07
    16   6    -0.05   0.01  -0.07    -0.04  -0.07  -0.00    -0.16  -0.02  -0.10
    17   6    -0.05  -0.01  -0.07     0.04  -0.07   0.00    -0.16   0.02  -0.10
    18   6    -0.02  -0.04  -0.03     0.09  -0.10   0.00    -0.09   0.03  -0.09
    19   6     0.02  -0.09  -0.01     0.13  -0.13  -0.01    -0.06   0.03  -0.07
    20   6     0.01  -0.20  -0.00     0.10  -0.01  -0.02     0.03   0.02  -0.01
    21   6     0.02  -0.13   0.01     0.10  -0.08  -0.05     0.04  -0.02  -0.06
    22   6     0.02  -0.10  -0.01     0.12  -0.13  -0.04     0.04  -0.01  -0.09
    23   6    -0.00  -0.04   0.02     0.08  -0.10  -0.04     0.07  -0.03  -0.13
    24   6    -0.03  -0.01  -0.00     0.05  -0.10  -0.01    -0.00   0.00  -0.10
    25   6    -0.03   0.01  -0.00    -0.05  -0.10   0.01    -0.00   0.00  -0.10
    26   6    -0.02   0.04  -0.03    -0.09  -0.10  -0.00    -0.09  -0.03  -0.09
    27   6     0.02   0.09  -0.01    -0.13  -0.13   0.01    -0.06  -0.03  -0.07
    28   6     0.01   0.13  -0.02    -0.11  -0.08  -0.00    -0.06  -0.05  -0.04
    29   6    -0.00   0.01  -0.10    -0.03   0.07   0.02    -0.12   0.02   0.17
    30   6    -0.00   0.16   0.02    -0.11   0.07  -0.01     0.06  -0.06   0.04
    31   6    -0.02   0.15   0.02    -0.13   0.13   0.02     0.06  -0.03   0.07
    32   6     0.02   0.08   0.04    -0.10   0.11   0.00     0.08  -0.04   0.10
    33   6     0.06   0.01   0.11    -0.04   0.07   0.00     0.16  -0.02   0.10
    34   6     0.06   0.01   0.15    -0.05   0.04  -0.02     0.12  -0.03   0.06
    35   6     0.01   0.06   0.07    -0.07  -0.05   0.03     0.08   0.00  -0.06
    36   6     0.02   0.13   0.01    -0.10  -0.08   0.05     0.04   0.02  -0.06
    37   6     0.01   0.20  -0.00    -0.10  -0.01   0.02     0.03  -0.02  -0.01
    38   6     0.01   0.20   0.00    -0.10  -0.01   0.02    -0.03  -0.02   0.00
    39   6    -0.02   0.16  -0.01    -0.09   0.07   0.05    -0.04   0.03   0.05
    40   6    -0.03   0.15   0.01    -0.12   0.13   0.05    -0.04   0.01   0.09
    41   6     0.02  -0.08   0.04     0.10   0.11  -0.00     0.08   0.04   0.10
    42   6     0.06  -0.01   0.11     0.04   0.07  -0.00     0.16   0.02   0.10
    43   6     0.06  -0.01   0.15     0.05   0.04   0.02     0.12   0.03   0.06
    44   6     0.05  -0.00   0.18     0.00   0.02   0.00     0.12  -0.00   0.02
    45   6     0.01  -0.00   0.16     0.00  -0.04  -0.00     0.10   0.00  -0.08
    46   6    -0.01   0.02   0.12    -0.04  -0.05   0.04     0.10   0.02  -0.12
    47   6     0.02   0.10  -0.01    -0.12  -0.13   0.04     0.04   0.01  -0.09
    48   6    -0.00   0.04   0.02    -0.08  -0.10   0.04     0.07   0.03  -0.13
    49   6    -0.01   0.01   0.07    -0.03  -0.08   0.02     0.13   0.01  -0.17
    50   6    -0.01  -0.01   0.07     0.03  -0.08  -0.02     0.13  -0.01  -0.17
    51   6    -0.01  -0.02   0.12     0.04  -0.05  -0.04     0.10  -0.02  -0.12
    52   6     0.01  -0.06   0.07     0.07  -0.05  -0.03     0.08  -0.00  -0.06
    53   6     0.02  -0.06   0.08     0.08   0.04   0.00     0.09   0.03   0.02
    54   6    -0.00  -0.16   0.02     0.11   0.07   0.01     0.06   0.06   0.04
    55   6    -0.02  -0.15   0.02     0.13   0.13  -0.02     0.06   0.03   0.07
    56   6    -0.01   0.08  -0.03    -0.08   0.11   0.05    -0.07   0.03   0.14
    57   6    -0.01  -0.08  -0.03     0.08   0.11  -0.05    -0.07  -0.03   0.14
    58   6     0.02   0.06   0.08    -0.08   0.04  -0.00     0.09  -0.03   0.02
    59   6     0.03   0.03  -0.00    -0.06   0.10   0.02    -0.00  -0.00   0.09
    60   6     0.03  -0.03  -0.00     0.06   0.10  -0.02    -0.00   0.00   0.09
    61   6     0.04   0.00  -0.03     0.04   0.03  -0.02     0.02   0.00  -0.01
    62   6     0.04  -0.00  -0.03    -0.04   0.03   0.02     0.02  -0.00  -0.01
    63   6    -0.00  -0.01   0.02    -0.00   0.01   0.04     0.01  -0.01   0.01
    64   1     0.03   0.00   0.07     0.01   0.05   0.09     0.01   0.01   0.04
    65   1    -0.04  -0.03  -0.00    -0.04  -0.02   0.04    -0.01  -0.02   0.01
    66   1    -0.04  -0.02   0.04    -0.02  -0.00   0.05    -0.00  -0.01   0.02
    67   6    -0.00   0.01   0.02     0.00   0.01  -0.04     0.01   0.01   0.01
    68   1    -0.04   0.02   0.04     0.02  -0.00  -0.05    -0.00   0.01   0.02
    69   1    -0.04   0.03  -0.00     0.04  -0.02  -0.04    -0.01   0.02   0.01
    70   1     0.03  -0.00   0.07    -0.01   0.05  -0.09     0.01  -0.01   0.04
    71   6     0.03  -0.00  -0.02    -0.09   0.02   0.07    -0.01   0.00   0.02
    72   1     0.02  -0.02  -0.02    -0.07  -0.07   0.05    -0.06   0.02   0.01
    73   1     0.02  -0.00  -0.01    -0.15   0.03   0.15    -0.00   0.00   0.01
    74   6     0.03   0.00  -0.02     0.09   0.02  -0.07    -0.01  -0.00   0.02
    75   1     0.02   0.00  -0.01     0.15   0.03  -0.15    -0.00  -0.00   0.01
    76   1     0.02   0.02  -0.02     0.07  -0.07  -0.05    -0.06  -0.02   0.01
                     13                     14                     15
                      A                      A                      A
 Frequencies --    318.2482               340.8921               344.6706
 Red. masses --      6.7660                10.3106                 5.3564
 Frc consts  --      0.4038                 0.7059                 0.3749
 IR Inten    --      0.0000                 0.0000                 0.0000
  Atom  AN      X      Y      Z        X      Y      Z        X      Y      Z
     1   6    -0.05   0.05  -0.06     0.01  -0.09   0.11    -0.02  -0.04   0.03
     2   6    -0.04   0.03  -0.03    -0.03   0.02   0.00    -0.03  -0.06   0.03
     3   6    -0.06   0.01  -0.01    -0.02   0.05  -0.07    -0.01  -0.04   0.00
     4   6    -0.05  -0.00  -0.06    -0.00   0.01   0.00     0.00  -0.05  -0.00
     5   6    -0.05   0.00  -0.10    -0.00  -0.06  -0.00     0.00  -0.03   0.00
     6   6    -0.02   0.02  -0.07     0.04  -0.10   0.10    -0.01  -0.02   0.01
     7   6    -0.03   0.07  -0.04     0.04  -0.09   0.10    -0.02  -0.03   0.03
     8   6    -0.03   0.06  -0.01     0.01   0.01   0.04    -0.01  -0.07   0.02
     9   6    -0.04   0.02  -0.01    -0.01   0.07  -0.03    -0.02  -0.06   0.01
    10   6    -0.06  -0.01   0.01     0.02   0.07  -0.09     0.02   0.02  -0.04
    11   6    -0.08  -0.00   0.03     0.01   0.09  -0.10     0.01   0.00  -0.02
    12   6    -0.06  -0.01  -0.01     0.02   0.05   0.07     0.01  -0.04  -0.00
    13   6    -0.04  -0.03  -0.03     0.03   0.02  -0.00     0.03  -0.06  -0.03
    14   6    -0.05  -0.05  -0.06    -0.01  -0.09  -0.11     0.02  -0.04  -0.03
    15   6    -0.02  -0.02  -0.07    -0.04  -0.10  -0.10     0.01  -0.02  -0.01
    16   6     0.06  -0.00  -0.02    -0.05  -0.11  -0.07     0.01   0.02  -0.01
    17   6     0.06   0.00  -0.02     0.05  -0.11   0.07    -0.01   0.02   0.02
    18   6     0.11  -0.00  -0.01     0.09  -0.08   0.08    -0.04   0.06   0.02
    19   6     0.02   0.05  -0.01     0.06  -0.07   0.10    -0.05   0.06   0.04
    20   6    -0.03   0.06   0.01     0.01   0.04   0.04    -0.01  -0.07   0.01
    21   6    -0.01   0.09   0.05     0.02   0.10   0.10    -0.01  -0.01   0.03
    22   6     0.02   0.06   0.01     0.01   0.04   0.11    -0.05   0.07   0.06
    23   6     0.10   0.01  -0.01    -0.03   0.05   0.09    -0.05   0.07   0.06
    24   6     0.18  -0.01  -0.02     0.02  -0.02   0.06    -0.04   0.07   0.03
    25   6     0.18   0.01  -0.02    -0.02  -0.02  -0.06     0.04   0.07  -0.03
    26   6     0.11   0.00  -0.01    -0.09  -0.08  -0.08     0.04   0.06  -0.02
    27   6     0.02  -0.05  -0.01    -0.06  -0.07  -0.10     0.05   0.06  -0.04
    28   6    -0.03  -0.07  -0.04    -0.04  -0.09  -0.10     0.03  -0.03  -0.03
    29   6    -0.08   0.00   0.03    -0.01   0.09   0.10    -0.01   0.00   0.02
    30   6    -0.05  -0.02   0.01    -0.00  -0.03   0.03     0.00  -0.07   0.03
    31   6    -0.06   0.00   0.00     0.06  -0.06   0.08    -0.03   0.00   0.03
    32   6    -0.02  -0.01   0.00     0.13  -0.11   0.11    -0.08   0.04   0.03
    33   6    -0.09   0.00  -0.01     0.06  -0.08   0.09    -0.01  -0.01   0.04
    34   6    -0.07  -0.00   0.00     0.01  -0.03   0.07     0.00  -0.05   0.04
    35   6    -0.03  -0.06   0.06    -0.05   0.10  -0.09    -0.01  -0.02  -0.02
    36   6    -0.01  -0.09   0.05    -0.02   0.10  -0.10     0.01  -0.01  -0.03
    37   6    -0.03  -0.06   0.01    -0.01   0.04  -0.04     0.01  -0.07  -0.01
    38   6    -0.03  -0.06  -0.01    -0.01   0.01  -0.04     0.02  -0.07  -0.02
    39   6    -0.04  -0.02  -0.01     0.01   0.07   0.03     0.02  -0.06  -0.01
    40   6    -0.06   0.01   0.01    -0.02   0.07   0.09    -0.02   0.02   0.04
    41   6    -0.02   0.01   0.00    -0.13  -0.11  -0.11     0.08   0.04  -0.03
    42   6    -0.09  -0.00  -0.01    -0.06  -0.08  -0.09     0.01  -0.01  -0.04
    43   6    -0.07   0.00   0.00    -0.01  -0.03  -0.07     0.00  -0.05  -0.04
    44   6    -0.04  -0.00   0.04    -0.00   0.01   0.00     0.00  -0.04  -0.00
    45   6    -0.01  -0.00   0.10    -0.00   0.07   0.00    -0.00  -0.02  -0.00
    46   6     0.00  -0.03   0.08    -0.02   0.11  -0.09    -0.00  -0.00  -0.03
    47   6     0.02  -0.06   0.01    -0.01   0.04  -0.11     0.05   0.07  -0.06
    48   6     0.10  -0.01  -0.01     0.03   0.05  -0.09     0.05   0.07  -0.06
    49   6     0.04  -0.01   0.03     0.01   0.08  -0.08     0.01   0.04  -0.03
    50   6     0.04   0.01   0.03    -0.01   0.08   0.08    -0.01   0.04   0.03
    51   6     0.00   0.03   0.08     0.02   0.11   0.09     0.00  -0.00   0.03
    52   6    -0.03   0.06   0.06     0.05   0.10   0.09     0.01  -0.02   0.01
    53   6    -0.04   0.03   0.02     0.04   0.01  -0.02     0.00  -0.06  -0.03
    54   6    -0.05   0.02   0.01     0.00  -0.03  -0.03    -0.00  -0.07  -0.03
    55   6    -0.06  -0.00   0.00    -0.06  -0.06  -0.08     0.03   0.00  -0.03
    56   6    -0.03   0.01   0.01    -0.04   0.09   0.14    -0.05   0.06   0.07
    57   6    -0.03  -0.01   0.01     0.04   0.09  -0.14     0.05   0.06  -0.07
    58   6    -0.04  -0.03   0.02    -0.04   0.01   0.02    -0.00  -0.06   0.03
    59   6     0.03  -0.01   0.00     0.04  -0.03   0.07    -0.08   0.09   0.06
    60   6     0.03   0.02   0.00    -0.04  -0.03  -0.07     0.08   0.09  -0.06
    61   6     0.18  -0.00  -0.12    -0.04  -0.05   0.02     0.07   0.10  -0.04
    62   6     0.18   0.00  -0.12     0.05  -0.05  -0.02    -0.07   0.10   0.04
    63   6     0.06  -0.10   0.10    -0.04   0.01  -0.05     0.06   0.01   0.09
    64   1     0.16  -0.03   0.31    -0.08  -0.02  -0.13     0.14   0.04   0.22
    65   1    -0.03  -0.18   0.08    -0.03   0.04  -0.07     0.05  -0.03   0.12
    66   1    -0.05  -0.19   0.14     0.01   0.07  -0.04    -0.02  -0.11   0.08
    67   6     0.06   0.10   0.10     0.04   0.01   0.05    -0.06   0.01  -0.09
    68   1    -0.05   0.19   0.14    -0.01   0.07   0.04     0.02  -0.10  -0.08
    69   1    -0.03   0.18   0.08     0.03   0.04   0.07    -0.05  -0.03  -0.12
    70   1     0.16   0.03   0.31     0.08  -0.02   0.13    -0.14   0.04  -0.22
    71   6     0.08  -0.02  -0.04     0.04  -0.01  -0.06    -0.12   0.02   0.14
    72   1    -0.00  -0.05  -0.07    -0.01   0.09  -0.05    -0.11  -0.18   0.10
    73   1     0.09  -0.02  -0.01     0.06  -0.02  -0.15    -0.18   0.04   0.33
    74   6     0.08   0.02  -0.04    -0.04  -0.01   0.06     0.12   0.02  -0.14
    75   1     0.09   0.02  -0.01    -0.06  -0.02   0.15     0.17   0.04  -0.33
    76   1    -0.00   0.05  -0.07     0.01   0.09   0.05     0.11  -0.17  -0.10
                     16                     17                     18
                      A                      A                      A
 Frequencies --    348.0843               357.2078               362.4744
 Red. masses --      3.2546                 6.9175                11.5682
 Frc consts  --      0.2323                 0.5200                 0.8955
 IR Inten    --      0.0000                 0.0000                 0.0000
  Atom  AN      X      Y      Z        X      Y      Z        X      Y      Z
     1   6    -0.02  -0.00  -0.03    -0.02   0.03   0.02    -0.00   0.06   0.04
     2   6    -0.01  -0.00   0.01    -0.02  -0.02   0.00     0.00   0.05   0.07
     3   6    -0.01  -0.01   0.03    -0.02   0.01  -0.06     0.01   0.01   0.14
     4   6    -0.01  -0.00   0.01    -0.02  -0.00  -0.03     0.04  -0.00   0.25
     5   6    -0.03  -0.00  -0.06     0.00  -0.00   0.07     0.06  -0.00   0.20
     6   6    -0.03   0.01  -0.06     0.02  -0.00   0.08     0.02   0.02   0.06
     7   6    -0.01  -0.02  -0.01    -0.02   0.10  -0.00    -0.02   0.12  -0.00
     8   6    -0.02  -0.01   0.00     0.01   0.03  -0.01    -0.01   0.08   0.04
     9   6    -0.01   0.01   0.01    -0.01  -0.08   0.01     0.00   0.11   0.02
    10   6     0.01   0.04  -0.00    -0.04  -0.15   0.02     0.02   0.07  -0.06
    11   6    -0.01  -0.00   0.05     0.01  -0.00  -0.10     0.06   0.03  -0.07
    12   6    -0.01   0.01   0.03    -0.02  -0.01  -0.06     0.01  -0.01   0.14
    13   6    -0.01   0.00   0.01    -0.02   0.02   0.00     0.00  -0.05   0.07
    14   6    -0.02   0.00  -0.03    -0.02  -0.03   0.02    -0.00  -0.06   0.04
    15   6    -0.03  -0.01  -0.06     0.02   0.00   0.08     0.02  -0.02   0.06
    16   6    -0.02  -0.00  -0.04     0.05  -0.00   0.09    -0.09  -0.02  -0.07
    17   6    -0.02   0.00  -0.04     0.05   0.00   0.09    -0.09   0.02  -0.07
    18   6     0.02  -0.02  -0.02     0.02   0.06   0.03    -0.08   0.07  -0.10
    19   6     0.01  -0.03  -0.01    -0.04   0.14   0.01    -0.05   0.08  -0.05
    20   6    -0.02  -0.01   0.00     0.01   0.03  -0.01    -0.00  -0.08   0.04
    21   6    -0.00  -0.01   0.02    -0.01   0.11   0.01    -0.00  -0.09   0.02
    22   6     0.01  -0.03   0.00    -0.04   0.14   0.01     0.01  -0.04  -0.06
    23   6     0.03  -0.02   0.01     0.01   0.06  -0.03     0.07  -0.07  -0.13
    24   6     0.04  -0.01  -0.01     0.06   0.01  -0.01     0.02  -0.00  -0.12
    25   6     0.04   0.01  -0.01     0.06  -0.01  -0.01     0.02   0.00  -0.12
    26   6     0.02   0.02  -0.02     0.02  -0.06   0.03    -0.08  -0.07  -0.10
    27   6     0.01   0.03  -0.01    -0.04  -0.14   0.01    -0.05  -0.08  -0.05
    28   6    -0.01   0.02  -0.01    -0.02  -0.10  -0.00    -0.02  -0.12  -0.00
    29   6    -0.01   0.00   0.05     0.01   0.00  -0.10     0.06  -0.03  -0.07
    30   6    -0.01  -0.01  -0.00    -0.02   0.07  -0.02    -0.03   0.14   0.00
    31   6     0.01  -0.05  -0.00    -0.05   0.15   0.00    -0.05   0.09  -0.05
    32   6     0.02  -0.04  -0.01     0.02   0.07   0.03    -0.08   0.09  -0.10
    33   6    -0.04   0.00  -0.04     0.05   0.00   0.09    -0.09   0.03  -0.05
    34   6    -0.03   0.00  -0.03     0.01  -0.01   0.06     0.03   0.02   0.10
    35   6    -0.00  -0.01   0.03    -0.02  -0.04  -0.02    -0.00   0.05   0.06
    36   6    -0.00   0.01   0.02    -0.01  -0.11   0.01    -0.00   0.09   0.02
    37   6    -0.02   0.01   0.00     0.01  -0.03  -0.01    -0.00   0.08   0.04
    38   6    -0.02   0.01   0.00     0.01  -0.03  -0.01    -0.01  -0.08   0.04
    39   6    -0.01  -0.01   0.01    -0.01   0.08   0.01     0.00  -0.11   0.02
    40   6     0.01  -0.04  -0.00    -0.04   0.15   0.02     0.02  -0.07  -0.06
    41   6     0.02   0.04  -0.01     0.02  -0.07   0.03    -0.08  -0.09  -0.10
    42   6    -0.04  -0.00  -0.04     0.05  -0.00   0.09    -0.09  -0.03  -0.05
    43   6    -0.03  -0.01  -0.03     0.01   0.01   0.06     0.03  -0.02   0.10
    44   6    -0.01  -0.00  -0.01    -0.01  -0.00   0.03     0.06  -0.00   0.23
    45   6     0.00  -0.00   0.06    -0.02  -0.00  -0.07     0.03  -0.00   0.25
    46   6     0.00  -0.01   0.06    -0.01  -0.00  -0.08     0.01   0.02   0.11
    47   6     0.01   0.03   0.00    -0.04  -0.14   0.01     0.01   0.04  -0.06
    48   6     0.03   0.02   0.01     0.01  -0.06  -0.03     0.07   0.07  -0.13
    49   6     0.01  -0.00   0.04     0.01  -0.00  -0.10     0.07   0.02  -0.09
    50   6     0.01   0.00   0.04     0.01   0.00  -0.10     0.07  -0.02  -0.09
    51   6     0.00   0.01   0.06    -0.01   0.00  -0.08     0.01  -0.02   0.11
    52   6    -0.00   0.01   0.03    -0.02   0.04  -0.02    -0.00  -0.05   0.06
    53   6    -0.01   0.01   0.00    -0.02  -0.02   0.00    -0.00  -0.07   0.05
    54   6    -0.01   0.01  -0.00    -0.02  -0.07  -0.02    -0.03  -0.14   0.00
    55   6     0.01   0.05  -0.00    -0.05  -0.15   0.00    -0.05  -0.09  -0.05
    56   6     0.02  -0.03   0.01     0.00   0.07  -0.03     0.07  -0.09  -0.13
    57   6     0.02   0.03   0.01     0.00  -0.07  -0.03     0.07   0.09  -0.13
    58   6    -0.01  -0.01   0.00    -0.02   0.02   0.00    -0.00   0.07   0.05
    59   6     0.02  -0.01   0.00     0.03   0.03   0.00     0.01  -0.01  -0.13
    60   6     0.02   0.01   0.00     0.03  -0.03   0.00     0.01   0.01  -0.13
    61   6     0.03   0.01   0.09     0.04   0.01   0.05    -0.02  -0.00  -0.00
    62   6     0.03  -0.00   0.09     0.04  -0.01   0.05    -0.02   0.00  -0.00
    63   6    -0.03   0.18  -0.04    -0.03   0.16  -0.04    -0.01  -0.01  -0.01
    64   1    -0.12   0.16  -0.16    -0.10   0.15  -0.12    -0.00  -0.03  -0.02
    65   1    -0.06   0.20  -0.11    -0.09   0.17  -0.11     0.01   0.00  -0.00
    66   1     0.05   0.32   0.01     0.02   0.29   0.03    -0.01  -0.02  -0.02
    67   6    -0.03  -0.18  -0.04    -0.03  -0.16  -0.04    -0.01   0.01  -0.01
    68   1     0.05  -0.32   0.01     0.02  -0.29   0.03    -0.01   0.02  -0.02
    69   1    -0.06  -0.20  -0.11    -0.08  -0.17  -0.11     0.01  -0.00  -0.00
    70   1    -0.12  -0.16  -0.16    -0.10  -0.15  -0.12    -0.00   0.03  -0.02
    71   6     0.06   0.10  -0.02     0.04   0.06  -0.00     0.02  -0.03  -0.03
    72   1     0.07   0.30   0.03     0.06   0.16   0.03     0.09  -0.09  -0.02
    73   1     0.12   0.08  -0.23     0.05   0.05  -0.11     0.01  -0.02   0.03
    74   6     0.06  -0.10  -0.02     0.04  -0.06  -0.00     0.02   0.03  -0.03
    75   1     0.12  -0.08  -0.23     0.05  -0.05  -0.11     0.01   0.02   0.03
    76   1     0.07  -0.30   0.03     0.06  -0.16   0.03     0.09   0.09  -0.02
                     19                     20                     21
                      A                      A                      A
 Frequencies --    363.5467               374.5367               375.5815
 Red. masses --     11.9941                11.6887                11.9082
 Frc consts  --      0.9340                 0.9661                 0.9897
 IR Inten    --      0.0000                 0.0000                 0.0000
  Atom  AN      X      Y      Z        X      Y      Z        X      Y      Z
     1   6     0.06  -0.07   0.17    -0.03   0.13  -0.10    -0.00  -0.01   0.06
     2   6     0.02  -0.08   0.19    -0.01   0.14  -0.12    -0.02   0.00  -0.01
     3   6    -0.03  -0.09   0.18    -0.05   0.02   0.06    -0.14  -0.03   0.00
     4   6    -0.00  -0.06  -0.00    -0.03  -0.00   0.08    -0.20   0.00   0.03
     5   6    -0.00  -0.04  -0.00    -0.00  -0.00   0.07    -0.19  -0.00   0.05
     6   6     0.08  -0.07   0.11     0.03   0.03   0.05    -0.12   0.04   0.06
     7   6    -0.01   0.09   0.05    -0.03   0.11  -0.09     0.16   0.00   0.05
     8   6    -0.00   0.22   0.00     0.00   0.11  -0.13     0.20   0.00  -0.01
     9   6     0.03   0.09   0.05     0.04   0.15  -0.13     0.12   0.00  -0.06
    10   6     0.05   0.06  -0.01     0.01   0.05  -0.03     0.12  -0.00  -0.04
    11   6    -0.03  -0.08   0.09    -0.11  -0.01   0.14    -0.13  -0.02  -0.00
    12   6     0.03  -0.09  -0.18    -0.05  -0.02   0.06    -0.14   0.03   0.00
    13   6    -0.02  -0.08  -0.19    -0.01  -0.14  -0.12    -0.02  -0.00  -0.01
    14   6    -0.06  -0.07  -0.17    -0.03  -0.13  -0.10    -0.00   0.01   0.06
    15   6    -0.08  -0.06  -0.11     0.03  -0.03   0.05    -0.12  -0.04   0.06
    16   6    -0.04  -0.05  -0.04     0.12   0.00   0.09    -0.13  -0.02   0.02
    17   6     0.04  -0.05   0.04     0.12  -0.00   0.09    -0.13   0.02   0.02
    18   6     0.01  -0.00   0.00     0.06  -0.01   0.06     0.01   0.05   0.01
    19   6    -0.04   0.05   0.01     0.03   0.01  -0.03     0.13  -0.00  -0.00
    20   6    -0.00   0.22  -0.00     0.00  -0.10  -0.13     0.20   0.03  -0.01
    21   6    -0.03   0.07  -0.05     0.04  -0.13  -0.13     0.12   0.02  -0.06
    22   6    -0.04   0.04   0.00     0.00  -0.04  -0.03     0.13  -0.00  -0.04
    23   6     0.02  -0.01  -0.01    -0.05   0.01   0.08    -0.00   0.04  -0.05
    24   6     0.01  -0.00  -0.00    -0.01   0.00   0.08    -0.01   0.02  -0.03
    25   6    -0.01  -0.00   0.00    -0.01  -0.00   0.08    -0.01  -0.02  -0.03
    26   6    -0.01  -0.00  -0.00     0.06   0.01   0.06     0.01  -0.05   0.01
    27   6     0.04   0.05  -0.01     0.03  -0.01  -0.03     0.13   0.00  -0.00
    28   6     0.01   0.09  -0.05    -0.03  -0.11  -0.09     0.16  -0.00   0.05
    29   6     0.03  -0.08  -0.09    -0.11   0.01   0.14    -0.13   0.02  -0.00
    30   6    -0.01   0.09   0.06    -0.03   0.12  -0.09     0.16  -0.02   0.05
    31   6    -0.05   0.07   0.01     0.02   0.02  -0.02     0.13  -0.00  -0.00
    32   6     0.01   0.00   0.02     0.04   0.01   0.06     0.00   0.06   0.01
    33   6     0.06  -0.06   0.06     0.12  -0.01   0.10    -0.14   0.03   0.02
    34   6     0.10  -0.08   0.14     0.04   0.02   0.06    -0.13   0.03   0.04
    35   6     0.02  -0.08   0.18    -0.01   0.13  -0.12    -0.02  -0.02  -0.01
    36   6     0.03   0.07   0.05     0.04   0.13  -0.13     0.12  -0.02  -0.06
    37   6     0.00   0.22   0.00     0.00   0.10  -0.13     0.20  -0.03  -0.01
    38   6     0.00   0.22  -0.00     0.00  -0.11  -0.13     0.20  -0.00  -0.01
    39   6    -0.03   0.09  -0.05     0.04  -0.15  -0.13     0.12  -0.00  -0.06
    40   6    -0.05   0.06   0.01     0.01  -0.05  -0.03     0.12   0.00  -0.04
    41   6    -0.01   0.00  -0.02     0.04  -0.01   0.06     0.00  -0.06   0.01
    42   6    -0.06  -0.06  -0.06     0.12   0.01   0.10    -0.14  -0.03   0.02
    43   6    -0.10  -0.08  -0.14     0.04  -0.02   0.06    -0.13  -0.03   0.04
    44   6    -0.00  -0.05  -0.00     0.01  -0.00   0.08    -0.20  -0.00   0.03
    45   6    -0.00  -0.05  -0.00    -0.02  -0.00   0.06    -0.20   0.00   0.02
    46   6    -0.03  -0.08   0.15    -0.04   0.03   0.04    -0.14  -0.03  -0.01
    47   6     0.04   0.04  -0.00     0.00   0.04  -0.03     0.13   0.00  -0.04
    48   6    -0.02  -0.01   0.01    -0.05  -0.01   0.08    -0.00  -0.04  -0.05
    49   6    -0.02  -0.07   0.06    -0.10  -0.01   0.13    -0.12  -0.02  -0.02
    50   6     0.02  -0.07  -0.06    -0.10   0.01   0.13    -0.12   0.02  -0.02
    51   6     0.03  -0.08  -0.15    -0.04  -0.03   0.04    -0.14   0.03  -0.01
    52   6    -0.02  -0.08  -0.18    -0.01  -0.13  -0.12    -0.02   0.02  -0.01
    53   6    -0.06  -0.08  -0.18    -0.03  -0.12  -0.09    -0.00   0.02   0.06
    54   6     0.01   0.09  -0.06    -0.03  -0.12  -0.09     0.16   0.02   0.05
    55   6     0.05   0.07  -0.01     0.02  -0.02  -0.02     0.13   0.00  -0.00
    56   6     0.01  -0.01  -0.03    -0.04   0.00   0.08    -0.00   0.04  -0.05
    57   6    -0.01  -0.01   0.03    -0.04  -0.00   0.08    -0.00  -0.04  -0.05
    58   6     0.06  -0.08   0.18    -0.03   0.12  -0.09    -0.00  -0.02   0.06
    59   6    -0.00   0.01  -0.00    -0.00   0.01   0.06     0.01   0.03  -0.03
    60   6     0.00   0.01   0.00    -0.00  -0.01   0.06     0.01  -0.03  -0.03
    61   6     0.00  -0.00  -0.00     0.04   0.00  -0.01     0.01   0.00  -0.00
    62   6    -0.00  -0.00   0.00     0.04  -0.00  -0.01     0.01  -0.00  -0.00
    63   6    -0.00  -0.00  -0.00    -0.00   0.04  -0.00    -0.00   0.01   0.00
    64   1    -0.01   0.01  -0.00    -0.01   0.05   0.01    -0.00   0.01   0.00
    65   1    -0.01  -0.01  -0.00    -0.04   0.02  -0.03    -0.01   0.01  -0.01
    66   1     0.00   0.00  -0.00    -0.01   0.06   0.03    -0.00   0.03   0.01
    67   6     0.00  -0.00   0.00    -0.00  -0.04  -0.00    -0.00  -0.01   0.00
    68   1    -0.00   0.00   0.00    -0.01  -0.06   0.03    -0.00  -0.03   0.01
    69   1     0.01  -0.01   0.00    -0.04  -0.02  -0.03    -0.01  -0.01  -0.01
    70   1     0.01   0.01   0.00    -0.01  -0.05   0.01    -0.00  -0.01   0.00
    71   6    -0.01   0.00   0.00    -0.01   0.02   0.02     0.01  -0.00  -0.01
    72   1    -0.00   0.00   0.00    -0.05   0.03   0.01     0.04  -0.03  -0.01
    73   1    -0.00   0.00  -0.00     0.00   0.01  -0.00    -0.01   0.00   0.01
    74   6     0.01   0.00  -0.00    -0.00  -0.02   0.02     0.01   0.00  -0.01
    75   1     0.00   0.00   0.00     0.00  -0.01  -0.00    -0.01  -0.00   0.01
    76   1     0.00   0.00  -0.00    -0.05  -0.03   0.01     0.04   0.03  -0.01
                     22                     23                     24
                      A                      A                      A
 Frequencies --    377.0479               380.5243               380.7534
 Red. masses --     11.9612                 9.2354                10.4869
 Frc consts  --      1.0019                 0.7879                 0.8957
 IR Inten    --      0.0000                 0.0000                 0.0000
  Atom  AN      X      Y      Z        X      Y      Z        X      Y      Z
     1   6     0.17   0.02  -0.01    -0.00   0.08   0.03     0.09  -0.10  -0.02
     2   6     0.16  -0.00  -0.08    -0.02   0.06   0.07     0.10   0.05   0.01
     3   6     0.10  -0.07  -0.06    -0.09   0.03   0.02     0.06   0.07  -0.02
     4   6     0.00  -0.03  -0.00    -0.05  -0.00  -0.07    -0.00   0.05  -0.00
     5   6     0.00   0.05  -0.00    -0.03   0.00  -0.14    -0.00  -0.10  -0.00
     6   6     0.11   0.08   0.01     0.05   0.05  -0.09     0.06  -0.11   0.00
     7   6     0.14  -0.03   0.01     0.02   0.06   0.06     0.05  -0.09  -0.07
     8   6     0.10  -0.01  -0.02     0.01   0.02   0.12     0.03  -0.05  -0.01
     9   6     0.13   0.03  -0.08    -0.01   0.02   0.10     0.09   0.05   0.05
    10   6     0.08  -0.02  -0.08    -0.02  -0.00   0.04     0.10   0.09   0.11
    11   6     0.06  -0.14  -0.03    -0.13  -0.00   0.03     0.04   0.12   0.03
    12   6    -0.10  -0.07   0.06    -0.09  -0.03   0.02    -0.06   0.07   0.02
    13   6    -0.16  -0.00   0.08    -0.02  -0.06   0.07    -0.10   0.05  -0.01
    14   6    -0.17   0.02   0.01    -0.00  -0.08   0.03    -0.09  -0.10   0.02
    15   6    -0.11   0.08  -0.01     0.05  -0.05  -0.09    -0.06  -0.11  -0.00
    16   6    -0.07   0.14  -0.01     0.13  -0.00  -0.07    -0.02  -0.10   0.03
    17   6     0.07   0.14   0.01     0.13   0.00  -0.07     0.02  -0.10  -0.03
    18   6     0.08   0.07   0.03     0.11   0.00  -0.07    -0.03  -0.03  -0.09
    19   6     0.10   0.01   0.04     0.03   0.03   0.04    -0.03  -0.01  -0.14
    20   6    -0.10  -0.01   0.02     0.01  -0.03   0.12    -0.02  -0.06  -0.00
    21   6    -0.13   0.02   0.06    -0.01  -0.03   0.10    -0.09   0.02  -0.06
    22   6    -0.09  -0.01   0.08    -0.03   0.01   0.06    -0.10   0.08  -0.11
    23   6    -0.08  -0.06   0.07    -0.09  -0.00  -0.02    -0.10   0.11  -0.04
    24   6    -0.01   0.00   0.01     0.03  -0.00  -0.11    -0.05   0.05  -0.04
    25   6     0.01   0.00  -0.01     0.03   0.00  -0.11     0.05   0.05   0.04
    26   6    -0.08   0.07  -0.03     0.11  -0.00  -0.07     0.03  -0.03   0.09
    27   6    -0.10   0.01  -0.04     0.03  -0.03   0.03     0.03  -0.01   0.14
    28   6    -0.14  -0.03  -0.01     0.02  -0.06   0.06    -0.05  -0.09   0.07
    29   6    -0.06  -0.14   0.03    -0.13  -0.00   0.03    -0.05   0.12  -0.03
    30   6     0.14  -0.04   0.02     0.02   0.08   0.06     0.05  -0.09  -0.07
    31   6     0.09   0.02   0.04     0.03   0.04   0.02    -0.05   0.00  -0.14
    32   6     0.05   0.08   0.03     0.08   0.02  -0.07    -0.04  -0.01  -0.10
    33   6     0.06   0.14   0.00     0.15   0.00  -0.05     0.01  -0.09  -0.04
    34   6     0.11   0.07   0.01     0.07   0.04  -0.06     0.06  -0.11  -0.01
    35   6     0.16  -0.02  -0.06    -0.01   0.07   0.04     0.10   0.03   0.02
    36   6     0.13   0.02  -0.06    -0.02   0.03   0.10     0.09   0.02   0.06
    37   6     0.10  -0.01  -0.01     0.01   0.03   0.12     0.02  -0.06   0.00
    38   6    -0.10  -0.01   0.02     0.01  -0.02   0.12    -0.03  -0.05   0.01
    39   6    -0.13   0.03   0.08    -0.01  -0.02   0.10    -0.09   0.05  -0.04
    40   6    -0.08  -0.02   0.08    -0.01  -0.00   0.04    -0.10   0.09  -0.11
    41   6    -0.05   0.08  -0.03     0.08  -0.02  -0.07     0.05  -0.01   0.10
    42   6    -0.06   0.14  -0.00     0.15  -0.00  -0.05    -0.01  -0.09   0.04
    43   6    -0.11   0.07  -0.01     0.07  -0.04  -0.06    -0.06  -0.11   0.01
    44   6     0.00   0.04  -0.00    -0.00   0.00  -0.12     0.00  -0.10  -0.00
    45   6     0.00  -0.04  -0.00    -0.03  -0.00  -0.11    -0.00   0.04  -0.00
    46   6     0.10  -0.08  -0.06    -0.08   0.04  -0.02     0.06   0.07  -0.02
    47   6     0.09  -0.01  -0.08    -0.04  -0.01   0.06     0.10   0.08   0.11
    48   6     0.08  -0.06  -0.07    -0.09  -0.00  -0.02     0.09   0.11   0.04
    49   6     0.07  -0.13  -0.04    -0.14   0.00   0.01     0.05   0.13   0.01
    50   6    -0.07  -0.13   0.04    -0.14  -0.00   0.01    -0.06   0.13  -0.01
    51   6    -0.10  -0.08   0.06    -0.08  -0.04  -0.02    -0.06   0.07   0.02
    52   6    -0.16  -0.02   0.06    -0.01  -0.07   0.04    -0.10   0.03  -0.02
    53   6    -0.18  -0.00  -0.01     0.01  -0.09   0.02    -0.09  -0.11   0.02
    54   6    -0.14  -0.04  -0.02     0.02  -0.07   0.06    -0.05  -0.09   0.07
    55   6    -0.09   0.02  -0.04     0.03  -0.04   0.02     0.05   0.00   0.14
    56   6    -0.06  -0.07   0.06    -0.05  -0.02  -0.04    -0.06   0.10  -0.07
    57   6     0.06  -0.07  -0.06    -0.05   0.02  -0.04     0.06   0.10   0.07
    58   6     0.18  -0.00   0.01     0.01   0.09   0.02     0.09  -0.11  -0.02
    59   6    -0.01   0.00  -0.00     0.02  -0.01  -0.13    -0.03   0.04  -0.06
    60   6     0.01   0.00   0.00     0.02   0.01  -0.13     0.03   0.04   0.06
    61   6     0.01  -0.00   0.00    -0.12  -0.00   0.09     0.01  -0.05  -0.00
    62   6    -0.01  -0.00  -0.00    -0.12   0.00   0.09    -0.01  -0.05   0.00
    63   6    -0.00   0.01  -0.00     0.03  -0.05   0.00    -0.04   0.02  -0.04
    64   1    -0.01   0.01  -0.01     0.01  -0.10  -0.08    -0.10   0.03  -0.09
    65   1    -0.01   0.01  -0.01     0.17  -0.01   0.11    -0.09   0.01  -0.10
    66   1     0.00   0.02   0.01     0.09  -0.11  -0.09     0.00   0.12  -0.00
    67   6     0.00   0.01   0.00     0.03   0.05   0.00     0.04   0.02   0.04
    68   1    -0.00   0.02  -0.01     0.09   0.11  -0.09     0.00   0.12   0.00
    69   1     0.01   0.01   0.01     0.17   0.01   0.10     0.10   0.01   0.10
    70   1     0.01   0.01   0.01     0.00   0.10  -0.08     0.10   0.03   0.09
    71   6    -0.01  -0.00  -0.00     0.02   0.00  -0.06    -0.02   0.00  -0.05
    72   1    -0.01  -0.02  -0.01     0.16   0.05  -0.01     0.02   0.04  -0.03
    73   1    -0.01  -0.00   0.01     0.03   0.00  -0.10    -0.06  -0.00  -0.10
    74   6     0.01  -0.00   0.00     0.02  -0.00  -0.06     0.02   0.00   0.05
    75   1     0.01  -0.00  -0.01     0.03  -0.00  -0.11     0.06  -0.00   0.10
    76   1     0.01  -0.02   0.01     0.16  -0.06  -0.01    -0.02   0.04   0.03
                     25                     26                     27
                      A                      A                      A
 Frequencies --    393.5965               396.5545               403.7838
 Red. masses --      5.5548                 7.6121                 2.6800
 Frc consts  --      0.5070                 0.7053                 0.2574
 IR Inten    --      0.0000                 0.0000                 0.0000
  Atom  AN      X      Y      Z        X      Y      Z        X      Y      Z
     1   6     0.02   0.05   0.01     0.01   0.01   0.09     0.01   0.01   0.00
     2   6     0.03   0.08   0.01     0.03  -0.00   0.06     0.00   0.03  -0.04
     3   6     0.04   0.08   0.00     0.04   0.04   0.01    -0.00   0.02  -0.06
     4   6     0.00   0.11   0.00    -0.00   0.08   0.00     0.00  -0.00  -0.06
     5   6     0.00   0.08   0.00    -0.00   0.11  -0.00     0.02  -0.00   0.03
     6   6     0.00   0.04   0.03    -0.04   0.07   0.05     0.03  -0.00   0.04
     7   6     0.00   0.01   0.01    -0.02  -0.06   0.10     0.01  -0.00   0.01
     8   6     0.00   0.05   0.01     0.02  -0.09   0.02     0.00   0.01   0.00
     9   6     0.03   0.03   0.04     0.05  -0.04   0.03    -0.00   0.03  -0.02
    10   6     0.00  -0.08   0.04     0.11   0.00  -0.05    -0.02   0.02  -0.00
    11   6     0.02  -0.01   0.00     0.04  -0.01  -0.02    -0.02   0.00  -0.02
    12   6    -0.04   0.08  -0.00    -0.04   0.04  -0.01    -0.00  -0.02  -0.06
    13   6    -0.03   0.08  -0.01    -0.03  -0.00  -0.06     0.00  -0.03  -0.04
    14   6    -0.02   0.05  -0.01    -0.01   0.01  -0.09     0.01  -0.01   0.00
    15   6    -0.00   0.04  -0.03     0.04   0.07  -0.05     0.03   0.00   0.04
    16   6    -0.01  -0.05  -0.01     0.06   0.04  -0.02     0.03   0.00   0.03
    17   6     0.01  -0.05   0.01    -0.06   0.04   0.02     0.03  -0.00   0.03
    18   6     0.02  -0.10   0.01    -0.17   0.01   0.03    -0.04   0.01   0.01
    19   6     0.01  -0.08  -0.01    -0.12  -0.01   0.05    -0.01  -0.00   0.00
    20   6    -0.01   0.04  -0.01     0.02  -0.08  -0.03     0.01  -0.00   0.01
    21   6    -0.04   0.05  -0.03    -0.02  -0.09  -0.08     0.00  -0.02  -0.01
    22   6    -0.02  -0.04  -0.03    -0.09  -0.04   0.03     0.00  -0.01  -0.01
    23   6    -0.02  -0.05  -0.03    -0.13  -0.02   0.04    -0.02  -0.00  -0.01
    24   6     0.01  -0.11  -0.01    -0.12  -0.04   0.03    -0.08   0.01   0.01
    25   6    -0.01  -0.11   0.01     0.12  -0.04  -0.03    -0.08  -0.01   0.01
    26   6    -0.02  -0.10  -0.01     0.17   0.01  -0.03    -0.04  -0.01   0.01
    27   6    -0.01  -0.08   0.01     0.12  -0.01  -0.05    -0.01   0.00   0.00
    28   6    -0.00   0.01  -0.01     0.02  -0.06  -0.10     0.01  -0.00   0.01
    29   6    -0.02  -0.01  -0.00    -0.04  -0.01   0.02    -0.02  -0.00  -0.02
    30   6     0.01  -0.03   0.03    -0.07   0.01   0.06     0.01  -0.03   0.03
    31   6     0.00  -0.10  -0.02    -0.11   0.02   0.04    -0.01  -0.02   0.00
    32   6    -0.04  -0.08   0.00    -0.04  -0.03   0.02    -0.02  -0.01   0.00
    33   6    -0.01  -0.06   0.01    -0.04   0.01   0.00    -0.04  -0.00  -0.00
    34   6     0.00   0.02   0.04    -0.06   0.08   0.01     0.01  -0.01   0.05
    35   6     0.03   0.08   0.01    -0.01  -0.01   0.10     0.01  -0.01   0.01
    36   6     0.04   0.05   0.03     0.02  -0.09   0.08     0.00   0.02  -0.01
    37   6     0.01   0.04   0.01    -0.02  -0.08   0.03     0.00   0.00   0.01
    38   6    -0.00   0.05  -0.01    -0.02  -0.09  -0.02     0.00  -0.01   0.00
    39   6    -0.03   0.03  -0.04    -0.05  -0.04  -0.03    -0.00  -0.03  -0.02
    40   6    -0.00  -0.08  -0.04    -0.11   0.00   0.05    -0.02  -0.02  -0.00
    41   6     0.04  -0.08   0.00     0.04  -0.03  -0.02    -0.02   0.01   0.00
    42   6     0.01  -0.06  -0.01     0.04   0.01  -0.00    -0.04   0.00  -0.00
    43   6    -0.00   0.02  -0.04     0.06   0.08  -0.01     0.01   0.01   0.05
    44   6     0.00   0.06   0.00     0.00   0.11  -0.00     0.02   0.00   0.06
    45   6     0.00   0.12   0.00     0.00   0.08  -0.00     0.01  -0.00   0.01
    46   6     0.04   0.09  -0.01     0.03   0.04   0.05     0.01   0.00  -0.02
    47   6     0.02  -0.04   0.03     0.09  -0.04  -0.03     0.00   0.01  -0.01
    48   6     0.02  -0.05   0.03     0.13  -0.02  -0.04    -0.02   0.00  -0.01
    49   6     0.02   0.02  -0.00     0.04  -0.00   0.00     0.02   0.01  -0.05
    50   6    -0.02   0.02   0.00    -0.04  -0.00  -0.00     0.02  -0.01  -0.05
    51   6    -0.04   0.09   0.01    -0.03   0.04  -0.05     0.01  -0.00  -0.02
    52   6    -0.03   0.08  -0.01     0.01  -0.01  -0.10     0.01   0.01   0.01
    53   6    -0.02   0.01  -0.03     0.05   0.05  -0.06     0.02   0.03   0.04
    54   6    -0.01  -0.03  -0.03     0.07   0.01  -0.06     0.01   0.03   0.03
    55   6    -0.00  -0.10   0.02     0.11   0.02  -0.04    -0.01   0.02   0.00
    56   6    -0.00  -0.07  -0.04    -0.08  -0.03   0.03    -0.03  -0.00  -0.00
    57   6     0.00  -0.07   0.04     0.08  -0.03  -0.03    -0.03   0.00  -0.00
    58   6     0.02   0.01   0.03    -0.05   0.05   0.06     0.02  -0.03   0.04
    59   6    -0.02  -0.08   0.01    -0.02  -0.07  -0.00    -0.04   0.00   0.01
    60   6     0.02  -0.08  -0.01     0.02  -0.07   0.00    -0.04  -0.00   0.01
    61   6     0.04   0.13  -0.02    -0.01  -0.04   0.04    -0.00  -0.00   0.04
    62   6    -0.04   0.13   0.02     0.01  -0.04  -0.04     0.00   0.00   0.04
    63   6     0.09   0.01   0.11    -0.02   0.03  -0.03     0.06  -0.05   0.05
    64   1     0.20   0.01   0.23    -0.08   0.02  -0.12     0.06  -0.05   0.05
    65   1     0.14  -0.00   0.17    -0.04   0.06  -0.08     0.12  -0.06   0.12
    66   1    -0.00  -0.16   0.06     0.03   0.14  -0.00     0.07  -0.12  -0.02
    67   6    -0.09   0.01  -0.11     0.02   0.03   0.03     0.06   0.05   0.05
    68   1     0.00  -0.16  -0.06    -0.03   0.14   0.00     0.07   0.12  -0.02
    69   1    -0.14  -0.00  -0.17     0.03   0.06   0.08     0.12   0.06   0.12
    70   1    -0.20   0.02  -0.23     0.08   0.02   0.12     0.06   0.05   0.05
    71   6    -0.02  -0.02   0.10     0.01   0.02  -0.11     0.02   0.13  -0.07
    72   1    -0.01  -0.17   0.07    -0.05   0.21  -0.08    -0.02   0.44  -0.01
    73   1     0.05  -0.00   0.28     0.09   0.00  -0.29     0.11   0.10  -0.39
    74   6     0.02  -0.02  -0.10    -0.01   0.02   0.11     0.02  -0.13  -0.07
    75   1    -0.05  -0.01  -0.28    -0.10   0.00   0.29     0.11  -0.10  -0.39
    76   1     0.01  -0.18  -0.07     0.05   0.21   0.08    -0.02  -0.44  -0.01
                     28                     29                     30
                      A                      A                      A
 Frequencies --    413.1336               440.0642               441.1367
 Red. masses --      4.3627                11.4695                 7.6246
 Frc consts  --      0.4387                 1.3087                 0.8742
 IR Inten    --      0.0000                 0.0000                 0.0000
  Atom  AN      X      Y      Z        X      Y      Z        X      Y      Z
     1   6     0.01   0.03   0.01    -0.00  -0.05   0.02     0.03  -0.05   0.05
     2   6    -0.00   0.06  -0.04     0.00  -0.06   0.02     0.00   0.08  -0.09
     3   6    -0.03   0.03  -0.05    -0.02  -0.03  -0.01    -0.02   0.04  -0.05
     4   6    -0.01   0.00  -0.09    -0.04   0.00  -0.15     0.00   0.00   0.00
     5   6     0.01   0.00  -0.04    -0.06  -0.00  -0.16    -0.00  -0.07   0.00
     6   6     0.04   0.01  -0.00    -0.00  -0.02  -0.03     0.08  -0.09   0.11
     7   6     0.02  -0.01   0.04    -0.02  -0.05   0.01     0.01  -0.02   0.02
     8   6     0.00   0.02   0.03     0.01  -0.17  -0.01     0.00   0.07  -0.05
     9   6    -0.01   0.07  -0.02     0.04  -0.06  -0.01     0.01   0.14  -0.11
    10   6    -0.02   0.04  -0.01     0.16   0.17  -0.05    -0.06   0.01  -0.00
    11   6    -0.07   0.01   0.00    -0.07  -0.01   0.14    -0.05   0.00   0.01
    12   6    -0.03  -0.03  -0.05    -0.02   0.03  -0.01     0.02   0.04   0.05
    13   6    -0.00  -0.06  -0.04     0.00   0.06   0.02    -0.00   0.08   0.09
    14   6     0.01  -0.03   0.01    -0.00   0.05   0.02    -0.03  -0.05  -0.05
    15   6     0.04  -0.01  -0.00    -0.00   0.02  -0.03    -0.08  -0.09  -0.11
    16   6     0.07   0.00   0.01     0.12   0.01   0.10    -0.06  -0.05  -0.07
    17   6     0.07  -0.00   0.01     0.12  -0.01   0.10     0.06  -0.05   0.07
    18   6    -0.01  -0.00  -0.01     0.00   0.05   0.04    -0.01   0.02   0.03
    19   6     0.02  -0.03   0.02    -0.13   0.17   0.02    -0.01   0.02   0.02
    20   6    -0.00   0.01   0.04     0.00  -0.16  -0.03     0.01  -0.06  -0.05
    21   6    -0.00  -0.02   0.03    -0.04   0.00  -0.01     0.03  -0.11  -0.06
    22   6    -0.01  -0.03   0.01    -0.15   0.20   0.05    -0.05   0.04   0.04
    23   6    -0.07  -0.01  -0.01    -0.03   0.08  -0.00    -0.12   0.08   0.10
    24   6    -0.12   0.00  -0.01     0.05   0.01   0.01    -0.08   0.08   0.05
    25   6    -0.12  -0.00  -0.01     0.05  -0.01   0.01     0.08   0.08  -0.05
    26   6    -0.02   0.00  -0.01     0.00  -0.05   0.04     0.01   0.02  -0.03
    27   6     0.02   0.03   0.02    -0.13  -0.17   0.02     0.01   0.02  -0.02
    28   6     0.02   0.01   0.04    -0.02   0.05   0.01    -0.01  -0.02  -0.02
    29   6    -0.07  -0.01   0.00    -0.07   0.01   0.14     0.05   0.00  -0.01
    30   6     0.01  -0.04   0.05     0.02   0.08  -0.03    -0.01   0.00  -0.00
    31   6    -0.03  -0.02   0.00     0.14  -0.14  -0.01     0.02   0.01   0.01
    32   6    -0.06   0.01  -0.03     0.02  -0.04  -0.01     0.02   0.01  -0.03
    33   6    -0.03  -0.00  -0.02    -0.12   0.01  -0.05    -0.05   0.05  -0.06
    34   6     0.05  -0.02   0.05    -0.01   0.01   0.07    -0.08   0.04  -0.10
    35   6     0.02  -0.00   0.02    -0.02   0.02  -0.03    -0.03  -0.10   0.07
    36   6    -0.00   0.02   0.03    -0.04  -0.00  -0.01    -0.03  -0.11   0.06
    37   6    -0.00  -0.01   0.04     0.00   0.16  -0.03    -0.01  -0.06   0.05
    38   6     0.00  -0.02   0.03     0.01   0.17  -0.01    -0.00   0.07   0.05
    39   6    -0.01  -0.07  -0.02     0.04   0.06  -0.01    -0.01   0.14   0.11
    40   6    -0.02  -0.04  -0.01     0.16  -0.17  -0.05     0.06   0.01   0.00
    41   6    -0.06  -0.01  -0.03     0.02   0.04  -0.01    -0.02   0.01   0.03
    42   6    -0.03   0.00  -0.02    -0.12  -0.01  -0.05     0.05   0.05   0.06
    43   6     0.05   0.02   0.05    -0.01  -0.01   0.07     0.08   0.04   0.10
    44   6     0.05  -0.00   0.05     0.05  -0.00   0.20     0.00   0.00  -0.00
    45   6     0.02   0.00  -0.04     0.02  -0.00   0.12    -0.00  -0.05  -0.00
    46   6     0.02   0.02  -0.05     0.02   0.02  -0.02    -0.01  -0.05   0.02
    47   6    -0.01   0.03   0.01    -0.15  -0.20   0.05     0.05   0.04  -0.04
    48   6    -0.07   0.01  -0.01    -0.03  -0.08  -0.00     0.12   0.08  -0.10
    49   6     0.01   0.01  -0.06     0.08   0.01  -0.14     0.03   0.03  -0.03
    50   6     0.01  -0.01  -0.06     0.08  -0.01  -0.14    -0.03   0.03   0.03
    51   6     0.02  -0.02  -0.05     0.02  -0.02  -0.02     0.01  -0.05  -0.02
    52   6     0.02   0.00   0.02    -0.02  -0.02  -0.04     0.03  -0.10  -0.07
    53   6     0.04   0.03   0.06    -0.02  -0.05  -0.02     0.04  -0.01   0.02
    54   6     0.01   0.04   0.05     0.02  -0.08  -0.03     0.01   0.00   0.00
    55   6    -0.03   0.02   0.00     0.14   0.14  -0.01    -0.02   0.01  -0.01
    56   6    -0.03  -0.03  -0.03     0.05  -0.07   0.00     0.13  -0.05  -0.08
    57   6    -0.03   0.03  -0.03     0.05   0.07   0.00    -0.13  -0.05   0.08
    58   6     0.04  -0.03   0.06    -0.02   0.05  -0.02    -0.04  -0.01  -0.02
    59   6     0.00  -0.01  -0.02     0.02  -0.02  -0.01     0.08  -0.05  -0.03
    60   6     0.00   0.01  -0.02     0.02   0.02  -0.01    -0.08  -0.05   0.03
    61   6     0.15   0.01  -0.05    -0.05  -0.00  -0.00    -0.04   0.06  -0.01
    62   6     0.14  -0.01  -0.05    -0.05   0.00  -0.00     0.04   0.06   0.01
    63   6    -0.02   0.13   0.00    -0.02  -0.03  -0.02     0.04  -0.04   0.03
    64   1    -0.02   0.16   0.04    -0.02  -0.04  -0.04     0.12  -0.05   0.11
    65   1    -0.18   0.09  -0.13     0.01  -0.01  -0.00     0.12  -0.03   0.12
    66   1    -0.06   0.24   0.13    -0.01  -0.04  -0.04    -0.02  -0.20  -0.04
    67   6    -0.02  -0.13   0.00    -0.02   0.03  -0.02    -0.04  -0.04  -0.03
    68   1    -0.06  -0.24   0.13    -0.01   0.04  -0.04     0.02  -0.20   0.04
    69   1    -0.18  -0.09  -0.13     0.01   0.01  -0.01    -0.12  -0.03  -0.12
    70   1    -0.02  -0.16   0.04    -0.02   0.04  -0.04    -0.12  -0.05  -0.11
    71   6     0.03  -0.07   0.06    -0.01  -0.04   0.00     0.10  -0.04   0.06
    72   1     0.03  -0.31   0.01     0.01  -0.10  -0.01     0.15  -0.15   0.04
    73   1    -0.03  -0.05   0.29    -0.00  -0.04   0.07     0.12  -0.03   0.18
    74   6     0.03   0.07   0.06    -0.01   0.04   0.00    -0.10  -0.04  -0.06
    75   1    -0.03   0.05   0.29    -0.00   0.04   0.07    -0.12  -0.03  -0.18
    76   1     0.03   0.31   0.01     0.01   0.10  -0.01    -0.15  -0.15  -0.04
                     31                     32                     33
                      A                      A                      A
 Frequencies --    445.3163               446.1026               458.1257
 Red. masses --     10.3316                 8.5467                11.3307
 Frc consts  --      1.2071                 1.0021                 1.4011
 IR Inten    --      0.0000                 0.0000                 0.0000
  Atom  AN      X      Y      Z        X      Y      Z        X      Y      Z
     1   6     0.01  -0.08   0.00    -0.05   0.09  -0.02    -0.06   0.14  -0.19
     2   6     0.01   0.01   0.01    -0.03   0.01   0.04    -0.01   0.12  -0.14
     3   6    -0.01  -0.04   0.15    -0.05  -0.06   0.18    -0.01   0.00   0.13
     4   6    -0.03   0.00   0.18    -0.00  -0.02   0.00     0.02  -0.00   0.24
     5   6    -0.10  -0.00  -0.12    -0.00   0.03  -0.00     0.03   0.00   0.14
     6   6    -0.10   0.01  -0.12     0.02   0.02   0.03     0.01   0.04   0.01
     7   6     0.07  -0.14   0.02    -0.06   0.14  -0.05    -0.01  -0.02  -0.08
     8   6     0.03   0.02  -0.03    -0.03   0.11  -0.07    -0.00  -0.19  -0.01
     9   6     0.05   0.12  -0.06     0.01   0.07  -0.04    -0.00  -0.05  -0.03
    10   6     0.04   0.08  -0.06     0.02   0.03  -0.03    -0.01  -0.05   0.02
    11   6     0.05   0.00   0.03    -0.04  -0.06   0.11    -0.02  -0.01   0.10
    12   6    -0.01   0.04   0.15     0.05  -0.06  -0.18    -0.01  -0.00   0.13
    13   6     0.01  -0.01   0.01     0.03   0.01  -0.04    -0.01  -0.12  -0.14
    14   6     0.01   0.07   0.00     0.05   0.09   0.02    -0.06  -0.14  -0.19
    15   6    -0.10  -0.01  -0.12    -0.02   0.02  -0.03     0.01  -0.04   0.01
    16   6    -0.06   0.00  -0.07    -0.06  -0.04  -0.04     0.09   0.00   0.07
    17   6    -0.06  -0.00  -0.07     0.06  -0.04   0.03     0.09  -0.00   0.07
    18   6     0.10  -0.09   0.02     0.13  -0.07   0.05     0.01  -0.01   0.04
    19   6     0.10  -0.12   0.03     0.05  -0.01   0.01     0.05  -0.04  -0.01
    20   6    -0.03   0.05  -0.01    -0.02  -0.14  -0.08    -0.01  -0.18  -0.02
    21   6    -0.05   0.15   0.04     0.02  -0.08  -0.02     0.00   0.03   0.06
    22   6    -0.04   0.08   0.06     0.01  -0.03   0.01     0.04  -0.00  -0.01
    23   6    -0.07   0.08   0.07    -0.03   0.00   0.06    -0.01   0.02  -0.02
    24   6     0.02  -0.00   0.05     0.06  -0.05   0.03    -0.08   0.01   0.04
    25   6     0.02   0.00   0.05    -0.06  -0.05  -0.03    -0.08  -0.01   0.04
    26   6     0.11   0.09   0.02    -0.13  -0.06  -0.05     0.01   0.01   0.04
    27   6     0.10   0.12   0.03    -0.05  -0.01  -0.01     0.05   0.04  -0.01
    28   6     0.07   0.13   0.02     0.06   0.14   0.05    -0.01   0.02  -0.08
    29   6     0.04  -0.00   0.03     0.04  -0.06  -0.11    -0.02   0.01   0.10
    30   6    -0.08   0.10  -0.04     0.05  -0.16   0.09    -0.01   0.06   0.02
    31   6    -0.10   0.10  -0.04    -0.04  -0.01   0.04    -0.02   0.06   0.01
    32   6    -0.10   0.08  -0.00    -0.10   0.03  -0.02     0.04   0.01  -0.02
    33   6     0.03  -0.01   0.09    -0.07   0.02  -0.02    -0.06   0.01  -0.04
    34   6     0.08  -0.04   0.14    -0.06   0.01  -0.03    -0.06  -0.02  -0.07
    35   6    -0.01  -0.06  -0.01    -0.01   0.00  -0.04     0.01  -0.17   0.18
    36   6    -0.05  -0.15   0.04    -0.02  -0.08   0.02     0.00  -0.03   0.06
    37   6    -0.03  -0.04  -0.01     0.02  -0.14   0.08    -0.01   0.18  -0.02
    38   6     0.03  -0.02  -0.03     0.03   0.11   0.07    -0.00   0.19  -0.01
    39   6     0.05  -0.12  -0.06    -0.01   0.07   0.04    -0.00   0.05  -0.03
    40   6     0.04  -0.08  -0.06    -0.02   0.03   0.03    -0.01   0.05   0.02
    41   6    -0.10  -0.08  -0.01     0.09   0.03   0.02     0.04  -0.01  -0.02
    42   6     0.03   0.01   0.09     0.07   0.02   0.02    -0.06  -0.01  -0.04
    43   6     0.08   0.04   0.14     0.06   0.01   0.03    -0.06   0.02  -0.07
    44   6     0.10  -0.00   0.13     0.00   0.02   0.00    -0.07   0.00  -0.17
    45   6     0.03  -0.00  -0.17     0.00   0.06  -0.00    -0.03   0.00  -0.14
    46   6     0.03   0.01  -0.15     0.03   0.08  -0.15     0.02  -0.04  -0.04
    47   6    -0.04  -0.08   0.06    -0.01  -0.03  -0.01     0.04   0.00  -0.01
    48   6    -0.08  -0.08   0.07     0.03  -0.00  -0.05    -0.01  -0.02  -0.02
    49   6    -0.01  -0.01  -0.03     0.04   0.06  -0.10     0.07  -0.00  -0.11
    50   6    -0.01   0.01  -0.03    -0.04   0.06   0.10     0.07   0.00  -0.11
    51   6     0.03  -0.01  -0.15    -0.03   0.08   0.15     0.02   0.04  -0.04
    52   6    -0.01   0.06  -0.01     0.01   0.00   0.04     0.01   0.17   0.18
    53   6    -0.01  -0.02   0.00    -0.00  -0.07  -0.04     0.03   0.13   0.13
    54   6    -0.08  -0.10  -0.04    -0.05  -0.16  -0.09    -0.01  -0.06   0.02
    55   6    -0.10  -0.10  -0.04     0.04  -0.01  -0.04    -0.02  -0.06   0.01
    56   6     0.07  -0.07  -0.06    -0.02  -0.00  -0.03     0.04   0.00   0.03
    57   6     0.07   0.07  -0.06     0.02  -0.00   0.03     0.04  -0.00   0.03
    58   6    -0.01   0.02   0.00     0.00  -0.07   0.04     0.03  -0.13   0.13
    59   6    -0.02   0.01  -0.01    -0.06   0.04  -0.02     0.06  -0.00  -0.03
    60   6    -0.03  -0.01  -0.01     0.06   0.04   0.02     0.06   0.00  -0.03
    61   6     0.00  -0.00  -0.01     0.03  -0.06   0.00    -0.08  -0.00   0.02
    62   6     0.00   0.00  -0.01    -0.03  -0.06  -0.00    -0.08   0.00   0.02
    63   6     0.01  -0.03   0.01    -0.04   0.02  -0.04    -0.02  -0.03  -0.03
    64   1     0.02  -0.02   0.03    -0.11   0.03  -0.09    -0.03  -0.05  -0.07
    65   1     0.02  -0.04   0.03    -0.11   0.01  -0.11     0.03   0.00   0.00
    66   1    -0.00  -0.06  -0.01     0.01   0.15   0.03    -0.00  -0.04  -0.06
    67   6     0.01   0.03   0.01     0.04   0.02   0.04    -0.02   0.03  -0.03
    68   1    -0.00   0.06  -0.01    -0.01   0.15  -0.03    -0.00   0.04  -0.06
    69   1     0.02   0.04   0.02     0.11   0.01   0.11     0.03  -0.00   0.00
    70   1     0.02   0.02   0.03     0.11   0.03   0.09    -0.03   0.05  -0.07
    71   6    -0.00   0.06  -0.03    -0.06   0.04  -0.06     0.02  -0.04  -0.02
    72   1    -0.05   0.19  -0.01    -0.08   0.18  -0.04     0.07  -0.08  -0.01
    73   1     0.03   0.05  -0.16    -0.08   0.03  -0.20     0.00  -0.04   0.03
    74   6    -0.01  -0.06  -0.03     0.06   0.04   0.06     0.02   0.04  -0.02
    75   1     0.03  -0.05  -0.16     0.08   0.03   0.20     0.00   0.04   0.03
    76   1    -0.05  -0.19  -0.01     0.08   0.17   0.04     0.07   0.08  -0.01
                     34                     35                     36
                      A                      A                      A
 Frequencies --    467.4127               472.7065               479.5210
 Red. masses --     11.1231                 8.1154                11.9645
 Frc consts  --      1.4318                 1.0684                 1.6209
 IR Inten    --      0.0000                 0.0000                 0.0000
  Atom  AN      X      Y      Z        X      Y      Z        X      Y      Z
     1   6    -0.07   0.06  -0.12     0.01  -0.00  -0.01     0.10  -0.09   0.10
     2   6    -0.03   0.05  -0.12     0.01  -0.02   0.05     0.06   0.08  -0.09
     3   6     0.01   0.03  -0.04    -0.05  -0.08   0.15    -0.03   0.04  -0.11
     4   6    -0.00   0.03  -0.00     0.00  -0.05  -0.00    -0.03   0.00  -0.14
     5   6    -0.00   0.06  -0.00     0.00   0.01  -0.00     0.02  -0.00   0.08
     6   6    -0.10   0.07  -0.09    -0.04   0.04  -0.08     0.04  -0.03   0.10
     7   6     0.02  -0.12   0.01     0.03  -0.04  -0.00     0.12  -0.14   0.07
     8   6    -0.00  -0.12  -0.01     0.02  -0.00   0.01     0.06  -0.00  -0.00
     9   6    -0.03  -0.08  -0.02     0.04   0.10  -0.03     0.09   0.15  -0.09
    10   6    -0.02  -0.02   0.04     0.07   0.16  -0.04     0.03   0.04  -0.01
    11   6    -0.04  -0.02   0.07    -0.06  -0.05   0.09    -0.14  -0.02   0.12
    12   6    -0.01   0.03   0.04     0.05  -0.08  -0.15    -0.03  -0.04  -0.11
    13   6     0.03   0.05   0.12    -0.01  -0.02  -0.05     0.06  -0.08  -0.09
    14   6     0.07   0.06   0.12    -0.01  -0.00   0.01     0.10   0.09   0.10
    15   6     0.10   0.07   0.09     0.04   0.04   0.08     0.04   0.03   0.10
    16   6     0.01   0.02  -0.01     0.08   0.06   0.06    -0.13  -0.02  -0.03
    17   6    -0.01   0.02   0.01    -0.08   0.06  -0.06    -0.13   0.02  -0.03
    18   6     0.09  -0.07   0.08    -0.12   0.04  -0.05    -0.10   0.04  -0.03
    19   6     0.10  -0.12   0.08     0.01  -0.05  -0.03     0.02  -0.03   0.01
    20   6     0.01   0.07  -0.02     0.01  -0.06   0.01    -0.05  -0.01   0.02
    21   6     0.00   0.07   0.02     0.02  -0.10  -0.01    -0.07   0.12   0.10
    22   6    -0.02   0.03   0.09     0.05  -0.11  -0.06    -0.01   0.02   0.01
    23   6    -0.09   0.06   0.14    -0.02  -0.02  -0.02     0.08  -0.05  -0.07
    24   6    -0.00  -0.01   0.07    -0.07   0.01  -0.02    -0.01  -0.00  -0.04
    25   6     0.00  -0.01  -0.07     0.07   0.01   0.02    -0.01   0.00  -0.04
    26   6    -0.09  -0.07  -0.08     0.12   0.04   0.05    -0.10  -0.04  -0.03
    27   6    -0.10  -0.12  -0.08    -0.01  -0.05   0.03     0.02   0.03   0.01
    28   6    -0.02  -0.12  -0.01    -0.03  -0.04   0.00     0.12   0.14   0.07
    29   6     0.04  -0.02  -0.07     0.06  -0.05  -0.09    -0.14   0.02   0.12
    30   6    -0.05   0.12   0.03    -0.03   0.03  -0.04    -0.12   0.16  -0.06
    31   6    -0.12   0.16  -0.02    -0.03   0.09   0.01    -0.04   0.06  -0.00
    32   6    -0.08   0.09  -0.06     0.12  -0.04   0.06     0.07  -0.02   0.03
    33   6     0.03  -0.04   0.03     0.10  -0.04   0.08     0.15  -0.02   0.04
    34   6     0.13  -0.11   0.17     0.07  -0.04   0.07    -0.04   0.05  -0.14
    35   6    -0.02  -0.02   0.07     0.00   0.04  -0.09    -0.05  -0.07   0.11
    36   6    -0.00   0.07  -0.02    -0.02  -0.10   0.01    -0.07  -0.12   0.10
    37   6    -0.01   0.07   0.02    -0.01  -0.06  -0.01    -0.05   0.01   0.02
    38   6     0.00  -0.12   0.01    -0.02  -0.00  -0.01     0.06   0.00  -0.00
    39   6     0.03  -0.08   0.02    -0.04   0.10   0.03     0.09  -0.15  -0.09
    40   6     0.02  -0.02  -0.04    -0.07   0.16   0.04     0.03  -0.04  -0.01
    41   6     0.08   0.09   0.06    -0.12  -0.04  -0.06     0.07   0.02   0.03
    42   6    -0.03  -0.04  -0.03    -0.10  -0.04  -0.08     0.15   0.02   0.04
    43   6    -0.13  -0.11  -0.17    -0.07  -0.04  -0.07    -0.04  -0.05  -0.14
    44   6     0.00  -0.07   0.00     0.00  -0.02   0.00    -0.03   0.00  -0.15
    45   6     0.00  -0.01   0.00     0.00   0.03   0.00     0.03  -0.00   0.10
    46   6    -0.02   0.02  -0.02     0.04   0.07  -0.13     0.02  -0.03   0.10
    47   6     0.02   0.03  -0.09    -0.05  -0.11   0.06    -0.01  -0.02   0.01
    48   6     0.09   0.06  -0.14     0.02  -0.02   0.02     0.08   0.05  -0.07
    49   6     0.03   0.05  -0.09     0.04   0.05  -0.05     0.13   0.02  -0.10
    50   6    -0.03   0.05   0.09    -0.04   0.05   0.05     0.13  -0.02  -0.10
    51   6     0.02   0.02   0.02    -0.04   0.07   0.13     0.02   0.03   0.10
    52   6     0.02  -0.02  -0.07    -0.00   0.04   0.09    -0.05   0.07   0.11
    53   6    -0.04  -0.07  -0.15     0.00   0.02   0.05    -0.10  -0.10  -0.09
    54   6     0.05   0.12  -0.03     0.03   0.03   0.04    -0.12  -0.16  -0.06
    55   6     0.12   0.16   0.02     0.03   0.09  -0.01    -0.04  -0.06  -0.00
    56   6     0.10  -0.09  -0.15     0.06   0.02  -0.02    -0.07   0.04   0.07
    57   6    -0.10  -0.09   0.15    -0.06   0.02   0.02    -0.07  -0.04   0.07
    58   6     0.04  -0.07   0.15    -0.00   0.02  -0.05    -0.10   0.10  -0.09
    59   6     0.01   0.01  -0.05     0.08  -0.03   0.01     0.00   0.00   0.02
    60   6    -0.01   0.01   0.05    -0.08  -0.03  -0.01     0.00  -0.00   0.02
    61   6    -0.00  -0.02  -0.03    -0.06   0.06   0.01     0.00   0.00   0.01
    62   6     0.00  -0.02   0.03     0.06   0.06  -0.01     0.00  -0.00   0.01
    63   6    -0.02  -0.03  -0.02     0.03  -0.03   0.02     0.00   0.01   0.00
    64   1    -0.02  -0.02   0.00     0.10  -0.06   0.06     0.00   0.01  -0.00
    65   1    -0.04  -0.05  -0.03     0.13  -0.01   0.11     0.00   0.01  -0.00
    66   1    -0.03  -0.05  -0.02    -0.01  -0.17  -0.06     0.00   0.02   0.01
    67   6     0.02  -0.03   0.02    -0.03  -0.03  -0.02     0.00  -0.01   0.00
    68   1     0.03  -0.04   0.02     0.01  -0.17   0.06     0.01  -0.02   0.01
    69   1     0.04  -0.05   0.03    -0.13  -0.01  -0.11     0.00  -0.01  -0.00
    70   1     0.02  -0.02  -0.00    -0.10  -0.06  -0.06     0.00  -0.01  -0.00
    71   6     0.03   0.03  -0.00     0.09  -0.04   0.05    -0.01  -0.00   0.01
    72   1     0.07   0.12   0.02     0.12  -0.19   0.03    -0.01  -0.02   0.01
    73   1     0.03   0.02  -0.10     0.10  -0.03   0.19    -0.01  -0.00   0.02
    74   6    -0.03   0.03   0.00    -0.09  -0.04  -0.05    -0.01   0.00   0.01
    75   1    -0.03   0.02   0.10    -0.10  -0.03  -0.19    -0.01   0.00   0.02
    76   1    -0.07   0.12  -0.02    -0.12  -0.18  -0.03    -0.01   0.02   0.01
                     37                     38                     39
                      A                      A                      A
 Frequencies --    489.6570               498.8115               503.6426
 Red. masses --     11.1650                 8.1083                 5.8579
 Frc consts  --      1.5772                 1.1886                 0.8755
 IR Inten    --      0.0000                 0.0000                 0.0000
  Atom  AN      X      Y      Z        X      Y      Z        X      Y      Z
     1   6    -0.03   0.03  -0.04     0.02  -0.04   0.08    -0.04   0.02  -0.02
     2   6    -0.01   0.07  -0.13    -0.02  -0.03   0.06    -0.02  -0.02   0.03
     3   6     0.04   0.04  -0.11    -0.03  -0.02   0.09    -0.02   0.02  -0.00
     4   6     0.04  -0.00   0.03    -0.00  -0.00   0.11     0.00  -0.00  -0.00
     5   6     0.05  -0.00   0.17     0.02  -0.00   0.04    -0.00  -0.02  -0.00
     6   6    -0.04   0.00   0.03     0.04  -0.01   0.03    -0.00  -0.01  -0.02
     7   6    -0.01   0.01   0.00     0.04  -0.06   0.07    -0.04   0.04  -0.02
     8   6     0.01  -0.11   0.01     0.02  -0.10   0.04    -0.00  -0.09   0.01
     9   6     0.00   0.06  -0.08    -0.01  -0.04   0.02     0.01  -0.06   0.04
    10   6     0.04   0.13  -0.05    -0.03  -0.05  -0.02     0.11   0.09  -0.03
    11   6     0.07   0.04  -0.10    -0.02  -0.02   0.02    -0.00   0.05  -0.01
    12   6     0.04  -0.04  -0.11    -0.03   0.02   0.09     0.02   0.02   0.00
    13   6    -0.01  -0.07  -0.13    -0.02   0.03   0.06     0.02  -0.02  -0.03
    14   6    -0.03  -0.03  -0.04     0.02   0.04   0.08     0.04   0.02   0.02
    15   6    -0.04  -0.00   0.03     0.04   0.01   0.03     0.00  -0.01   0.02
    16   6    -0.19  -0.03  -0.08     0.07   0.01   0.01    -0.04  -0.02  -0.00
    17   6    -0.19   0.03  -0.08     0.07  -0.01   0.01     0.04  -0.02   0.00
    18   6    -0.02   0.07  -0.05     0.08  -0.00  -0.01     0.12  -0.03   0.01
    19   6    -0.08   0.13   0.01     0.02   0.00   0.04    -0.03   0.07   0.00
    20   6    -0.00  -0.12   0.02     0.00  -0.14   0.01    -0.01  -0.07  -0.01
    21   6    -0.01  -0.02   0.05     0.03  -0.13  -0.02    -0.03   0.04   0.03
    22   6    -0.07   0.11   0.06     0.01  -0.04   0.02    -0.06   0.09   0.03
    23   6    -0.00   0.03   0.02     0.03  -0.04  -0.04     0.06  -0.00  -0.02
    24   6     0.22  -0.01  -0.07     0.11  -0.01  -0.07     0.12  -0.03  -0.02
    25   6     0.22   0.01  -0.07     0.11   0.01  -0.07    -0.12  -0.03   0.02
    26   6    -0.02  -0.07  -0.05     0.08   0.00  -0.01    -0.12  -0.03  -0.01
    27   6    -0.08  -0.13   0.01     0.02  -0.00   0.04     0.03   0.07  -0.00
    28   6    -0.01  -0.01   0.00     0.04   0.06   0.07     0.04   0.04   0.02
    29   6     0.07  -0.04  -0.10    -0.02   0.02   0.02     0.00   0.05   0.01
    30   6     0.02  -0.03   0.07    -0.01   0.06  -0.03    -0.00  -0.04   0.04
    31   6     0.03  -0.12   0.00    -0.05   0.03  -0.04    -0.10   0.09   0.01
    32   6    -0.01  -0.07   0.02    -0.13   0.03  -0.04     0.01   0.00  -0.00
    33   6     0.12  -0.04   0.03    -0.09   0.03  -0.08    -0.01   0.05  -0.03
    34   6     0.09  -0.03   0.04    -0.03   0.03  -0.09     0.00   0.02  -0.03
    35   6     0.00  -0.01   0.08     0.03   0.08  -0.06     0.02  -0.00   0.00
    36   6    -0.01   0.02   0.05     0.03   0.13  -0.02     0.03   0.04  -0.03
    37   6    -0.00   0.12   0.02     0.00   0.14   0.01     0.01  -0.07   0.01
    38   6     0.01   0.11   0.01     0.02   0.10   0.04     0.00  -0.09  -0.01
    39   6     0.00  -0.05  -0.08    -0.01   0.04   0.02    -0.01  -0.06  -0.04
    40   6     0.04  -0.13  -0.05    -0.03   0.05  -0.02    -0.11   0.09   0.03
    41   6    -0.01   0.07   0.02    -0.13  -0.03  -0.04    -0.01   0.00   0.00
    42   6     0.12   0.03   0.03    -0.09  -0.03  -0.08     0.01   0.05   0.03
    43   6     0.09   0.03   0.04    -0.03  -0.03  -0.09    -0.00   0.02   0.03
    44   6     0.02   0.00  -0.11    -0.02  -0.00  -0.12     0.00   0.00   0.00
    45   6    -0.02   0.00  -0.20     0.01  -0.00  -0.10    -0.00  -0.02   0.00
    46   6    -0.05   0.01  -0.00     0.02   0.04  -0.08    -0.01  -0.02   0.01
    47   6    -0.07  -0.11   0.06     0.01   0.04   0.02     0.06   0.09  -0.03
    48   6    -0.00  -0.03   0.02     0.03   0.04  -0.04    -0.06  -0.00   0.02
    49   6    -0.15  -0.02   0.14     0.03   0.02  -0.06    -0.03  -0.02   0.02
    50   6    -0.15   0.02   0.14     0.03  -0.02  -0.06     0.03  -0.02  -0.02
    51   6    -0.05  -0.01  -0.00     0.02  -0.04  -0.08     0.01  -0.02  -0.01
    52   6     0.00   0.01   0.08     0.03  -0.08  -0.06    -0.02  -0.00  -0.00
    53   6     0.06   0.05   0.11     0.01  -0.05  -0.05    -0.03  -0.01  -0.03
    54   6     0.02   0.03   0.07    -0.01  -0.06  -0.03     0.00  -0.04  -0.04
    55   6     0.03   0.12   0.00    -0.05  -0.03  -0.04     0.10   0.09  -0.01
    56   6    -0.01  -0.06  -0.03    -0.06   0.07   0.05    -0.02   0.01  -0.01
    57   6    -0.01   0.06  -0.03    -0.06  -0.07   0.05     0.02   0.01   0.01
    58   6     0.06  -0.05   0.11     0.01   0.05  -0.05     0.03  -0.01   0.03
    59   6    -0.08  -0.01   0.05    -0.13   0.06   0.09     0.06  -0.10  -0.02
    60   6    -0.08   0.01   0.05    -0.13  -0.06   0.09    -0.06  -0.10   0.02
    61   6     0.07   0.00  -0.03     0.14   0.00  -0.06    -0.10   0.06   0.13
    62   6     0.07  -0.00  -0.03     0.14  -0.00  -0.06     0.10   0.06  -0.13
    63   6     0.02   0.02   0.02     0.04   0.03   0.05     0.06   0.04   0.06
    64   1     0.03   0.05   0.08     0.08   0.09   0.16     0.06  -0.04  -0.04
    65   1    -0.05  -0.01  -0.02    -0.07  -0.03  -0.01     0.22   0.13   0.15
    66   1    -0.01   0.03   0.06    -0.01   0.04   0.11     0.10  -0.03  -0.04
    67   6     0.02  -0.02   0.02     0.04  -0.03   0.05    -0.06   0.04  -0.06
    68   1    -0.01  -0.03   0.06    -0.01  -0.04   0.11    -0.10  -0.03   0.04
    69   1    -0.05   0.01  -0.02    -0.07   0.03  -0.01    -0.22   0.13  -0.15
    70   1     0.03  -0.05   0.08     0.08  -0.09   0.16    -0.06  -0.04   0.04
    71   6    -0.04   0.03   0.05    -0.10   0.11   0.07     0.10  -0.11  -0.04
    72   1    -0.12   0.03   0.03    -0.24   0.18   0.05     0.04  -0.32  -0.10
    73   1    -0.04   0.03   0.04    -0.10   0.09  -0.03     0.14  -0.10   0.18
    74   6    -0.04  -0.03   0.05    -0.10  -0.11   0.07    -0.10  -0.11   0.04
    75   1    -0.04  -0.03   0.04    -0.10  -0.09  -0.04    -0.14  -0.10  -0.18
    76   1    -0.12  -0.03   0.03    -0.24  -0.18   0.05    -0.04  -0.32   0.10
                     40                     41                     42
                      A                      A                      A
 Frequencies --    516.4521               517.8233               520.0892
 Red. masses --      9.8576                 5.7547                11.7181
 Frc consts  --      1.5491                 0.9092                 1.8675
 IR Inten    --      0.0000                 0.0000                 0.0000
  Atom  AN      X      Y      Z        X      Y      Z        X      Y      Z
     1   6     0.03   0.07   0.01     0.03  -0.04   0.05    -0.02   0.11  -0.11
     2   6     0.02  -0.05   0.02     0.02   0.05  -0.03    -0.00   0.15  -0.15
     3   6     0.03   0.02  -0.16     0.01   0.03  -0.02    -0.01   0.05  -0.01
     4   6     0.00  -0.01   0.00     0.00   0.03   0.00     0.01  -0.00   0.20
     5   6     0.00   0.00   0.00     0.00  -0.00   0.00     0.06  -0.00   0.22
     6   6     0.13  -0.02   0.14     0.03  -0.02   0.06    -0.00   0.05   0.02
     7   6    -0.07   0.19  -0.05    -0.02  -0.05   0.04     0.08  -0.10   0.03
     8   6    -0.01  -0.01   0.02    -0.01  -0.06  -0.00     0.04  -0.14   0.08
     9   6    -0.03  -0.16   0.09     0.02   0.06  -0.04    -0.01  -0.07   0.02
    10   6    -0.01  -0.06   0.05     0.02   0.04  -0.03    -0.06  -0.12   0.04
    11   6     0.03   0.03  -0.11    -0.02  -0.03   0.02    -0.01   0.00  -0.06
    12   6    -0.03   0.02   0.16    -0.01   0.03   0.02    -0.01  -0.05  -0.01
    13   6    -0.02  -0.05  -0.02    -0.02   0.05   0.03    -0.00  -0.15  -0.15
    14   6    -0.03   0.07  -0.01    -0.03  -0.04  -0.05    -0.02  -0.11  -0.11
    15   6    -0.13  -0.02  -0.14    -0.03  -0.02  -0.05    -0.00  -0.05   0.02
    16   6    -0.11  -0.04  -0.07     0.01   0.02  -0.02    -0.09  -0.02  -0.09
    17   6     0.11  -0.04   0.07    -0.01   0.02   0.02    -0.09   0.02  -0.09
    18   6     0.04  -0.00   0.01    -0.07   0.03   0.01     0.06  -0.07  -0.01
    19   6    -0.07   0.10  -0.05    -0.10   0.07   0.02     0.06  -0.08   0.00
    20   6     0.02  -0.06  -0.00    -0.00  -0.08  -0.02     0.00   0.13   0.09
    21   6     0.02  -0.17  -0.08    -0.01   0.08   0.04    -0.06   0.07   0.03
    22   6    -0.01  -0.05  -0.06     0.00   0.04   0.01    -0.08   0.10   0.03
    23   6     0.01  -0.02  -0.00     0.15  -0.07  -0.08    -0.06   0.07   0.03
    24   6     0.04  -0.02   0.01     0.07  -0.05  -0.02     0.04  -0.00   0.01
    25   6    -0.04  -0.02  -0.01    -0.07  -0.05   0.02     0.04   0.00   0.01
    26   6    -0.04  -0.00  -0.01     0.07   0.03  -0.01     0.06   0.07  -0.01
    27   6     0.07   0.10   0.05     0.10   0.07  -0.02     0.06   0.08   0.00
    28   6     0.07   0.19   0.05     0.02  -0.05  -0.04     0.08   0.10   0.03
    29   6    -0.03   0.03   0.11     0.02  -0.03  -0.02    -0.01  -0.00  -0.06
    30   6    -0.07   0.13  -0.06     0.02  -0.10   0.06     0.03  -0.09   0.04
    31   6    -0.07   0.08  -0.04    -0.06   0.03   0.03     0.04  -0.09   0.02
    32   6     0.01   0.01   0.04    -0.04   0.03  -0.01     0.05  -0.08  -0.01
    33   6     0.08  -0.02   0.08    -0.01   0.02  -0.01    -0.07   0.01  -0.10
    34   6     0.10  -0.01   0.12     0.02  -0.02   0.01     0.02   0.04  -0.00
    35   6     0.03  -0.05  -0.01    -0.00   0.08  -0.06    -0.03   0.14  -0.15
    36   6    -0.02  -0.17   0.08     0.01   0.08  -0.04    -0.06  -0.07   0.03
    37   6    -0.02  -0.06   0.00     0.00  -0.08   0.02     0.00  -0.13   0.09
    38   6     0.01  -0.01  -0.02     0.01  -0.06   0.00     0.04   0.14   0.08
    39   6     0.03  -0.16  -0.09    -0.02   0.06   0.04    -0.01   0.07   0.02
    40   6     0.00  -0.06  -0.05    -0.02   0.04   0.03    -0.06   0.12   0.04
    41   6    -0.01   0.01  -0.04     0.04   0.03   0.01     0.05   0.08  -0.01
    42   6    -0.08  -0.02  -0.08     0.01   0.02   0.01    -0.07  -0.01  -0.10
    43   6    -0.10  -0.01  -0.12    -0.02  -0.02  -0.01     0.02  -0.04  -0.00
    44   6     0.00   0.02  -0.00     0.00  -0.02   0.00     0.10   0.00   0.21
    45   6     0.00   0.01  -0.00     0.00   0.02  -0.00     0.06  -0.00   0.18
    46   6     0.05   0.03  -0.16    -0.03   0.03  -0.00     0.02   0.07  -0.01
    47   6     0.01  -0.05   0.06    -0.00   0.04  -0.01    -0.08  -0.10   0.03
    48   6    -0.01  -0.02   0.00    -0.15  -0.07   0.08    -0.06  -0.07   0.03
    49   6     0.05   0.03  -0.08    -0.07  -0.03   0.04     0.02   0.01  -0.07
    50   6    -0.05   0.03   0.08     0.07  -0.03  -0.04     0.02  -0.01  -0.07
    51   6    -0.05   0.03   0.16     0.03   0.03   0.00     0.01  -0.07  -0.01
    52   6    -0.03  -0.05   0.01     0.00   0.08   0.06    -0.03  -0.14  -0.15
    53   6    -0.02   0.06   0.02    -0.01  -0.02  -0.03    -0.05  -0.13  -0.12
    54   6     0.07   0.13   0.06    -0.02  -0.10  -0.06     0.03   0.09   0.04
    55   6     0.07   0.08   0.04     0.06   0.03  -0.03     0.04   0.09   0.02
    56   6     0.02  -0.01   0.04     0.07  -0.05  -0.06    -0.06   0.09   0.04
    57   6    -0.02  -0.01  -0.04    -0.07  -0.05   0.06    -0.06  -0.09   0.04
    58   6     0.02   0.06  -0.02     0.01  -0.02   0.03    -0.05   0.13  -0.12
    59   6     0.03  -0.00   0.04     0.03  -0.00  -0.01     0.03  -0.01  -0.01
    60   6    -0.03  -0.00  -0.04    -0.03  -0.00   0.01     0.03   0.01  -0.01
    61   6    -0.01   0.01  -0.07     0.03   0.01  -0.15    -0.01   0.00   0.02
    62   6     0.01   0.01   0.07    -0.03   0.01   0.15    -0.01  -0.00   0.02
    63   6    -0.03  -0.05  -0.03    -0.05  -0.09  -0.05     0.00   0.01   0.00
    64   1     0.03  -0.04   0.05     0.04  -0.03   0.11    -0.01  -0.00  -0.02
    65   1    -0.03  -0.08  -0.01    -0.09  -0.15  -0.04     0.02   0.02   0.01
    66   1    -0.08  -0.13  -0.04    -0.15  -0.20  -0.05     0.02   0.02  -0.00
    67   6     0.03  -0.05   0.03     0.04  -0.09   0.05     0.00  -0.01   0.00
    68   1     0.08  -0.13   0.04     0.15  -0.20   0.05     0.02  -0.02  -0.00
    69   1     0.03  -0.08   0.01     0.09  -0.15   0.04     0.02  -0.02   0.01
    70   1    -0.03  -0.04  -0.05    -0.04  -0.03  -0.11    -0.01   0.00  -0.02
    71   6     0.05   0.05   0.04     0.07   0.09   0.06     0.02  -0.03  -0.01
    72   1     0.05   0.19   0.07     0.15   0.30   0.13     0.06  -0.07  -0.01
    73   1     0.09   0.04  -0.09     0.11   0.07  -0.15     0.01  -0.03   0.03
    74   6    -0.05   0.05  -0.04    -0.07   0.09  -0.06     0.02   0.03  -0.01
    75   1    -0.09   0.04   0.09    -0.11   0.07   0.15     0.01   0.03   0.03
    76   1    -0.05   0.19  -0.07    -0.15   0.30  -0.13     0.06   0.07  -0.01
                     43                     44                     45
                      A                      A                      A
 Frequencies --    526.4207               526.9094               530.0159
 Red. masses --      9.7449                 7.1737                 7.5718
 Frc consts  --      1.5911                 1.1735                 1.2532
 IR Inten    --      0.0000                 0.0000                 0.0000
  Atom  AN      X      Y      Z        X      Y      Z        X      Y      Z
     1   6    -0.04   0.08  -0.06    -0.01   0.08  -0.07     0.01   0.08  -0.06
     2   6    -0.01   0.03   0.01     0.00   0.00   0.03     0.02   0.13  -0.11
     3   6    -0.02  -0.01   0.05    -0.05  -0.05   0.10    -0.02  -0.01   0.09
     4   6    -0.06   0.00   0.14    -0.00  -0.05   0.00     0.00   0.01  -0.00
     5   6    -0.13  -0.00  -0.15    -0.00   0.00  -0.00     0.00  -0.02   0.00
     6   6    -0.08   0.07  -0.12     0.02   0.04  -0.08     0.12  -0.04   0.12
     7   6     0.00   0.06  -0.01     0.02   0.02  -0.01    -0.03  -0.01  -0.01
     8   6     0.02   0.02   0.02     0.02  -0.07   0.04    -0.02  -0.10  -0.00
     9   6     0.03   0.02   0.01     0.02  -0.01   0.03     0.01   0.04  -0.05
    10   6     0.08   0.02  -0.07     0.04   0.05  -0.01    -0.03  -0.02   0.01
    11   6     0.12   0.03  -0.21    -0.03   0.00   0.02    -0.04  -0.07   0.11
    12   6    -0.02   0.01   0.05     0.05  -0.05  -0.10     0.02  -0.01  -0.09
    13   6    -0.01  -0.03   0.01    -0.00   0.00  -0.03    -0.02   0.13   0.11
    14   6    -0.04  -0.08  -0.07     0.01   0.08   0.06    -0.01   0.08   0.06
    15   6    -0.08  -0.07  -0.12    -0.02   0.04   0.08    -0.12  -0.04  -0.12
    16   6     0.08  -0.01   0.03    -0.06  -0.00   0.04    -0.09  -0.02  -0.07
    17   6     0.08   0.01   0.03     0.06  -0.00  -0.03     0.09  -0.02   0.07
    18   6    -0.01   0.04   0.01     0.16  -0.06  -0.02    -0.04   0.00   0.03
    19   6     0.02   0.05   0.03     0.04  -0.01  -0.00    -0.07   0.03   0.01
    20   6    -0.00   0.03   0.04    -0.01  -0.07   0.03    -0.01  -0.10  -0.01
    21   6     0.00   0.02   0.09    -0.05  -0.02  -0.00    -0.01  -0.01   0.01
    22   6    -0.01   0.03   0.05    -0.13   0.08   0.04    -0.03   0.02   0.01
    23   6    -0.07   0.01  -0.01    -0.13   0.03   0.00     0.00  -0.01  -0.01
    24   6    -0.18   0.02  -0.00     0.02  -0.04  -0.04    -0.03  -0.02   0.02
    25   6    -0.18  -0.02  -0.00    -0.02  -0.04   0.04     0.03  -0.02  -0.02
    26   6    -0.01  -0.04   0.01    -0.16  -0.07   0.02     0.04   0.00  -0.03
    27   6     0.02  -0.05   0.03    -0.04  -0.01   0.00     0.07   0.03  -0.01
    28   6     0.00  -0.06  -0.01    -0.02   0.02   0.01     0.03  -0.01   0.01
    29   6     0.12  -0.03  -0.21     0.03   0.00  -0.02     0.04  -0.06  -0.10
    30   6     0.02  -0.02  -0.04    -0.03   0.02  -0.05    -0.03   0.06  -0.03
    31   6     0.07  -0.07  -0.03     0.02  -0.03  -0.01     0.02  -0.00  -0.00
    32   6     0.01  -0.04   0.05     0.08  -0.07   0.05     0.00  -0.00   0.02
    33   6     0.15  -0.02   0.07     0.03  -0.06   0.03     0.10  -0.05   0.07
    34   6    -0.02   0.04  -0.08    -0.06   0.04  -0.03     0.10  -0.03   0.10
    35   6     0.03  -0.00   0.07    -0.01  -0.00   0.05    -0.04   0.08  -0.06
    36   6    -0.00  -0.02   0.09     0.05  -0.02   0.00     0.01  -0.01  -0.01
    37   6    -0.01  -0.03   0.04     0.01  -0.07  -0.03     0.01  -0.10   0.01
    38   6     0.02  -0.02   0.02    -0.02  -0.07  -0.04     0.02  -0.10  -0.00
    39   6     0.03  -0.02   0.01    -0.02  -0.01  -0.03    -0.01   0.04   0.05
    40   6     0.08  -0.02  -0.07    -0.04   0.05   0.01     0.03  -0.02  -0.01
    41   6     0.01   0.04   0.05    -0.08  -0.07  -0.05    -0.00  -0.00  -0.02
    42   6     0.15   0.02   0.07    -0.03  -0.05  -0.03    -0.10  -0.05  -0.07
    43   6    -0.03  -0.04  -0.09     0.06   0.04   0.03    -0.10  -0.03  -0.10
    44   6    -0.07  -0.00  -0.09    -0.00   0.05  -0.00     0.00  -0.03   0.00
    45   6    -0.02  -0.00   0.21    -0.00   0.02   0.00     0.00  -0.03  -0.00
    46   6    -0.01  -0.02   0.12    -0.01  -0.03   0.17    -0.08  -0.02   0.10
    47   6    -0.02  -0.03   0.05     0.12   0.08  -0.04     0.03   0.02  -0.01
    48   6    -0.07  -0.01  -0.01     0.13   0.03  -0.00    -0.00  -0.01   0.01
    49   6     0.06   0.01  -0.11     0.01   0.00   0.08    -0.07  -0.01   0.07
    50   6     0.07  -0.01  -0.11    -0.01  -0.00  -0.09     0.07  -0.01  -0.07
    51   6    -0.01   0.02   0.13     0.01  -0.03  -0.17     0.08  -0.02  -0.10
    52   6     0.03   0.00   0.07     0.01  -0.00  -0.05     0.04   0.08   0.06
    53   6     0.01  -0.03  -0.07     0.06   0.07   0.07     0.05   0.12   0.08
    54   6     0.02   0.02  -0.04     0.03   0.02   0.05     0.03   0.06   0.03
    55   6     0.07   0.07  -0.03    -0.02  -0.03   0.01    -0.02  -0.00   0.00
    56   6     0.02   0.03  -0.06    -0.01   0.05   0.04    -0.01  -0.03  -0.04
    57   6     0.02  -0.03  -0.05     0.01   0.05  -0.04     0.01  -0.03   0.04
    58   6     0.01   0.03  -0.07    -0.06   0.07  -0.07    -0.05   0.12  -0.08
    59   6    -0.09   0.03   0.10     0.02   0.01   0.04    -0.06   0.01  -0.01
    60   6    -0.09  -0.04   0.10    -0.02   0.01  -0.04     0.06   0.01   0.01
    61   6     0.07  -0.00  -0.04     0.03   0.02  -0.15     0.03  -0.03   0.10
    62   6     0.07   0.00  -0.04    -0.03   0.02   0.15    -0.03  -0.03  -0.10
    63   6     0.02   0.00   0.02    -0.04  -0.08  -0.05     0.03   0.08   0.04
    64   1     0.04   0.04   0.09     0.05  -0.02   0.12    -0.07   0.06  -0.09
    65   1    -0.05  -0.04  -0.01    -0.09  -0.14  -0.03     0.01   0.11  -0.02
    66   1    -0.02  -0.00   0.05    -0.15  -0.20  -0.04     0.13   0.24   0.08
    67   6     0.02  -0.00   0.02     0.04  -0.08   0.05    -0.03   0.08  -0.04
    68   1    -0.02   0.01   0.05     0.15  -0.20   0.04    -0.13   0.24  -0.08
    69   1    -0.05   0.04  -0.01     0.09  -0.14   0.03    -0.01   0.11   0.02
    70   1     0.04  -0.04   0.09    -0.05  -0.02  -0.12     0.07   0.06   0.09
    71   6    -0.10   0.08   0.08     0.04   0.08   0.08    -0.11  -0.05  -0.06
    72   1    -0.22   0.11   0.06     0.11   0.25   0.14    -0.18  -0.16  -0.10
    73   1    -0.12   0.07   0.02     0.07   0.07  -0.08    -0.16  -0.04   0.05
    74   6    -0.10  -0.08   0.08    -0.04   0.08  -0.08     0.11  -0.05   0.06
    75   1    -0.11  -0.07   0.02    -0.07   0.07   0.08     0.16  -0.04  -0.05
    76   1    -0.22  -0.12   0.06    -0.12   0.25  -0.13     0.18  -0.16   0.10
                     46                     47                     48
                      A                      A                      A
 Frequencies --    539.4190               543.4412               559.8982
 Red. masses --     11.4859                11.7718                10.8990
 Frc consts  --      1.9691                 2.0483                 2.0131
 IR Inten    --      0.0000                 0.0000                 0.0000
  Atom  AN      X      Y      Z        X      Y      Z        X      Y      Z
     1   6     0.07  -0.09   0.07     0.02  -0.03   0.08    -0.06   0.12  -0.08
     2   6     0.05   0.11  -0.06     0.01  -0.06   0.07    -0.06  -0.01  -0.02
     3   6    -0.00   0.01   0.10     0.02  -0.01  -0.06    -0.10  -0.04   0.01
     4   6    -0.01   0.00   0.15    -0.01   0.00  -0.05    -0.00  -0.10   0.00
     5   6    -0.07   0.00  -0.17    -0.02  -0.00   0.03    -0.00  -0.06  -0.00
     6   6    -0.02   0.00  -0.09    -0.05   0.01  -0.00     0.11  -0.05   0.13
     7   6     0.04  -0.15   0.07     0.01   0.16  -0.02    -0.01   0.10  -0.05
     8   6     0.02   0.02  -0.02     0.02   0.23  -0.08     0.02  -0.03  -0.00
     9   6     0.05   0.18  -0.10     0.04   0.08  -0.04    -0.02  -0.12   0.05
    10   6    -0.11  -0.11   0.05    -0.04  -0.09   0.03     0.05   0.03   0.02
    11   6     0.02   0.00  -0.03     0.05  -0.01  -0.09    -0.06   0.09  -0.02
    12   6    -0.00  -0.01   0.10     0.02   0.01  -0.06     0.10  -0.04  -0.01
    13   6     0.05  -0.11  -0.06     0.01   0.06   0.07     0.06  -0.01   0.02
    14   6     0.07   0.09   0.07     0.02   0.03   0.08     0.06   0.12   0.08
    15   6    -0.02  -0.00  -0.09    -0.05  -0.01  -0.00    -0.11  -0.05  -0.13
    16   6     0.04   0.00  -0.01    -0.15  -0.02  -0.10    -0.08  -0.01  -0.07
    17   6     0.04  -0.00  -0.01    -0.15   0.02  -0.10     0.08  -0.01   0.07
    18   6    -0.05   0.01  -0.01     0.16  -0.05  -0.00    -0.10   0.07   0.01
    19   6    -0.16   0.10   0.00     0.12  -0.03   0.03     0.14  -0.10   0.01
    20   6     0.04  -0.02  -0.03    -0.04  -0.20  -0.06     0.03   0.02   0.00
    21   6     0.01  -0.14  -0.13    -0.02  -0.11   0.01     0.00   0.14   0.06
    22   6    -0.16   0.11   0.03    -0.09   0.04   0.08     0.14  -0.15  -0.02
    23   6    -0.03   0.04   0.05    -0.16   0.06   0.08    -0.08  -0.03   0.02
    24   6     0.06   0.00   0.01    -0.02   0.00   0.00    -0.24   0.11   0.03
    25   6     0.06  -0.00   0.01    -0.02  -0.00   0.00     0.24   0.11  -0.04
    26   6    -0.05  -0.01  -0.01     0.16   0.05  -0.00     0.10   0.07  -0.01
    27   6    -0.16  -0.10   0.00     0.12   0.03   0.03    -0.14  -0.10  -0.01
    28   6     0.04   0.15   0.07     0.01  -0.16  -0.02     0.01   0.10   0.05
    29   6     0.02  -0.00  -0.03     0.05   0.01  -0.09     0.06   0.09   0.02
    30   6     0.09  -0.15   0.08    -0.05   0.10  -0.03     0.03  -0.12   0.04
    31   6    -0.09   0.12   0.03     0.06  -0.07   0.00    -0.09   0.00  -0.02
    32   6     0.01   0.06  -0.01     0.13  -0.12   0.02    -0.07  -0.01  -0.01
    33   6     0.03  -0.00   0.02    -0.13   0.01  -0.12    -0.05   0.01  -0.02
    34   6    -0.05  -0.02  -0.06    -0.01  -0.01  -0.02    -0.00   0.01   0.01
    35   6     0.01   0.04  -0.07     0.02  -0.05   0.10     0.06   0.10  -0.06
    36   6     0.01   0.14  -0.13    -0.02   0.11   0.01    -0.00   0.14  -0.06
    37   6     0.04   0.02  -0.03    -0.04   0.20  -0.06    -0.03   0.02  -0.00
    38   6     0.02  -0.02  -0.02     0.02  -0.23  -0.08    -0.02  -0.03   0.00
    39   6     0.05  -0.18  -0.10     0.04  -0.08  -0.04     0.02  -0.12  -0.05
    40   6    -0.11   0.11   0.05    -0.04   0.09   0.03    -0.05   0.03  -0.02
    41   6     0.01  -0.06  -0.01     0.13   0.12   0.02     0.07  -0.01   0.01
    42   6     0.03   0.00   0.02    -0.13  -0.01  -0.12     0.05   0.01   0.02
    43   6    -0.05   0.02  -0.06    -0.01   0.01  -0.02     0.00   0.01  -0.01
    44   6    -0.08  -0.00  -0.12     0.06  -0.00   0.03     0.00   0.04   0.00
    45   6    -0.00  -0.00   0.17     0.06  -0.00  -0.00     0.00   0.08  -0.00
    46   6     0.02  -0.02   0.09     0.05   0.01  -0.03     0.06  -0.00   0.14
    47   6    -0.16  -0.11   0.03    -0.09  -0.04   0.08    -0.14  -0.15   0.02
    48   6    -0.03  -0.04   0.05    -0.16  -0.06   0.08     0.08  -0.03  -0.02
    49   6     0.06  -0.01  -0.00     0.06   0.01  -0.10     0.03  -0.12   0.08
    50   6     0.06   0.01  -0.00     0.06  -0.01  -0.10    -0.03  -0.12  -0.08
    51   6     0.02   0.02   0.09     0.05  -0.01  -0.03    -0.06  -0.00  -0.14
    52   6     0.01  -0.04  -0.07     0.02   0.05   0.10    -0.06   0.10   0.06
    53   6     0.06   0.15   0.09     0.03   0.05   0.07    -0.06  -0.04  -0.03
    54   6     0.09   0.15   0.08    -0.05  -0.10  -0.03    -0.03  -0.12  -0.04
    55   6    -0.09  -0.12   0.03     0.06   0.07   0.01     0.09   0.01   0.02
    56   6    -0.03   0.04   0.02    -0.08   0.12   0.09     0.01   0.06   0.02
    57   6    -0.03  -0.04   0.02    -0.08  -0.12   0.09    -0.01   0.06  -0.02
    58   6     0.06  -0.15   0.09     0.03  -0.05   0.07     0.06  -0.04   0.03
    59   6     0.05   0.00  -0.05     0.05  -0.01   0.06     0.03  -0.02   0.02
    60   6     0.05  -0.00  -0.05     0.05   0.01   0.06    -0.03  -0.02  -0.02
    61   6    -0.03   0.00   0.02    -0.03  -0.00   0.02    -0.07   0.02   0.00
    62   6    -0.03  -0.00   0.02    -0.03   0.00   0.02     0.07   0.02  -0.00
    63   6    -0.00   0.01  -0.00    -0.01  -0.01  -0.01    -0.01  -0.03  -0.02
    64   1    -0.01  -0.01  -0.04    -0.02  -0.02  -0.04     0.03  -0.06  -0.01
    65   1     0.03   0.02   0.01     0.02   0.01  -0.00     0.06  -0.01   0.04
    66   1     0.02   0.01  -0.02     0.01  -0.00  -0.02    -0.03  -0.12  -0.07
    67   6    -0.00  -0.01  -0.00    -0.01   0.01  -0.01     0.01  -0.03   0.02
    68   1     0.02  -0.01  -0.02     0.01   0.00  -0.02     0.03  -0.12   0.07
    69   1     0.03  -0.02   0.01     0.02  -0.01  -0.00    -0.06  -0.01  -0.04
    70   1    -0.01   0.01  -0.04    -0.02   0.02  -0.04    -0.03  -0.06   0.01
    71   6     0.05  -0.03  -0.04     0.02  -0.04  -0.00     0.08   0.01   0.01
    72   1     0.12  -0.04  -0.03     0.03  -0.06  -0.00     0.04   0.06   0.02
    73   1     0.02  -0.02  -0.02     0.01  -0.04   0.03     0.11   0.01  -0.03
    74   6     0.05   0.03  -0.04     0.02   0.04  -0.00    -0.08   0.01  -0.01
    75   1     0.02   0.02  -0.02     0.01   0.04   0.03    -0.11   0.01   0.03
    76   1     0.12   0.04  -0.03     0.03   0.06  -0.00    -0.04   0.06  -0.02
                     49                     50                     51
                      A                      A                      A
 Frequencies --    560.6916               562.3970               562.5649
 Red. masses --     11.6477                10.7491                11.7935
 Frc consts  --      2.1574                 2.0031                 2.1991
 IR Inten    --      0.0000                 0.0000                 0.0000
  Atom  AN      X      Y      Z        X      Y      Z        X      Y      Z
     1   6     0.03   0.13   0.03     0.02   0.01   0.00    -0.06   0.08   0.02
     2   6     0.05   0.11   0.03    -0.04   0.05  -0.12    -0.04   0.04   0.07
     3   6    -0.06   0.04   0.03    -0.14  -0.08   0.01     0.01   0.08  -0.06
     4   6    -0.02  -0.00   0.00     0.00  -0.18  -0.00     0.12  -0.00  -0.13
     5   6     0.02  -0.00  -0.05     0.00  -0.12   0.00     0.21   0.00   0.13
     6   6     0.07   0.08  -0.05     0.09  -0.01  -0.04     0.08  -0.00   0.00
     7   6    -0.02   0.05   0.07     0.06  -0.08   0.09    -0.13   0.03   0.04
     8   6     0.06  -0.01   0.02     0.06  -0.08   0.02    -0.09  -0.00   0.04
     9   6     0.13  -0.02   0.05    -0.01   0.02  -0.07    -0.06  -0.00   0.09
    10   6     0.15  -0.11  -0.05    -0.08  -0.01   0.07     0.05   0.08  -0.02
    11   6    -0.09  -0.03  -0.01    -0.12   0.08   0.03    -0.07   0.02   0.04
    12   6    -0.06  -0.04   0.03     0.14  -0.08  -0.01     0.01  -0.08  -0.06
    13   6     0.05  -0.11   0.03     0.04   0.05   0.12    -0.04  -0.04   0.07
    14   6     0.03  -0.13   0.03    -0.02   0.01  -0.00    -0.06  -0.08   0.02
    15   6     0.07  -0.08  -0.05    -0.09  -0.01   0.04     0.08   0.00   0.00
    16   6     0.02  -0.03  -0.13    -0.06   0.14   0.03    -0.10   0.01  -0.17
    17   6     0.02   0.03  -0.13     0.06   0.14  -0.03    -0.10  -0.01  -0.17
    18   6    -0.12   0.03  -0.10     0.01   0.08  -0.01     0.08  -0.19  -0.01
    19   6    -0.13   0.04   0.01    -0.06   0.11   0.06    -0.04  -0.14   0.03
    20   6    -0.02   0.02  -0.02     0.07   0.07   0.01     0.06  -0.04  -0.03
    21   6    -0.10   0.08  -0.00    -0.00   0.01  -0.07     0.04  -0.01  -0.05
    22   6    -0.10  -0.07   0.05    -0.05   0.01   0.05    -0.05   0.06   0.04
    23   6    -0.00  -0.12   0.07     0.04  -0.13  -0.05    -0.05   0.09   0.08
    24   6    -0.05  -0.01  -0.04     0.09  -0.08  -0.06     0.04  -0.02   0.07
    25   6    -0.05   0.01  -0.04    -0.09  -0.08   0.06     0.04   0.02   0.07
    26   6    -0.12  -0.03  -0.10    -0.01   0.08   0.01     0.08   0.19  -0.01
    27   6    -0.13  -0.04   0.01     0.06   0.11  -0.06    -0.04   0.14   0.03
    28   6    -0.02  -0.05   0.07    -0.06  -0.08  -0.09    -0.13  -0.03   0.04
    29   6    -0.09   0.03  -0.01     0.12   0.08  -0.03    -0.07  -0.02   0.04
    30   6     0.02   0.02  -0.12    -0.07   0.04  -0.06     0.12   0.00  -0.06
    31   6     0.11   0.04  -0.05    -0.01  -0.06  -0.06     0.11   0.08  -0.02
    32   6     0.01   0.06   0.01    -0.05  -0.06   0.01    -0.02   0.16   0.02
    33   6    -0.14   0.02  -0.00    -0.08  -0.10   0.02     0.05   0.01   0.15
    34   6    -0.01  -0.08   0.03    -0.09   0.02   0.03    -0.12   0.02  -0.02
    35   6    -0.01  -0.14  -0.01     0.07  -0.05   0.11     0.04  -0.05  -0.05
    36   6    -0.10  -0.08  -0.00     0.00   0.01   0.07     0.04   0.01  -0.05
    37   6    -0.02  -0.02  -0.02    -0.07   0.07  -0.01     0.06   0.04  -0.03
    38   6     0.06   0.01   0.02    -0.06  -0.08  -0.02    -0.09   0.00   0.04
    39   6     0.13   0.02   0.05     0.01   0.02   0.07    -0.06   0.00   0.09
    40   6     0.15   0.11  -0.05     0.08  -0.01  -0.07     0.05  -0.08  -0.02
    41   6     0.01  -0.06   0.01     0.05  -0.06  -0.01    -0.02  -0.16   0.02
    42   6    -0.14  -0.02  -0.00     0.08  -0.10  -0.02     0.05  -0.01   0.15
    43   6    -0.01   0.08   0.03     0.09   0.02  -0.03    -0.12  -0.02  -0.02
    44   6     0.11   0.00   0.07    -0.00   0.12   0.00    -0.20  -0.00  -0.08
    45   6     0.12   0.00  -0.12    -0.00   0.19   0.00    -0.11   0.00   0.14
    46   6     0.11  -0.05  -0.01     0.16   0.10  -0.08     0.01  -0.06   0.00
    47   6    -0.10   0.07   0.05     0.05   0.01  -0.05    -0.05  -0.06   0.04
    48   6    -0.00   0.12   0.07    -0.04  -0.13   0.05    -0.05  -0.09   0.08
    49   6    -0.00  -0.02   0.25     0.10  -0.10  -0.05     0.11  -0.01  -0.10
    50   6    -0.00   0.02   0.25    -0.10  -0.10   0.05     0.11   0.01  -0.10
    51   6     0.11   0.05  -0.01    -0.16   0.10   0.08     0.01   0.06  -0.00
    52   6    -0.01   0.14  -0.01    -0.07  -0.05  -0.11     0.04   0.05  -0.05
    53   6     0.01   0.10  -0.07    -0.03  -0.06  -0.04     0.05   0.06  -0.04
    54   6     0.02  -0.02  -0.12     0.07   0.04   0.06     0.12  -0.00  -0.06
    55   6     0.11  -0.04  -0.05     0.01  -0.06   0.06     0.11  -0.08  -0.02
    56   6     0.02   0.16   0.00     0.07   0.09  -0.00    -0.00  -0.08  -0.06
    57   6     0.02  -0.16   0.00    -0.07   0.09   0.00    -0.00   0.08  -0.06
    58   6     0.01  -0.10  -0.07     0.03  -0.06   0.04     0.05  -0.06  -0.04
    59   6     0.01   0.09   0.05    -0.01   0.05   0.05    -0.05   0.04  -0.06
    60   6     0.01  -0.09   0.05     0.01   0.05  -0.05    -0.05  -0.04  -0.06
    61   6     0.00  -0.00  -0.01    -0.04  -0.02   0.07     0.03   0.00  -0.01
    62   6     0.00   0.00  -0.01     0.04  -0.02  -0.07     0.03  -0.00  -0.01
    63   6    -0.00  -0.01  -0.00    -0.00   0.01   0.01     0.01   0.01   0.02
    64   1     0.00  -0.01   0.01    -0.05  -0.03  -0.10     0.03   0.02   0.04
    65   1    -0.01  -0.02   0.00     0.04   0.06   0.00    -0.01  -0.00   0.01
    66   1    -0.01  -0.03  -0.01     0.06   0.07  -0.01    -0.00   0.01   0.03
    67   6    -0.00   0.01  -0.00     0.00   0.01  -0.01     0.02  -0.01   0.02
    68   1    -0.01   0.03  -0.01    -0.06   0.07   0.01     0.00  -0.01   0.03
    69   1    -0.01   0.02   0.00    -0.04   0.06  -0.00    -0.01   0.00   0.01
    70   1     0.00   0.01   0.01     0.05  -0.03   0.10     0.03  -0.02   0.04
    71   6    -0.04   0.04   0.02    -0.04  -0.00  -0.01    -0.03   0.04   0.00
    72   1    -0.05   0.05   0.01    -0.13  -0.05  -0.04    -0.01   0.02   0.00
    73   1    -0.09   0.04  -0.00    -0.09   0.00   0.02    -0.06   0.04   0.01
    74   6    -0.04  -0.04   0.02     0.04  -0.00   0.01    -0.03  -0.04   0.00
    75   1    -0.09  -0.04  -0.00     0.09   0.00  -0.02    -0.06  -0.04   0.01
    76   1    -0.05  -0.05   0.01     0.13  -0.05   0.04    -0.01  -0.02   0.00
                     52                     53                     54
                      A                      A                      A
 Frequencies --    564.1489               569.7536               572.5877
 Red. masses --     11.7889                11.5329                11.7087
 Frc consts  --      2.2106                 2.2058                 2.2617
 IR Inten    --      0.0000                 0.0000                 0.0000
  Atom  AN      X      Y      Z        X      Y      Z        X      Y      Z
     1   6    -0.12   0.04   0.14     0.00  -0.14   0.05    -0.05  -0.02  -0.03
     2   6    -0.14  -0.07  -0.03     0.01  -0.12   0.06    -0.04  -0.01  -0.07
     3   6    -0.08  -0.04  -0.02     0.03   0.00  -0.09     0.13   0.01   0.03
     4   6    -0.00  -0.03   0.00    -0.00  -0.05   0.00     0.19   0.00  -0.07
     5   6    -0.00   0.14  -0.00    -0.00  -0.09  -0.00     0.13   0.00  -0.11
     6   6    -0.14   0.08   0.08    -0.07  -0.03  -0.10    -0.00  -0.03  -0.10
     7   6     0.07   0.08   0.12    -0.05   0.02  -0.05    -0.04   0.02   0.03
     8   6     0.19   0.03  -0.06    -0.04   0.13  -0.18    -0.01   0.04  -0.01
     9   6     0.04  -0.03  -0.17     0.03   0.02  -0.05    -0.08   0.02  -0.07
    10   6    -0.00  -0.04  -0.05     0.02   0.04   0.12    -0.11  -0.05  -0.03
    11   6    -0.03   0.02  -0.03     0.04   0.15  -0.01     0.05  -0.03   0.19
    12   6     0.08  -0.04   0.02    -0.03   0.00   0.09     0.13  -0.01   0.03
    13   6     0.14  -0.07   0.03    -0.01  -0.12  -0.06    -0.04   0.01  -0.07
    14   6     0.12   0.04  -0.14    -0.00  -0.14  -0.05    -0.05   0.02  -0.03
    15   6     0.14   0.08  -0.08     0.07  -0.03   0.10    -0.00   0.03  -0.10
    16   6     0.08  -0.09  -0.05     0.04   0.12   0.01    -0.08  -0.02  -0.06
    17   6    -0.08  -0.09   0.05    -0.04   0.12  -0.01    -0.08   0.02  -0.06
    18   6     0.01  -0.07   0.04     0.07   0.08   0.07    -0.11   0.09  -0.03
    19   6    -0.01   0.01   0.02     0.05   0.05   0.10    -0.03   0.11   0.08
    20   6     0.18  -0.05  -0.06    -0.04  -0.12  -0.17     0.13   0.05   0.00
    21   6     0.02   0.05  -0.15     0.03  -0.04  -0.05     0.15   0.11   0.10
    22   6    -0.03   0.06  -0.03    -0.00  -0.03   0.12     0.09   0.11   0.10
    23   6    -0.02   0.01  -0.01    -0.02  -0.07   0.10    -0.05   0.09   0.02
    24   6     0.02  -0.05   0.01     0.02   0.02   0.04    -0.12   0.04  -0.02
    25   6    -0.02  -0.05  -0.01    -0.02   0.02  -0.04    -0.12  -0.04  -0.02
    26   6    -0.01  -0.07  -0.04    -0.07   0.08  -0.07    -0.11  -0.09  -0.03
    27   6     0.01   0.01  -0.02    -0.05   0.05  -0.10    -0.03  -0.11   0.08
    28   6    -0.07   0.08  -0.12     0.05   0.02   0.05    -0.04  -0.02   0.03
    29   6     0.03   0.02   0.03    -0.04   0.15   0.01     0.05   0.03   0.19
    30   6    -0.08  -0.05  -0.13     0.04   0.01   0.04     0.09   0.08  -0.05
    31   6     0.02  -0.02  -0.01    -0.04  -0.04  -0.11    -0.03   0.09  -0.10
    32   6     0.02   0.05  -0.05    -0.04  -0.09  -0.07    -0.02   0.04  -0.07
    33   6     0.10   0.08  -0.05     0.06  -0.13   0.01    -0.08   0.05  -0.13
    34   6     0.16  -0.08  -0.07     0.08   0.03   0.09     0.03   0.08  -0.03
    35   6     0.13   0.09   0.03    -0.01   0.11  -0.06     0.13   0.01   0.05
    36   6    -0.02   0.05   0.15    -0.03  -0.04   0.05     0.15  -0.11   0.10
    37   6    -0.18  -0.05   0.06     0.04  -0.12   0.17     0.13  -0.05   0.00
    38   6    -0.19   0.03   0.06     0.04   0.13   0.18    -0.01  -0.04  -0.01
    39   6    -0.04  -0.03   0.17    -0.03   0.02   0.05    -0.08  -0.02  -0.07
    40   6     0.00  -0.04   0.05    -0.02   0.04  -0.12    -0.11   0.05  -0.03
    41   6    -0.02   0.05   0.05     0.04  -0.09   0.07    -0.02  -0.04  -0.07
    42   6    -0.10   0.08   0.05    -0.06  -0.13  -0.01    -0.08  -0.05  -0.13
    43   6    -0.16  -0.08   0.07    -0.08   0.03  -0.09     0.03  -0.08  -0.03
    44   6     0.00  -0.15   0.00     0.00   0.08   0.00    -0.02  -0.00   0.06
    45   6     0.00   0.02  -0.00     0.00   0.04  -0.00    -0.06   0.00   0.05
    46   6     0.05   0.03   0.07    -0.02  -0.01   0.08    -0.04  -0.02   0.02
    47   6     0.03   0.06   0.03     0.00  -0.03  -0.12     0.09  -0.11   0.10
    48   6     0.02   0.01   0.01     0.02  -0.07  -0.10    -0.05  -0.09   0.02
    49   6     0.02  -0.01   0.04    -0.03  -0.14   0.00    -0.10  -0.03   0.03
    50   6    -0.02  -0.01  -0.04     0.03  -0.14  -0.00    -0.10   0.03   0.03
    51   6    -0.05   0.03  -0.07     0.02  -0.01  -0.08    -0.04   0.02   0.02
    52   6    -0.13   0.09  -0.03     0.01   0.11   0.06     0.13  -0.01   0.05
    53   6    -0.10  -0.01   0.16     0.01   0.16   0.06     0.11  -0.09  -0.04
    54   6     0.08  -0.05   0.13    -0.04   0.01  -0.04     0.09  -0.08  -0.05
    55   6    -0.02  -0.02   0.01     0.04  -0.04   0.11    -0.03  -0.09  -0.10
    56   6    -0.00  -0.01   0.03    -0.00   0.06  -0.10     0.00   0.03   0.14
    57   6     0.00  -0.01  -0.03     0.00   0.06   0.10     0.00  -0.03   0.14
    58   6     0.10  -0.01  -0.16    -0.01   0.16  -0.06     0.11   0.09  -0.04
    59   6    -0.00   0.03  -0.02    -0.01  -0.04  -0.06     0.01   0.02   0.07
    60   6     0.00   0.03   0.02     0.01  -0.04   0.06     0.01  -0.02   0.07
    61   6     0.01  -0.01  -0.00     0.07   0.00  -0.03     0.00  -0.00  -0.01
    62   6    -0.01  -0.01   0.00    -0.07   0.00   0.03     0.00   0.00  -0.01
    63   6     0.00   0.00   0.00     0.02   0.02   0.02    -0.01  -0.01  -0.01
    64   1    -0.01   0.01  -0.00     0.02   0.06   0.07    -0.00  -0.00   0.01
    65   1    -0.01  -0.00  -0.01    -0.05  -0.02  -0.02    -0.02  -0.02  -0.01
    66   1     0.00   0.02   0.01    -0.00   0.05   0.06    -0.01  -0.01  -0.00
    67   6    -0.00   0.00  -0.00    -0.02   0.02  -0.02    -0.01   0.01  -0.01
    68   1    -0.00   0.02  -0.01     0.00   0.05  -0.06    -0.01   0.01  -0.00
    69   1     0.01  -0.00   0.01     0.05  -0.02   0.02    -0.02   0.02  -0.01
    70   1     0.01   0.01   0.00    -0.02   0.06  -0.07    -0.00   0.00   0.01
    71   6    -0.01  -0.00  -0.00    -0.01  -0.02  -0.02    -0.02   0.02   0.03
    72   1     0.02  -0.06  -0.01     0.05  -0.01   0.00    -0.08   0.06   0.02
    73   1    -0.05   0.00   0.05     0.02  -0.02  -0.02    -0.02   0.01  -0.01
    74   6     0.01  -0.00   0.00     0.01  -0.02   0.02    -0.02  -0.02   0.03
    75   1     0.05   0.00  -0.05    -0.02  -0.02   0.02    -0.02  -0.01  -0.01
    76   1    -0.02  -0.06   0.01    -0.05  -0.01  -0.00    -0.08  -0.06   0.02
                     55                     56                     57
                      A                      A                      A
 Frequencies --    576.9225               578.1451               579.9922
 Red. masses --      7.4480                11.5462                 9.1498
 Frc consts  --      1.4606                 2.2739                 1.8135
 IR Inten    --      0.0000                 0.0000                 0.0000
  Atom  AN      X      Y      Z        X      Y      Z        X      Y      Z
     1   6     0.10   0.01   0.04     0.04   0.05  -0.07     0.00  -0.07   0.08
     2   6     0.08  -0.09   0.02     0.05  -0.12   0.01    -0.05   0.06   0.06
     3   6     0.07  -0.06  -0.12     0.00  -0.07  -0.01    -0.05   0.09  -0.04
     4   6    -0.00  -0.05  -0.00    -0.04   0.00  -0.12    -0.00   0.06   0.00
     5   6    -0.00   0.08   0.00    -0.01  -0.00   0.11    -0.00  -0.06   0.00
     6   6     0.04   0.10   0.00    -0.01   0.02   0.05    -0.04  -0.04  -0.10
     7   6    -0.00   0.03   0.02     0.09   0.14  -0.10     0.06   0.01   0.04
     8   6    -0.04   0.06  -0.00     0.12  -0.02  -0.03     0.03   0.09   0.07
     9   6    -0.03  -0.01   0.01     0.08  -0.16   0.01    -0.02   0.09   0.04
    10   6    -0.08   0.00   0.03     0.09  -0.01  -0.01    -0.10  -0.10   0.02
    11   6     0.02  -0.06  -0.04    -0.08  -0.05   0.20    -0.07  -0.01  -0.04
    12   6    -0.07  -0.06   0.12     0.00   0.07  -0.02     0.05   0.09   0.04
    13   6    -0.08  -0.09  -0.02     0.05   0.12   0.01     0.05   0.06  -0.06
    14   6    -0.10   0.01  -0.04     0.04  -0.05  -0.07    -0.00  -0.07  -0.08
    15   6    -0.04   0.10  -0.00    -0.01  -0.02   0.05     0.04  -0.04   0.10
    16   6    -0.01   0.08   0.01    -0.11  -0.03  -0.04     0.03  -0.05   0.11
    17   6     0.01   0.08  -0.01    -0.11   0.03  -0.04    -0.03  -0.05  -0.11
    18   6     0.01  -0.04   0.03     0.05   0.04  -0.01     0.08   0.01  -0.13
    19   6     0.00  -0.04   0.02     0.08   0.06  -0.08     0.07  -0.00  -0.03
    20   6    -0.04  -0.06  -0.01    -0.05   0.06   0.03     0.04  -0.13   0.06
    21   6    -0.02  -0.00  -0.01    -0.06  -0.07  -0.01    -0.01  -0.07   0.05
    22   6    -0.04  -0.02   0.00    -0.10   0.07  -0.01    -0.02   0.03  -0.00
    23   6    -0.06  -0.03  -0.03    -0.14   0.07   0.07    -0.06   0.04  -0.05
    24   6    -0.01  -0.11  -0.01    -0.07   0.02   0.02    -0.00   0.08  -0.09
    25   6     0.01  -0.12   0.01    -0.07  -0.02   0.02     0.00   0.08   0.09
    26   6    -0.01  -0.04  -0.03     0.05  -0.04  -0.01    -0.08   0.01   0.13
    27   6    -0.00  -0.04  -0.02     0.08  -0.06  -0.08    -0.07  -0.00   0.03
    28   6     0.00   0.03  -0.02     0.09  -0.14  -0.10    -0.06   0.01  -0.04
    29   6    -0.02  -0.06   0.04    -0.08   0.05   0.20     0.07  -0.01   0.04
    30   6     0.03  -0.07  -0.00    -0.04  -0.12   0.06    -0.04  -0.08   0.01
    31   6     0.01   0.04  -0.02    -0.16   0.08   0.02    -0.09   0.01   0.05
    32   6    -0.02   0.08  -0.03    -0.16   0.07  -0.08    -0.16   0.05   0.10
    33   6    -0.03  -0.04   0.01     0.07  -0.00  -0.04    -0.01   0.08   0.10
    34   6    -0.04  -0.10   0.01     0.07  -0.03  -0.09     0.06   0.03   0.16
    35   6    -0.08   0.08   0.00    -0.00   0.06   0.00     0.04  -0.00  -0.08
    36   6     0.02  -0.00   0.01    -0.06   0.07  -0.01     0.01  -0.07  -0.05
    37   6     0.04  -0.06   0.01    -0.05  -0.06   0.03    -0.04  -0.13  -0.06
    38   6     0.04   0.06   0.00     0.12   0.02  -0.03    -0.03   0.09  -0.07
    39   6     0.03  -0.01  -0.01     0.08   0.16   0.01     0.02   0.09  -0.04
    40   6     0.08   0.00  -0.03     0.09   0.01  -0.01     0.10  -0.10  -0.02
    41   6     0.02   0.08   0.03    -0.16  -0.07  -0.08     0.16   0.05  -0.10
    42   6     0.03  -0.04  -0.01     0.07   0.00  -0.04     0.01   0.08  -0.10
    43   6     0.04  -0.10  -0.01     0.07   0.03  -0.09    -0.06   0.03  -0.16
    44   6     0.00  -0.08  -0.00     0.09   0.00  -0.12    -0.00   0.07  -0.00
    45   6     0.00   0.07   0.00     0.12  -0.00   0.14     0.00  -0.01  -0.00
    46   6    -0.06   0.08   0.10     0.04   0.02   0.11     0.05  -0.05   0.05
    47   6     0.04  -0.02  -0.00    -0.10  -0.07  -0.01     0.02   0.03   0.00
    48   6     0.06  -0.03   0.03    -0.14  -0.07   0.07     0.06   0.04   0.05
    49   6    -0.03   0.08   0.06     0.01  -0.00   0.01     0.03  -0.02   0.08
    50   6     0.03   0.08  -0.06     0.01   0.00   0.01    -0.03  -0.02  -0.08
    51   6     0.06   0.08  -0.10     0.04  -0.02   0.11    -0.05  -0.05  -0.05
    52   6     0.08   0.08  -0.00    -0.00  -0.06   0.00    -0.04  -0.00   0.08
    53   6     0.08  -0.05   0.00     0.03   0.07   0.04    -0.02   0.03   0.02
    54   6    -0.03  -0.07   0.00    -0.04   0.12   0.06     0.04  -0.08  -0.01
    55   6    -0.01   0.04   0.02    -0.16  -0.08   0.02     0.09   0.01  -0.05
    56   6     0.09   0.04   0.02     0.11  -0.02  -0.02     0.11  -0.09   0.00
    57   6    -0.08   0.04  -0.02     0.12   0.02  -0.02    -0.11  -0.09  -0.00
    58   6    -0.08  -0.05  -0.00     0.03  -0.07   0.04     0.02   0.03  -0.02
    59   6     0.03   0.16   0.02    -0.03   0.03  -0.01    -0.02  -0.04   0.11
    60   6    -0.03   0.16  -0.02    -0.03  -0.03  -0.01     0.02  -0.04  -0.11
    61   6    -0.17  -0.01   0.12     0.02  -0.00  -0.02    -0.06  -0.02   0.08
    62   6     0.17  -0.01  -0.12     0.02   0.00  -0.02     0.06  -0.02  -0.08
    63   6    -0.03  -0.03  -0.02    -0.00  -0.01  -0.00    -0.01   0.00   0.00
    64   1    -0.05  -0.13  -0.18     0.01   0.00   0.03    -0.05  -0.05  -0.11
    65   1     0.14   0.07   0.06    -0.02  -0.03  -0.01     0.06   0.06   0.01
    66   1     0.04  -0.07  -0.13    -0.02  -0.02   0.01     0.05   0.04  -0.02
    67   6     0.03  -0.03   0.02    -0.00   0.01  -0.00     0.01   0.00  -0.00
    68   1    -0.04  -0.07   0.13    -0.02   0.02   0.01    -0.05   0.04   0.02
    69   1    -0.14   0.07  -0.06    -0.02   0.02  -0.01    -0.06   0.06  -0.01
    70   1     0.05  -0.13   0.18     0.01  -0.00   0.03     0.05  -0.05   0.11
    71   6     0.04   0.02   0.02    -0.03   0.05   0.02    -0.02   0.02  -0.00
    72   1    -0.02  -0.21  -0.05    -0.07   0.09   0.02    -0.22   0.17  -0.02
    73   1    -0.12   0.03   0.19    -0.04   0.04  -0.03     0.04   0.01  -0.14
    74   6    -0.04   0.02  -0.02    -0.03  -0.05   0.02     0.02   0.02   0.00
    75   1     0.12   0.03  -0.19    -0.04  -0.04  -0.03    -0.04   0.01   0.14
    76   1     0.02  -0.21   0.05    -0.07  -0.09   0.02     0.22   0.17   0.02
                     58                     59                     60
                      A                      A                      A
 Frequencies --    585.7225               595.2764               605.0586
 Red. masses --     10.8126                 9.6468                10.5107
 Frc consts  --      2.1856                 2.0140                 2.2671
 IR Inten    --      0.0000                 0.0000                 0.0000
  Atom  AN      X      Y      Z        X      Y      Z        X      Y      Z
     1   6     0.08   0.01  -0.10    -0.02   0.03  -0.07     0.07  -0.13   0.03
     2   6     0.13   0.05   0.04     0.01  -0.01  -0.10     0.00  -0.10   0.08
     3   6     0.04   0.02  -0.03    -0.00  -0.06  -0.17    -0.04  -0.06   0.10
     4   6    -0.02  -0.00  -0.02     0.00  -0.11   0.00     0.01   0.00   0.18
     5   6    -0.08  -0.00  -0.10     0.00  -0.07   0.00     0.08   0.00   0.11
     6   6    -0.05   0.04  -0.06    -0.01  -0.02  -0.06     0.10  -0.07   0.05
     7   6    -0.01   0.03  -0.11    -0.07   0.12  -0.04     0.00  -0.08  -0.08
     8   6    -0.01   0.04   0.04    -0.02   0.16  -0.00    -0.04  -0.02  -0.06
     9   6     0.05   0.07   0.12     0.01   0.08  -0.07    -0.04  -0.04  -0.01
    10   6     0.01   0.04   0.16     0.07   0.09  -0.07    -0.06  -0.04  -0.02
    11   6     0.04   0.03  -0.07    -0.01  -0.09  -0.06    -0.09  -0.03  -0.01
    12   6     0.04  -0.02  -0.03     0.00  -0.06   0.17    -0.04   0.06   0.10
    13   6     0.13  -0.05   0.04    -0.01  -0.01   0.10     0.00   0.10   0.08
    14   6     0.08  -0.01  -0.10     0.02   0.03   0.07     0.07   0.13   0.03
    15   6    -0.05  -0.04  -0.06     0.01  -0.02   0.06     0.10   0.07   0.05
    16   6    -0.07  -0.01   0.02     0.03  -0.04   0.04     0.09   0.03  -0.01
    17   6    -0.07   0.01   0.02    -0.03  -0.04  -0.04     0.09  -0.03  -0.01
    18   6    -0.11  -0.04   0.06    -0.06  -0.04  -0.04     0.02  -0.04  -0.05
    19   6    -0.06   0.00  -0.13    -0.08   0.03  -0.01     0.00  -0.04  -0.10
    20   6     0.06  -0.05   0.03    -0.00   0.11   0.07     0.01  -0.01  -0.07
    21   6     0.00   0.05  -0.04    -0.06   0.09   0.11    -0.02   0.12  -0.02
    22   6     0.02   0.08  -0.12    -0.10   0.03   0.05    -0.02   0.08  -0.08
    23   6     0.07   0.11   0.05    -0.11  -0.05   0.00    -0.06   0.07  -0.03
    24   6    -0.02   0.02   0.19    -0.06  -0.09  -0.03    -0.04   0.01  -0.04
    25   6    -0.02  -0.02   0.19     0.06  -0.09   0.03    -0.04  -0.01  -0.04
    26   6    -0.11   0.04   0.06     0.06  -0.04   0.04     0.02   0.04  -0.05
    27   6    -0.06  -0.00  -0.13     0.08   0.03   0.01     0.00   0.04  -0.10
    28   6    -0.01  -0.03  -0.11     0.07   0.12   0.04     0.00   0.08  -0.08
    29   6     0.04  -0.03  -0.07     0.01  -0.09   0.06    -0.09   0.03  -0.01
    30   6     0.02   0.13   0.10    -0.08   0.04  -0.06     0.03  -0.02  -0.06
    31   6     0.08   0.04   0.14    -0.15   0.12  -0.00     0.10  -0.10  -0.05
    32   6    -0.00   0.09  -0.07    -0.04  -0.03   0.00     0.02  -0.01  -0.08
    33   6    -0.06   0.06  -0.11    -0.04  -0.07  -0.01     0.12  -0.03  -0.03
    34   6     0.00   0.05  -0.07    -0.08  -0.07  -0.07     0.11  -0.04   0.05
    35   6    -0.06   0.00   0.00    -0.01   0.04  -0.11    -0.02  -0.13   0.10
    36   6     0.01  -0.05  -0.04     0.06   0.09  -0.11    -0.02  -0.12  -0.02
    37   6     0.06   0.05   0.03     0.00   0.11  -0.07     0.01   0.01  -0.07
    38   6    -0.01  -0.04   0.04     0.02   0.16   0.00    -0.04   0.02  -0.06
    39   6     0.05  -0.07   0.12    -0.01   0.08   0.07    -0.04   0.04  -0.01
    40   6     0.01  -0.04   0.16    -0.07   0.09   0.07    -0.06   0.04  -0.02
    41   6    -0.00  -0.09  -0.07     0.04  -0.03  -0.00     0.02   0.01  -0.08
    42   6    -0.06  -0.06  -0.11     0.04  -0.07   0.01     0.12   0.03  -0.03
    43   6     0.00  -0.05  -0.07     0.08  -0.07   0.07     0.11   0.04   0.05
    44   6     0.06   0.00  -0.06     0.00  -0.09   0.00     0.06   0.00   0.11
    45   6     0.07   0.00  -0.11    -0.00  -0.03   0.00    -0.02   0.00   0.13
    46   6     0.03   0.02  -0.02     0.03  -0.01  -0.03    -0.07  -0.08   0.12
    47   6     0.02  -0.08  -0.12     0.10   0.03  -0.05    -0.02  -0.08  -0.08
    48   6     0.08  -0.11   0.05     0.11  -0.05  -0.00    -0.06  -0.07  -0.03
    49   6     0.03  -0.02   0.05     0.04  -0.04   0.01    -0.11  -0.04   0.04
    50   6     0.03   0.02   0.05    -0.04  -0.04  -0.01    -0.11   0.04   0.04
    51   6     0.03  -0.02  -0.02    -0.03  -0.01   0.03    -0.07   0.08   0.12
    52   6    -0.06  -0.00   0.00     0.01   0.04   0.11    -0.02   0.13   0.10
    53   6    -0.06  -0.11   0.04     0.07  -0.03   0.08     0.04   0.05   0.02
    54   6     0.02  -0.13   0.10     0.08   0.04   0.06     0.03   0.02  -0.06
    55   6     0.08  -0.04   0.14     0.15   0.12   0.00     0.10   0.10  -0.05
    56   6    -0.11  -0.03   0.03     0.04  -0.07   0.03    -0.17   0.07   0.02
    57   6    -0.11   0.03   0.03    -0.04  -0.07  -0.03    -0.17  -0.07   0.02
    58   6    -0.06   0.11   0.04    -0.07  -0.03  -0.08     0.04  -0.05   0.02
    59   6    -0.10   0.04  -0.08    -0.01  -0.09   0.02    -0.10   0.04  -0.12
    60   6    -0.10  -0.04  -0.08     0.01  -0.09  -0.02    -0.10  -0.04  -0.12
    61   6     0.07   0.01  -0.01     0.11  -0.02  -0.03     0.06   0.01   0.00
    62   6     0.07  -0.01  -0.01    -0.11  -0.02   0.03     0.06  -0.01   0.00
    63   6     0.05   0.05   0.05     0.03   0.05   0.04     0.06   0.06   0.06
    64   1     0.07   0.06   0.10    -0.00   0.10   0.06     0.07   0.07   0.09
    65   1     0.00   0.02   0.03    -0.09  -0.00  -0.05     0.03   0.04   0.05
    66   1     0.02   0.05   0.08     0.04   0.15   0.12     0.04   0.07   0.08
    67   6     0.05  -0.05   0.05    -0.03   0.05  -0.03     0.06  -0.06   0.06
    68   1     0.02  -0.05   0.08    -0.04   0.15  -0.12     0.04  -0.06   0.08
    69   1     0.00  -0.02   0.03     0.09  -0.00   0.05     0.03  -0.04   0.05
    70   1     0.07  -0.06   0.10     0.01   0.10  -0.06     0.07  -0.07   0.09
    71   6    -0.07   0.04   0.01    -0.06  -0.03  -0.03    -0.05   0.02  -0.03
    72   1    -0.04  -0.04  -0.00    -0.08   0.12  -0.00     0.03  -0.10  -0.03
    73   1    -0.13   0.04   0.06     0.03  -0.04  -0.15    -0.12   0.02   0.06
    74   6    -0.07  -0.04   0.01     0.06  -0.03   0.03    -0.05  -0.02  -0.03
    75   1    -0.13  -0.04   0.06    -0.03  -0.04   0.15    -0.12  -0.02   0.06
    76   1    -0.04   0.04  -0.00     0.08   0.12   0.00     0.03   0.10  -0.03
                     61                     62                     63
                      A                      A                      A
 Frequencies --    628.8672               656.0804               671.8701
 Red. masses --      6.5339                 8.7877                 9.5574
 Frc consts  --      1.5224                 2.2286                 2.5419
 IR Inten    --      0.0000                 0.0000                 0.0000
  Atom  AN      X      Y      Z        X      Y      Z        X      Y      Z
     1   6    -0.02   0.00  -0.07    -0.02  -0.04  -0.01    -0.03   0.04   0.08
     2   6     0.03   0.05  -0.04     0.03  -0.04  -0.00    -0.07   0.02   0.03
     3   6     0.02  -0.03   0.10     0.12   0.05  -0.07    -0.07   0.00   0.07
     4   6    -0.00   0.00   0.00    -0.00   0.13  -0.00    -0.01  -0.00  -0.11
     5   6     0.00  -0.03   0.00     0.00   0.10  -0.00     0.03  -0.00  -0.04
     6   6    -0.04  -0.03  -0.03    -0.11  -0.00   0.06     0.08  -0.01   0.04
     7   6    -0.03  -0.01  -0.04    -0.02   0.03  -0.07    -0.01   0.01   0.06
     8   6     0.00   0.05  -0.05     0.00  -0.03  -0.03     0.05   0.00   0.06
     9   6     0.06   0.06  -0.04    -0.00  -0.02  -0.00    -0.02   0.02  -0.04
    10   6     0.03  -0.07   0.01     0.03   0.09   0.02    -0.01  -0.06  -0.11
    11   6     0.05  -0.03  -0.01    -0.01  -0.12   0.11    -0.02  -0.01  -0.02
    12   6    -0.02  -0.03  -0.10    -0.12   0.05   0.07    -0.07  -0.00   0.07
    13   6    -0.03   0.05   0.04    -0.03  -0.04   0.00    -0.07  -0.02   0.03
    14   6     0.02   0.00   0.07     0.02  -0.04   0.01    -0.03  -0.04   0.08
    15   6     0.04  -0.03   0.03     0.11  -0.00  -0.06     0.08   0.01   0.04
    16   6     0.03  -0.04  -0.01     0.05  -0.11  -0.07     0.04   0.04  -0.06
    17   6    -0.03  -0.04   0.01    -0.05  -0.11   0.07     0.04  -0.04  -0.06
    18   6    -0.05  -0.02   0.02     0.01  -0.01   0.04    -0.02  -0.16  -0.00
    19   6    -0.07   0.02  -0.01     0.01   0.02  -0.03    -0.11  -0.08  -0.10
    20   6     0.01   0.07  -0.02     0.03  -0.02  -0.02     0.09   0.04   0.05
    21   6    -0.01   0.03   0.01     0.01   0.09   0.01     0.01   0.01  -0.08
    22   6    -0.04   0.05   0.03     0.03   0.06  -0.00     0.00   0.05  -0.15
    23   6     0.01  -0.00   0.06     0.06   0.02   0.03     0.04   0.11  -0.01
    24   6     0.00  -0.01   0.04     0.00   0.08   0.05     0.01  -0.01   0.10
    25   6    -0.00  -0.01  -0.04    -0.00   0.08  -0.05     0.01   0.01   0.10
    26   6     0.05  -0.02  -0.02    -0.01  -0.01  -0.04    -0.02   0.16  -0.00
    27   6     0.07   0.02   0.01    -0.01   0.02   0.03    -0.11   0.08  -0.10
    28   6     0.03  -0.01   0.04     0.02   0.03   0.07    -0.01  -0.01   0.06
    29   6    -0.05  -0.03   0.01     0.01  -0.12  -0.11    -0.02   0.01  -0.02
    30   6    -0.04   0.06  -0.02     0.01  -0.04  -0.04     0.02   0.07   0.06
    31   6    -0.01  -0.09  -0.03    -0.03   0.05  -0.04    -0.10   0.01  -0.08
    32   6    -0.15   0.01  -0.04     0.08  -0.08   0.08     0.09  -0.17   0.01
    33   6    -0.06  -0.02  -0.02     0.07  -0.12   0.12     0.01  -0.03  -0.10
    34   6     0.03  -0.01   0.05    -0.14   0.08  -0.06     0.07   0.01   0.00
    35   6     0.01   0.00  -0.05     0.06  -0.05   0.02    -0.07  -0.02   0.03
    36   6     0.01   0.03  -0.01    -0.01   0.09  -0.01     0.01  -0.01  -0.08
    37   6    -0.01   0.07   0.02    -0.03  -0.02   0.02     0.09  -0.04   0.05
    38   6    -0.00   0.05   0.05    -0.00  -0.03   0.03     0.05  -0.00   0.06
    39   6    -0.06   0.06   0.04     0.00  -0.02   0.00    -0.02  -0.02  -0.04
    40   6    -0.03  -0.07  -0.01    -0.03   0.09  -0.02    -0.01   0.06  -0.11
    41   6     0.15   0.01   0.04    -0.08  -0.08  -0.08     0.09   0.17   0.01
    42   6     0.06  -0.02   0.02    -0.07  -0.12  -0.12     0.01   0.03  -0.10
    43   6    -0.03  -0.01  -0.05     0.14   0.08   0.06     0.07  -0.01   0.00
    44   6     0.00  -0.02   0.00     0.00   0.13   0.00     0.05  -0.00  -0.03
    45   6    -0.00  -0.08   0.00     0.00   0.05   0.00     0.02  -0.00  -0.02
    46   6    -0.02  -0.05  -0.05     0.10  -0.04   0.00    -0.05  -0.01   0.06
    47   6     0.04   0.05  -0.03    -0.03   0.06   0.00     0.00  -0.05  -0.15
    48   6    -0.01  -0.00  -0.06    -0.06   0.02  -0.03     0.04  -0.11  -0.01
    49   6    -0.01  -0.04  -0.05     0.04  -0.12  -0.01    -0.02  -0.02  -0.02
    50   6     0.01  -0.04   0.05    -0.04  -0.12   0.01    -0.02   0.02  -0.02
    51   6     0.02  -0.05   0.05    -0.10  -0.04  -0.00    -0.05   0.01   0.06
    52   6    -0.01   0.00   0.05    -0.06  -0.05  -0.02    -0.07   0.02   0.03
    53   6     0.01   0.06   0.05    -0.01  -0.01   0.05    -0.01  -0.03   0.11
    54   6     0.04   0.06   0.02    -0.01  -0.04   0.04     0.02  -0.07   0.06
    55   6     0.01  -0.09   0.03     0.03   0.05   0.04    -0.10  -0.01  -0.08
    56   6    -0.13   0.04   0.10     0.08  -0.04  -0.09     0.13   0.02  -0.08
    57   6     0.13   0.04  -0.10    -0.08  -0.04   0.09     0.13  -0.02  -0.08
    58   6    -0.01   0.06  -0.05     0.01  -0.01  -0.05    -0.01   0.03   0.11
    59   6    -0.04   0.02   0.04    -0.03   0.10   0.06     0.04  -0.02   0.15
    60   6     0.04   0.02  -0.04     0.03   0.10  -0.06     0.04   0.02   0.15
    61   6    -0.20   0.05   0.06    -0.10  -0.01   0.07     0.01  -0.02  -0.02
    62   6     0.20   0.05  -0.06     0.10  -0.01  -0.07     0.01   0.02  -0.02
    63   6    -0.06  -0.07  -0.06    -0.04  -0.03  -0.03    -0.05  -0.08  -0.06
    64   1     0.00  -0.19  -0.13    -0.07  -0.10  -0.16    -0.07  -0.04  -0.04
    65   1     0.17   0.03   0.09     0.07   0.05   0.01    -0.10  -0.09  -0.10
    66   1    -0.06  -0.27  -0.22     0.02  -0.02  -0.08    -0.06  -0.05  -0.04
    67   6     0.06  -0.07   0.06     0.04  -0.03   0.03    -0.05   0.08  -0.06
    68   1     0.06  -0.27   0.22    -0.02  -0.02   0.08    -0.06   0.05  -0.04
    69   1    -0.17   0.03  -0.09    -0.07   0.05  -0.01    -0.10   0.09  -0.10
    70   1    -0.01  -0.19   0.13     0.07  -0.10   0.16    -0.07   0.04  -0.04
    71   6     0.08   0.06   0.06    -0.09   0.08   0.06    -0.03   0.05   0.13
    72   1    -0.06   0.08   0.03    -0.19  -0.02   0.02    -0.15   0.15   0.12
    73   1     0.14   0.05   0.02    -0.19   0.08   0.10     0.05   0.04   0.03
    74   6    -0.08   0.06  -0.06     0.09   0.08  -0.06    -0.03  -0.05   0.13
    75   1    -0.14   0.05  -0.02     0.19   0.08  -0.10     0.05  -0.04   0.03
    76   1     0.06   0.08  -0.03     0.19  -0.02  -0.02    -0.15  -0.15   0.12
                     64                     65                     66
                      A                      A                      A
 Frequencies --    681.4522               685.0702               687.3644
 Red. masses --      9.1827                11.4412                11.4662
 Frc consts  --      2.5124                 3.1637                 3.1919
 IR Inten    --      0.0000                 0.0000                 0.0000
  Atom  AN      X      Y      Z        X      Y      Z        X      Y      Z
     1   6     0.08   0.04  -0.07     0.14  -0.06  -0.06     0.00  -0.08  -0.05
     2   6     0.08  -0.01   0.06     0.15   0.10   0.03     0.03   0.08   0.04
     3   6    -0.06  -0.05   0.00    -0.03   0.02  -0.01     0.12   0.09   0.13
     4   6     0.00  -0.08  -0.00    -0.10  -0.00  -0.00    -0.00   0.16   0.00
     5   6     0.00   0.00   0.00    -0.11   0.00  -0.05    -0.00  -0.13  -0.00
     6   6     0.05   0.06  -0.02     0.03  -0.02   0.06     0.04  -0.09  -0.13
     7   6    -0.03  -0.12  -0.02    -0.05  -0.04  -0.13    -0.11  -0.05  -0.03
     8   6    -0.09   0.06  -0.00    -0.14  -0.01   0.08    -0.12   0.01   0.02
     9   6    -0.02   0.06   0.09     0.03   0.06   0.15    -0.09   0.05   0.06
    10   6    -0.06   0.00   0.09     0.09  -0.02  -0.07    -0.10  -0.09  -0.04
    11   6    -0.06   0.02  -0.08    -0.06  -0.04  -0.03     0.13  -0.09  -0.05
    12   6     0.06  -0.05  -0.00    -0.03  -0.02  -0.01    -0.12   0.09  -0.13
    13   6    -0.08  -0.01  -0.06     0.15  -0.10   0.03    -0.03   0.08  -0.04
    14   6    -0.08   0.04   0.07     0.14   0.06  -0.06    -0.00  -0.08   0.05
    15   6    -0.05   0.06   0.03     0.03   0.02   0.06    -0.04  -0.09   0.13
    16   6    -0.02   0.10  -0.03    -0.05  -0.00   0.04    -0.11   0.06   0.01
    17   6     0.02   0.10   0.03    -0.05   0.00   0.04     0.11   0.06  -0.01
    18   6    -0.07  -0.05   0.11    -0.07  -0.00   0.03     0.08   0.04   0.01
    19   6    -0.02  -0.12  -0.02    -0.00  -0.02  -0.09    -0.07   0.08   0.08
    20   6     0.05  -0.01  -0.04    -0.14   0.04   0.08     0.12  -0.02  -0.03
    21   6    -0.00   0.08  -0.09     0.04  -0.08   0.14     0.10   0.06  -0.06
    22   6     0.01   0.05  -0.06     0.08   0.02  -0.06     0.09  -0.06   0.05
    23   6     0.09   0.06   0.07    -0.03   0.13   0.00    -0.06  -0.04   0.03
    24   6     0.04  -0.04   0.11     0.12   0.00   0.04    -0.01   0.01  -0.02
    25   6    -0.04  -0.04  -0.11     0.12  -0.00   0.04     0.01   0.01   0.02
    26   6     0.07  -0.05  -0.11    -0.07   0.00   0.03    -0.08   0.04  -0.01
    27   6     0.02  -0.12   0.02    -0.00   0.02  -0.09     0.07   0.08  -0.08
    28   6     0.03  -0.12   0.02    -0.05   0.04  -0.13     0.11  -0.05   0.03
    29   6     0.06   0.02   0.08    -0.06   0.04  -0.03    -0.13  -0.09   0.05
    30   6    -0.03  -0.10  -0.02    -0.06  -0.01  -0.15    -0.12  -0.03  -0.04
    31   6    -0.12   0.01  -0.04    -0.02  -0.00  -0.10    -0.06   0.08   0.07
    32   6    -0.02  -0.06   0.10    -0.04  -0.00   0.02     0.07   0.05   0.01
    33   6     0.07   0.09   0.03    -0.06   0.01   0.01     0.11   0.06   0.00
    34   6     0.04   0.05  -0.11     0.05  -0.02   0.07     0.03  -0.09  -0.12
    35   6     0.08  -0.00   0.07     0.16   0.11   0.03     0.03   0.07   0.04
    36   6     0.00   0.08   0.09     0.04   0.08   0.14    -0.10   0.06   0.06
    37   6    -0.05  -0.01   0.04    -0.14  -0.04   0.08    -0.12  -0.02   0.03
    38   6     0.09   0.06   0.00    -0.14   0.01   0.08     0.12   0.01  -0.02
    39   6     0.02   0.06  -0.09     0.03  -0.06   0.15     0.09   0.05  -0.06
    40   6     0.06   0.00  -0.09     0.09   0.02  -0.07     0.10  -0.09   0.04
    41   6     0.02  -0.06  -0.10    -0.04   0.00   0.02    -0.07   0.05  -0.01
    42   6    -0.07   0.09  -0.03    -0.06  -0.01   0.01    -0.11   0.06  -0.00
    43   6    -0.04   0.05   0.11     0.05   0.02   0.07    -0.03  -0.09   0.12
    44   6     0.00  -0.04  -0.00    -0.13  -0.00  -0.06    -0.00  -0.13  -0.00
    45   6     0.00  -0.10  -0.00    -0.12  -0.00   0.03     0.00   0.16   0.00
    46   6    -0.07  -0.05   0.01    -0.05   0.03  -0.02     0.12   0.09   0.10
    47   6    -0.01   0.05   0.06     0.08  -0.02  -0.06    -0.09  -0.06  -0.05
    48   6    -0.09   0.06  -0.07    -0.03  -0.13   0.00     0.06  -0.04  -0.03
    49   6    -0.05   0.05  -0.08    -0.07  -0.02  -0.06     0.11  -0.10  -0.02
    50   6     0.05   0.05   0.08    -0.07   0.02  -0.06    -0.11  -0.10   0.02
    51   6     0.07  -0.05  -0.01    -0.05  -0.03  -0.02    -0.12   0.09  -0.10
    52   6    -0.08  -0.00  -0.07     0.16  -0.11   0.03    -0.03   0.07  -0.04
    53   6    -0.08   0.02   0.08     0.16   0.08  -0.04    -0.01  -0.09   0.05
    54   6     0.03  -0.10   0.02    -0.06   0.01  -0.15     0.12  -0.03   0.04
    55   6     0.12   0.01   0.04    -0.02   0.00  -0.10     0.06   0.08  -0.07
    56   6     0.11   0.03   0.06    -0.00   0.13   0.01    -0.09  -0.03   0.07
    57   6    -0.11   0.03  -0.06    -0.00  -0.13   0.01     0.09  -0.03  -0.07
    58   6     0.08   0.02  -0.08     0.16  -0.08  -0.04     0.01  -0.09  -0.05
    59   6     0.01  -0.08   0.14     0.06   0.02   0.07     0.01   0.02  -0.04
    60   6    -0.01  -0.08  -0.14     0.06  -0.02   0.07    -0.01   0.02   0.04
    61   6     0.03  -0.02   0.01    -0.02  -0.01   0.01     0.00   0.01  -0.02
    62   6    -0.03  -0.02  -0.01    -0.02   0.01   0.01    -0.00   0.01   0.02
    63   6     0.02   0.02   0.02    -0.03  -0.04  -0.03    -0.00  -0.01  -0.01
    64   1    -0.01   0.02  -0.01    -0.05  -0.04  -0.06     0.02   0.00   0.03
    65   1    -0.01   0.03  -0.01    -0.02  -0.02  -0.04    -0.01  -0.02   0.00
    66   1     0.04   0.09   0.06    -0.02  -0.02  -0.04    -0.03  -0.04  -0.02
    67   6    -0.02   0.02  -0.02    -0.03   0.04  -0.03     0.00  -0.01   0.01
    68   1    -0.04   0.09  -0.06    -0.02   0.02  -0.04     0.03  -0.04   0.02
    69   1     0.01   0.03   0.01    -0.02   0.02  -0.04     0.01  -0.02  -0.00
    70   1     0.01   0.02   0.01    -0.05   0.04  -0.06    -0.02   0.00  -0.03
    71   6    -0.05  -0.01   0.02     0.06  -0.02   0.01     0.03  -0.01  -0.01
    72   1    -0.21   0.20   0.03     0.03   0.06   0.02     0.09  -0.08  -0.01
    73   1     0.05  -0.02  -0.16     0.08  -0.02  -0.04    -0.01   0.00   0.06
    74   6     0.05  -0.01  -0.02     0.06   0.02   0.01    -0.03  -0.01   0.01
    75   1    -0.05  -0.02   0.16     0.08   0.02  -0.04     0.01   0.00  -0.06
    76   1     0.21   0.20  -0.03     0.03  -0.06   0.02    -0.09  -0.08   0.01
                     67                     68                     69
                      A                      A                      A
 Frequencies --    703.8790               706.8583               709.5082
 Red. masses --      9.4171                11.1083                11.1245
 Frc consts  --      2.7489                 3.2701                 3.2995
 IR Inten    --      0.0000                 0.0000                 0.0000
  Atom  AN      X      Y      Z        X      Y      Z        X      Y      Z
     1   6    -0.04   0.07   0.00     0.02  -0.04   0.04    -0.02  -0.01   0.04
     2   6    -0.03  -0.10   0.12    -0.00   0.03   0.01    -0.05   0.13  -0.11
     3   6     0.02  -0.01   0.01    -0.02   0.08  -0.16    -0.07   0.05   0.03
     4   6     0.04   0.00  -0.03     0.00   0.00  -0.00     0.00   0.01  -0.00
     5   6     0.06   0.00   0.06     0.00  -0.08   0.00     0.00  -0.11  -0.00
     6   6    -0.02   0.05  -0.07     0.03  -0.01  -0.09     0.09  -0.09   0.07
     7   6    -0.02   0.07   0.02    -0.05   0.03   0.02     0.04   0.02   0.04
     8   6     0.06  -0.13   0.04    -0.01  -0.07   0.04     0.05   0.14  -0.05
     9   6     0.06   0.08  -0.08    -0.00  -0.06   0.07     0.01  -0.19   0.05
    10   6     0.08   0.09  -0.11     0.15   0.16  -0.09     0.03  -0.13   0.02
    11   6     0.05  -0.02  -0.06    -0.16  -0.05   0.16    -0.06   0.04   0.05
    12   6     0.02   0.01   0.01     0.02   0.08   0.16     0.07   0.05  -0.03
    13   6    -0.03   0.10   0.12     0.00   0.03  -0.01     0.05   0.13   0.11
    14   6    -0.04  -0.07   0.00    -0.02  -0.04  -0.04     0.02  -0.01  -0.04
    15   6    -0.02  -0.05  -0.07    -0.03  -0.01   0.09    -0.09  -0.09  -0.07
    16   6     0.00  -0.00  -0.04    -0.03   0.05   0.04     0.14   0.07   0.13
    17   6     0.00   0.00  -0.04     0.03   0.05  -0.04    -0.14   0.07  -0.13
    18   6     0.06  -0.08   0.02     0.06  -0.01  -0.00    -0.07   0.05  -0.07
    19   6    -0.05   0.03  -0.02    -0.11   0.10  -0.00     0.07  -0.06   0.03
    20   6     0.02  -0.00   0.04     0.04   0.19   0.03    -0.05   0.03  -0.03
    21   6    -0.00   0.01   0.00     0.04  -0.04  -0.06    -0.04  -0.00  -0.00
    22   6     0.01   0.02  -0.03     0.09  -0.15  -0.05    -0.06  -0.01   0.06
    23   6     0.09  -0.00  -0.03    -0.10   0.02   0.09    -0.03  -0.04   0.00
    24   6    -0.09   0.01   0.08     0.07  -0.04  -0.00     0.10  -0.05  -0.07
    25   6    -0.09  -0.01   0.08    -0.07  -0.04   0.00    -0.10  -0.05   0.07
    26   6     0.06   0.08   0.02    -0.06  -0.01   0.00     0.07   0.05   0.07
    27   6    -0.05  -0.03  -0.02     0.11   0.10   0.00    -0.07  -0.06  -0.03
    28   6    -0.02  -0.07   0.02     0.05   0.03  -0.02    -0.04   0.02  -0.04
    29   6     0.05   0.02  -0.06     0.16  -0.05  -0.16     0.06   0.04  -0.05
    30   6     0.00  -0.02   0.03     0.03  -0.11   0.05     0.07  -0.07   0.08
    31   6    -0.10  -0.02  -0.06     0.08  -0.16   0.04    -0.10   0.11   0.00
    32   6    -0.14   0.00  -0.02    -0.05  -0.01  -0.01     0.05   0.01  -0.02
    33   6     0.01  -0.02   0.03    -0.00   0.06  -0.06     0.26  -0.07   0.08
    34   6     0.05  -0.02   0.07     0.10  -0.02   0.00    -0.04   0.04  -0.18
    35   6    -0.01   0.04  -0.03    -0.00   0.04  -0.00    -0.04  -0.00   0.03
    36   6    -0.00  -0.01   0.00    -0.04  -0.04   0.06     0.04  -0.00   0.00
    37   6     0.02   0.00   0.04    -0.04   0.19  -0.03     0.05   0.03   0.03
    38   6     0.06   0.13   0.04     0.01  -0.07  -0.04    -0.05   0.14   0.05
    39   6     0.06  -0.08  -0.08     0.00  -0.06  -0.07    -0.01  -0.19  -0.05
    40   6     0.08  -0.09  -0.11    -0.15   0.15   0.09    -0.03  -0.13  -0.02
    41   6    -0.14  -0.00  -0.02     0.05  -0.01   0.01    -0.05   0.01   0.02
    42   6     0.01   0.02   0.03     0.00   0.06   0.06    -0.26  -0.07  -0.08
    43   6     0.05   0.02   0.07    -0.10  -0.02  -0.00     0.04   0.04   0.18
    44   6    -0.05   0.00  -0.13    -0.00  -0.06  -0.00    -0.00  -0.05  -0.00
    45   6    -0.02   0.00  -0.09    -0.00  -0.05  -0.00    -0.00  -0.06  -0.00
    46   6    -0.02  -0.02   0.07    -0.05  -0.04   0.11    -0.07   0.01  -0.01
    47   6     0.01  -0.02  -0.03    -0.09  -0.15   0.05     0.06  -0.01  -0.06
    48   6     0.09   0.00  -0.03     0.10   0.02  -0.09     0.03  -0.04  -0.00
    49   6     0.04  -0.00  -0.01     0.08   0.07  -0.13     0.01   0.06  -0.07
    50   6     0.04   0.00  -0.01    -0.08   0.07   0.13    -0.01   0.06   0.07
    51   6    -0.02   0.02   0.07     0.05  -0.04  -0.11     0.07   0.01   0.01
    52   6    -0.01  -0.04  -0.03     0.00   0.04   0.00     0.04  -0.00  -0.03
    53   6    -0.02  -0.04  -0.01     0.01   0.08   0.08     0.04   0.04   0.01
    54   6     0.00   0.02   0.03    -0.03  -0.11  -0.05    -0.07  -0.07  -0.08
    55   6    -0.10   0.02  -0.06    -0.08  -0.16  -0.04     0.10   0.11  -0.00
    56   6    -0.17   0.17   0.17     0.05  -0.04  -0.05    -0.10  -0.04   0.00
    57   6    -0.17  -0.17   0.17    -0.05  -0.04   0.05     0.10  -0.04  -0.00
    58   6    -0.02   0.04  -0.01    -0.01   0.08  -0.08    -0.04   0.04  -0.01
    59   6     0.04  -0.03   0.02    -0.04  -0.00   0.01    -0.05   0.02  -0.01
    60   6     0.04   0.03   0.02     0.04  -0.00  -0.01     0.05   0.02   0.01
    61   6    -0.05   0.02   0.03    -0.05   0.00   0.03    -0.06   0.02   0.02
    62   6    -0.05  -0.02   0.03     0.05   0.00  -0.03     0.06   0.02  -0.02
    63   6     0.02   0.05   0.04    -0.02  -0.02  -0.01    -0.03  -0.02  -0.03
    64   1     0.03   0.00  -0.03    -0.03  -0.06  -0.08    -0.01  -0.07  -0.06
    65   1     0.10   0.10   0.08     0.04   0.02   0.01     0.05   0.01   0.02
    66   1     0.06   0.04  -0.01     0.00  -0.03  -0.05    -0.03  -0.09  -0.09
    67   6     0.02  -0.05   0.04     0.02  -0.02   0.01     0.03  -0.02   0.03
    68   1     0.06  -0.04  -0.01    -0.00  -0.03   0.05     0.03  -0.09   0.09
    69   1     0.10  -0.10   0.08    -0.04   0.02  -0.01    -0.05   0.01  -0.02
    70   1     0.03  -0.00  -0.03     0.03  -0.06   0.08     0.01  -0.07   0.06
    71   6     0.11  -0.13  -0.13    -0.04   0.04   0.04    -0.02   0.04   0.03
    72   1     0.12  -0.07  -0.12    -0.13   0.07   0.02    -0.05  -0.02   0.01
    73   1     0.13  -0.13  -0.14    -0.04   0.04  -0.00    -0.04   0.04   0.07
    74   6     0.11   0.13  -0.13     0.05   0.05  -0.04     0.02   0.04  -0.03
    75   1     0.13   0.13  -0.14     0.04   0.04   0.00     0.04   0.04  -0.07
    76   1     0.12   0.07  -0.12     0.13   0.07  -0.02     0.05  -0.02  -0.01
                     70                     71                     72
                      A                      A                      A
 Frequencies --    712.7737               715.4501               722.3072
 Red. masses --     11.9838                11.8761                11.2859
 Frc consts  --      3.5871                 3.5816                 3.4692
 IR Inten    --      0.0000                 0.0000                 0.0000
  Atom  AN      X      Y      Z        X      Y      Z        X      Y      Z
     1   6    -0.01  -0.01  -0.01    -0.10   0.12  -0.16     0.03  -0.03   0.02
     2   6    -0.02   0.01  -0.05    -0.04  -0.13   0.16     0.02   0.06  -0.04
     3   6     0.05   0.08  -0.17    -0.02  -0.02  -0.00    -0.01  -0.01   0.05
     4   6     0.04  -0.00   0.22    -0.02   0.00  -0.14    -0.01   0.00  -0.06
     5   6     0.04  -0.00   0.15     0.06  -0.00   0.19    -0.02  -0.00  -0.06
     6   6    -0.11   0.07  -0.13    -0.03   0.03  -0.02     0.02  -0.03   0.04
     7   6     0.08  -0.14   0.08     0.06  -0.15   0.02    -0.03   0.04  -0.03
     8   6     0.01   0.19  -0.01     0.00   0.06  -0.02    -0.03   0.04  -0.02
     9   6    -0.05  -0.17   0.09     0.01   0.08  -0.00     0.01   0.02   0.00
    10   6     0.05   0.03  -0.01     0.04   0.07  -0.00    -0.07  -0.12   0.06
    11   6    -0.05  -0.01   0.07     0.02   0.01  -0.05    -0.01  -0.00   0.02
    12   6     0.05  -0.08  -0.17    -0.02   0.02  -0.00    -0.01   0.01   0.05
    13   6    -0.02  -0.01  -0.05    -0.04   0.13   0.16     0.02  -0.06  -0.04
    14   6    -0.01   0.01  -0.01    -0.10  -0.12  -0.16     0.03   0.03   0.02
    15   6    -0.11  -0.07  -0.13    -0.03  -0.03  -0.02     0.02   0.03   0.04
    16   6     0.07   0.01   0.03     0.09   0.01   0.05    -0.07  -0.01  -0.02
    17   6     0.07  -0.01   0.03     0.09  -0.01   0.05    -0.07   0.00  -0.02
    18   6     0.02  -0.01   0.01    -0.15   0.06  -0.04     0.09  -0.06   0.04
    19   6    -0.05   0.04   0.01     0.09  -0.11   0.02     0.08  -0.05   0.03
    20   6     0.01   0.19   0.01    -0.01   0.00  -0.01    -0.04  -0.16  -0.03
    21   6     0.05  -0.15  -0.11    -0.03   0.11   0.02    -0.06   0.12   0.08
    22   6    -0.05   0.03   0.01    -0.07   0.09   0.05    -0.09   0.15   0.07
    23   6     0.00  -0.01  -0.01     0.05  -0.03  -0.05     0.23  -0.12  -0.17
    24   6    -0.01   0.00   0.00     0.04  -0.00  -0.06    -0.18   0.01   0.02
    25   6    -0.01  -0.00   0.00     0.04   0.00  -0.06    -0.18  -0.01   0.02
    26   6     0.02   0.01   0.01    -0.15  -0.06  -0.04     0.09   0.06   0.04
    27   6    -0.05  -0.04   0.01     0.09   0.11   0.02     0.08   0.05   0.03
    28   6     0.08   0.14   0.08     0.06   0.15   0.02    -0.03  -0.04  -0.03
    29   6    -0.05   0.01   0.07     0.02  -0.01  -0.05    -0.01   0.00   0.02
    30   6    -0.08   0.16  -0.06    -0.05   0.14  -0.02     0.04  -0.05   0.01
    31   6     0.05  -0.04  -0.00    -0.03   0.08   0.01     0.09  -0.07   0.02
    32   6    -0.00   0.01  -0.02     0.12  -0.03   0.02    -0.05   0.04  -0.03
    33   6    -0.07   0.01  -0.04    -0.04   0.01  -0.04    -0.06   0.01  -0.02
    34   6     0.12  -0.08   0.14     0.00  -0.01  -0.03     0.11  -0.08   0.14
    35   6    -0.01   0.00   0.03     0.03   0.11  -0.18     0.00   0.13  -0.14
    36   6     0.05   0.15  -0.11    -0.03  -0.11   0.02    -0.06  -0.12   0.08
    37   6     0.01  -0.19   0.01    -0.01  -0.00  -0.01    -0.04   0.16  -0.03
    38   6     0.01  -0.19  -0.01     0.00  -0.06  -0.02    -0.03  -0.04  -0.02
    39   6    -0.05   0.17   0.09     0.01  -0.08  -0.00     0.01  -0.02   0.00
    40   6     0.05  -0.03  -0.01     0.04  -0.07  -0.00    -0.07   0.12   0.06
    41   6    -0.00  -0.01  -0.02     0.12   0.03   0.02    -0.05  -0.04  -0.03
    42   6    -0.07  -0.01  -0.04    -0.04  -0.01  -0.04    -0.06  -0.01  -0.02
    43   6     0.12   0.08   0.14     0.00   0.01  -0.03     0.11   0.08   0.14
    44   6    -0.06   0.00  -0.21    -0.04   0.00  -0.11    -0.08  -0.00  -0.22
    45   6    -0.02  -0.00  -0.17     0.02  -0.00   0.24    -0.04  -0.00  -0.07
    46   6    -0.05  -0.07   0.17     0.02   0.04  -0.07    -0.05  -0.03   0.12
    47   6    -0.05  -0.03   0.01    -0.07  -0.09   0.05    -0.09  -0.15   0.07
    48   6     0.00   0.01  -0.01     0.05   0.03  -0.05     0.23   0.12  -0.17
    49   6     0.06   0.01  -0.06    -0.06  -0.00   0.07    -0.01   0.00   0.03
    50   6     0.06  -0.01  -0.06    -0.06   0.00   0.07    -0.01  -0.00   0.03
    51   6    -0.05   0.07   0.17     0.02  -0.04  -0.07    -0.05   0.03   0.13
    52   6    -0.01  -0.00   0.03     0.03  -0.11  -0.18     0.00  -0.13  -0.14
    53   6    -0.01  -0.00   0.04     0.12   0.16   0.17     0.02   0.01  -0.01
    54   6    -0.08  -0.16  -0.06    -0.05  -0.14  -0.02     0.04   0.05   0.01
    55   6     0.05   0.04  -0.00    -0.03  -0.08   0.01     0.09   0.07   0.02
    56   6     0.01   0.00   0.01    -0.05  -0.01   0.03     0.08  -0.03  -0.06
    57   6     0.01  -0.00   0.01    -0.05   0.01   0.03     0.08   0.03  -0.06
    58   6    -0.01   0.00   0.04     0.12  -0.16   0.17     0.02  -0.01  -0.01
    59   6     0.00   0.02  -0.00    -0.01   0.00   0.02     0.01   0.02  -0.01
    60   6     0.00  -0.02  -0.00    -0.01  -0.00   0.02     0.01  -0.02  -0.01
    61   6     0.00  -0.00  -0.00     0.01   0.00  -0.00     0.01  -0.02  -0.01
    62   6     0.00   0.00  -0.00     0.01  -0.00  -0.00     0.01   0.02  -0.01
    63   6    -0.00  -0.00   0.00     0.01   0.01   0.01    -0.04  -0.05  -0.04
    64   1     0.00   0.00   0.01     0.01   0.01   0.02    -0.05  -0.03  -0.04
    65   1    -0.00  -0.00   0.00     0.00   0.00   0.01    -0.07  -0.06  -0.07
    66   1    -0.00  -0.00   0.00     0.00   0.01   0.01    -0.04  -0.03  -0.02
    67   6    -0.00   0.00   0.00     0.01  -0.01   0.01    -0.04   0.05  -0.04
    68   1    -0.00   0.00   0.00     0.00  -0.01   0.01    -0.04   0.02  -0.02
    69   1    -0.00   0.00   0.00     0.00  -0.00   0.01    -0.07   0.06  -0.07
    70   1     0.00  -0.00   0.01     0.01  -0.01   0.02    -0.05   0.03  -0.04
    71   6    -0.01   0.01   0.00    -0.04   0.01   0.01     0.02   0.05   0.06
    72   1    -0.01  -0.01  -0.00    -0.04  -0.02   0.01     0.02   0.06   0.06
    73   1    -0.02   0.01   0.01    -0.04   0.01   0.03     0.03   0.05   0.04
    74   6    -0.01  -0.01   0.00    -0.04  -0.01   0.01     0.02  -0.05   0.06
    75   1    -0.02  -0.01   0.01    -0.04  -0.01   0.03     0.03  -0.05   0.04
    76   1    -0.01   0.01  -0.00    -0.04   0.02   0.01     0.02  -0.06   0.06
                     73                     74                     75
                      A                      A                      A
 Frequencies --    723.5716               723.8496               732.3444
 Red. masses --     11.3083                11.6370                 9.5079
 Frc consts  --      3.4883                 3.5924                 3.0045
 IR Inten    --      0.0000                 0.0000                 0.0000
  Atom  AN      X      Y      Z        X      Y      Z        X      Y      Z
     1   6    -0.05   0.04  -0.06     0.06  -0.15   0.13    -0.03  -0.01   0.05
     2   6    -0.04  -0.00   0.04     0.01   0.02  -0.02    -0.02  -0.00   0.12
     3   6    -0.04   0.04  -0.03     0.03   0.09  -0.21    -0.10   0.03   0.06
     4   6    -0.00   0.01   0.00    -0.01  -0.00   0.28    -0.00  -0.01  -0.00
     5   6    -0.00  -0.02   0.00    -0.02   0.00   0.11     0.00  -0.05   0.00
     6   6    -0.05   0.03  -0.16    -0.10   0.03  -0.09    -0.02  -0.01  -0.08
     7   6     0.09  -0.16   0.08    -0.07   0.08  -0.05    -0.02   0.09  -0.03
     8   6     0.04   0.12  -0.03    -0.04  -0.09   0.02     0.07  -0.17  -0.02
     9   6     0.01  -0.08   0.05    -0.01   0.01   0.01     0.15   0.13  -0.08
    10   6     0.05  -0.01  -0.00     0.06   0.09  -0.03     0.03  -0.11   0.03
    11   6    -0.03   0.02   0.01    -0.07   0.01   0.04     0.04   0.09  -0.18
    12   6     0.04   0.04   0.03     0.03  -0.09  -0.21     0.10   0.02  -0.06
    13   6     0.04  -0.00  -0.04     0.01  -0.02  -0.02     0.02  -0.00  -0.12
    14   6     0.05   0.04   0.06     0.06   0.15   0.13     0.03  -0.01  -0.06
    15   6     0.05   0.03   0.15    -0.10  -0.03  -0.09     0.02  -0.01   0.08
    16   6    -0.25  -0.05  -0.10     0.02   0.01  -0.01    -0.06  -0.01   0.00
    17   6     0.25  -0.05   0.10     0.02  -0.01  -0.01     0.06  -0.01  -0.00
    18   6     0.06  -0.01   0.02     0.24  -0.10   0.03     0.03   0.01  -0.02
    19   6    -0.07   0.08   0.02    -0.08   0.11  -0.03    -0.04   0.07  -0.02
    20   6    -0.01   0.15  -0.01    -0.01   0.01   0.01    -0.07  -0.05  -0.03
    21   6     0.03  -0.18  -0.11    -0.03   0.09   0.03    -0.08   0.09   0.06
    22   6    -0.07   0.03   0.02     0.04  -0.03  -0.06     0.04  -0.15  -0.04
    23   6     0.01  -0.04  -0.04     0.06  -0.06  -0.08    -0.03  -0.04   0.04
    24   6    -0.19   0.04   0.03    -0.16   0.01   0.01    -0.04   0.00   0.01
    25   6     0.19   0.04  -0.03    -0.16  -0.01   0.01     0.04   0.00  -0.01
    26   6    -0.05  -0.01  -0.02     0.24   0.10   0.04    -0.03   0.01   0.02
    27   6     0.07   0.08  -0.02    -0.08  -0.11  -0.03     0.04   0.07   0.02
    28   6    -0.09  -0.16  -0.08    -0.07  -0.08  -0.05     0.02   0.09   0.03
    29   6     0.03   0.02  -0.01    -0.07  -0.01   0.04    -0.04   0.09   0.18
    30   6     0.05  -0.04   0.05     0.01   0.03  -0.00     0.00   0.12   0.01
    31   6    -0.02   0.03   0.00    -0.05   0.12  -0.00    -0.01   0.03  -0.02
    32   6     0.03  -0.02  -0.00     0.11  -0.02   0.02     0.08  -0.03  -0.02
    33   6     0.07  -0.01   0.01     0.00   0.01  -0.03     0.03  -0.02  -0.03
    34   6    -0.01   0.01  -0.09    -0.05   0.03  -0.10    -0.02   0.01  -0.10
    35   6    -0.01   0.07  -0.08     0.02   0.04  -0.07    -0.02   0.05   0.00
    36   6    -0.04  -0.18   0.11    -0.03  -0.09   0.03     0.08   0.09  -0.06
    37   6     0.01   0.15   0.01    -0.01  -0.02   0.01     0.07  -0.05   0.03
    38   6    -0.04   0.12   0.03    -0.04   0.09   0.02    -0.07  -0.17   0.02
    39   6    -0.01  -0.08  -0.05    -0.01  -0.01   0.01    -0.15   0.13   0.08
    40   6    -0.05  -0.01   0.00     0.06  -0.09  -0.03    -0.03  -0.11  -0.03
    41   6    -0.03  -0.02   0.00     0.11   0.02   0.02    -0.08  -0.03   0.02
    42   6    -0.07  -0.01  -0.01     0.00  -0.01  -0.03    -0.03  -0.02   0.03
    43   6     0.01   0.01   0.09    -0.05  -0.03  -0.10     0.02   0.01   0.10
    44   6     0.00  -0.03   0.00     0.05   0.00   0.08     0.00  -0.06   0.00
    45   6     0.00  -0.00   0.00     0.04  -0.00   0.18     0.00  -0.06  -0.00
    46   6    -0.04   0.06  -0.15     0.03   0.05  -0.10    -0.09  -0.01   0.02
    47   6     0.07   0.03  -0.02     0.04   0.03  -0.06    -0.04  -0.15   0.04
    48   6    -0.01  -0.04   0.04     0.06   0.06  -0.08     0.03  -0.04  -0.04
    49   6    -0.19  -0.05   0.19    -0.09  -0.01   0.08    -0.00   0.05  -0.09
    50   6     0.19  -0.05  -0.19    -0.09   0.01   0.08     0.00   0.05   0.09
    51   6     0.04   0.06   0.15     0.03  -0.05  -0.10     0.09  -0.01  -0.02
    52   6     0.01   0.07   0.08     0.02  -0.04  -0.07     0.02   0.05  -0.00
    53   6    -0.03  -0.03  -0.03     0.07   0.10   0.09    -0.02  -0.03  -0.10
    54   6    -0.05  -0.04  -0.05     0.01  -0.03  -0.00    -0.00   0.12  -0.01
    55   6     0.02   0.03  -0.00    -0.05  -0.12  -0.00     0.01   0.03   0.02
    56   6     0.01  -0.05  -0.03    -0.02  -0.01   0.01     0.09  -0.12  -0.04
    57   6    -0.01  -0.05   0.03    -0.02   0.01   0.01    -0.09  -0.12   0.04
    58   6     0.03  -0.03   0.03     0.07  -0.10   0.09     0.02  -0.03   0.10
    59   6    -0.02   0.01   0.02     0.02   0.01   0.03    -0.01   0.03   0.04
    60   6     0.02   0.01  -0.02     0.01  -0.01   0.03     0.01   0.03  -0.04
    61   6    -0.04   0.00   0.03     0.01  -0.01  -0.00    -0.05  -0.02   0.05
    62   6     0.04   0.00  -0.03     0.01   0.01  -0.00     0.05  -0.02  -0.05
    63   6    -0.02  -0.02  -0.01    -0.02  -0.03  -0.02    -0.03  -0.02  -0.01
    64   1    -0.03  -0.05  -0.07    -0.03  -0.01  -0.01    -0.07  -0.08  -0.13
    65   1     0.03   0.02   0.01    -0.05  -0.04  -0.05     0.04   0.05  -0.00
    66   1     0.00  -0.02  -0.04    -0.02  -0.01  -0.01     0.03   0.02  -0.04
    67   6     0.02  -0.01   0.01    -0.02   0.03  -0.02     0.03  -0.02   0.01
    68   1    -0.00  -0.02   0.04    -0.02   0.01  -0.01    -0.03   0.02   0.04
    69   1    -0.03   0.02  -0.01    -0.05   0.04  -0.05    -0.04   0.05   0.00
    70   1     0.03  -0.05   0.07    -0.03   0.01  -0.01     0.07  -0.08   0.13
    71   6    -0.05   0.04   0.04    -0.02   0.03   0.06    -0.12   0.08   0.07
    72   1    -0.11   0.02   0.02    -0.03   0.03   0.05    -0.21   0.04   0.04
    73   1    -0.06   0.04   0.03    -0.01   0.03   0.05    -0.15   0.07   0.05
    74   6     0.05   0.04  -0.04    -0.02  -0.03   0.06     0.12   0.08  -0.07
    75   1     0.06   0.04  -0.03    -0.01  -0.03   0.05     0.15   0.07  -0.05
    76   1     0.11   0.02  -0.02    -0.03  -0.03   0.05     0.21   0.04  -0.04
                     76                     77                     78
                      A                      A                      A
 Frequencies --    733.1775               734.6287               738.3611
 Red. masses --      8.4992                11.0812                11.0555
 Frc consts  --      2.6918                 3.5235                 3.5511
 IR Inten    --      0.0000                 0.0000                 0.0000
  Atom  AN      X      Y      Z        X      Y      Z        X      Y      Z
     1   6    -0.03   0.03  -0.10     0.03  -0.04   0.03     0.11  -0.15   0.15
     2   6     0.01  -0.08   0.14     0.02   0.06   0.03     0.04   0.10  -0.19
     3   6     0.00   0.03  -0.09    -0.01   0.08  -0.07    -0.02  -0.06   0.07
     4   6    -0.03   0.00  -0.04     0.00   0.05  -0.00    -0.00  -0.02   0.00
     5   6     0.04   0.00   0.24     0.00  -0.09  -0.00    -0.00   0.09   0.00
     6   6    -0.10   0.05  -0.08     0.07  -0.06   0.02    -0.09   0.06   0.01
     7   6     0.02  -0.13  -0.02    -0.09   0.10  -0.06     0.00   0.04  -0.03
     8   6    -0.04   0.06   0.01    -0.04  -0.02  -0.00    -0.01  -0.03  -0.02
     9   6     0.03   0.14   0.00    -0.00  -0.04   0.07    -0.02  -0.07  -0.01
    10   6    -0.02  -0.03   0.02     0.05   0.03  -0.03    -0.08  -0.07   0.09
    11   6    -0.03  -0.01   0.01    -0.12  -0.07   0.10    -0.06   0.01   0.08
    12   6     0.00  -0.03  -0.09     0.01   0.08   0.07     0.02  -0.06  -0.07
    13   6     0.01   0.08   0.14    -0.02   0.06  -0.03    -0.04   0.10   0.19
    14   6    -0.03  -0.03  -0.10    -0.03  -0.04  -0.03    -0.11  -0.15  -0.15
    15   6    -0.10  -0.05  -0.08    -0.07  -0.06  -0.02     0.09   0.06  -0.01
    16   6     0.07   0.01   0.05     0.14   0.09   0.11     0.09   0.01  -0.01
    17   6     0.07  -0.01   0.05    -0.14   0.09  -0.11    -0.09   0.01   0.01
    18   6     0.01  -0.01   0.01     0.02  -0.01   0.00     0.13  -0.05   0.07
    19   6    -0.01  -0.00  -0.03     0.10  -0.13   0.03    -0.09   0.12  -0.06
    20   6    -0.01  -0.08  -0.00     0.04  -0.11  -0.05    -0.03   0.05   0.00
    21   6     0.00  -0.06   0.02    -0.00  -0.01  -0.06     0.01  -0.08  -0.03
    22   6    -0.04   0.05  -0.01    -0.08   0.07   0.07     0.08  -0.10  -0.10
    23   6     0.02  -0.01  -0.05     0.01  -0.01   0.04    -0.08   0.07   0.07
    24   6    -0.00  -0.00  -0.02    -0.04   0.02   0.02     0.02  -0.01   0.05
    25   6    -0.00   0.00  -0.02     0.04   0.02  -0.02    -0.02  -0.01  -0.05
    26   6     0.01   0.01   0.01    -0.02  -0.01  -0.00    -0.13  -0.06  -0.07
    27   6    -0.01   0.00  -0.03    -0.10  -0.13  -0.03     0.09   0.12   0.06
    28   6     0.02   0.13  -0.02     0.09   0.10   0.06    -0.00   0.04   0.03
    29   6    -0.03   0.01   0.01     0.12  -0.07  -0.10     0.06   0.01  -0.08
    30   6     0.10  -0.16   0.02    -0.14   0.19  -0.05     0.03   0.04  -0.02
    31   6     0.01   0.03  -0.01     0.03  -0.08   0.02    -0.07   0.11  -0.05
    32   6    -0.04   0.07  -0.03     0.11  -0.09   0.01     0.03  -0.04   0.07
    33   6     0.03   0.02   0.00    -0.13   0.08  -0.15    -0.06  -0.01   0.03
    34   6    -0.02   0.03  -0.06     0.07  -0.03  -0.05    -0.09   0.03  -0.03
    35   6     0.00  -0.07   0.12     0.04   0.08  -0.01     0.03   0.11  -0.18
    36   6     0.00   0.06   0.02     0.00  -0.01   0.06    -0.01  -0.08   0.02
    37   6    -0.01   0.08  -0.00    -0.04  -0.11   0.05     0.03   0.06  -0.00
    38   6    -0.04  -0.05   0.00     0.04  -0.02   0.00     0.01  -0.03   0.02
    39   6     0.03  -0.14   0.00     0.00  -0.04  -0.07     0.02  -0.07   0.01
    40   6    -0.02   0.03   0.02    -0.05   0.03   0.03     0.08  -0.07  -0.09
    41   6    -0.04  -0.07  -0.03    -0.11  -0.09  -0.01    -0.03  -0.04  -0.07
    42   6     0.03  -0.02   0.00     0.13   0.08   0.15     0.06  -0.01  -0.03
    43   6    -0.02  -0.03  -0.06    -0.07  -0.03   0.05     0.09   0.03   0.03
    44   6     0.08   0.00   0.17    -0.00  -0.09  -0.00    -0.00   0.03   0.00
    45   6     0.00   0.00  -0.12     0.00   0.00   0.00    -0.00  -0.03  -0.00
    46   6    -0.02  -0.01   0.03    -0.02   0.06  -0.12    -0.03  -0.05   0.07
    47   6    -0.04  -0.05  -0.01     0.08   0.08  -0.07    -0.08  -0.10   0.10
    48   6     0.02   0.01  -0.05    -0.01  -0.01  -0.04     0.08   0.06  -0.07
    49   6    -0.03  -0.01   0.00    -0.15  -0.07   0.13    -0.05   0.01   0.05
    50   6    -0.03   0.01  -0.00     0.15  -0.07  -0.13     0.05   0.01  -0.05
    51   6    -0.02   0.01   0.03     0.02   0.06   0.12     0.03  -0.05  -0.07
    52   6     0.00   0.07   0.12    -0.04   0.07   0.01    -0.03   0.11   0.18
    53   6    -0.03  -0.07  -0.12    -0.08  -0.07  -0.10    -0.09  -0.13  -0.10
    54   6     0.10   0.16   0.02     0.14   0.19   0.05    -0.03   0.04   0.02
    55   6     0.01  -0.03  -0.01    -0.03  -0.08  -0.02     0.07   0.11   0.05
    56   6     0.02   0.02  -0.00     0.01  -0.01   0.05    -0.08   0.10   0.08
    57   6     0.02  -0.02  -0.00    -0.01  -0.01  -0.05     0.08   0.10  -0.08
    58   6    -0.03   0.07  -0.12     0.08  -0.07   0.10     0.09  -0.13   0.10
    59   6     0.04   0.02   0.04    -0.01   0.02   0.04     0.01  -0.06   0.07
    60   6     0.04  -0.02   0.04     0.01   0.02  -0.04    -0.01  -0.05  -0.07
    61   6     0.02  -0.04   0.00    -0.03  -0.00   0.02     0.02   0.01  -0.02
    62   6     0.02   0.04   0.00     0.03  -0.00  -0.02    -0.02   0.01   0.02
    63   6    -0.08  -0.11  -0.09    -0.02  -0.02  -0.01     0.01   0.02   0.01
    64   1    -0.13  -0.07  -0.11    -0.04  -0.05  -0.07     0.04   0.03   0.06
    65   1    -0.13  -0.11  -0.15     0.02   0.02  -0.00    -0.00  -0.00   0.02
    66   1    -0.06  -0.04  -0.05     0.01  -0.00  -0.03    -0.01  -0.01   0.02
    67   6    -0.08   0.11  -0.09     0.02  -0.02   0.01    -0.01   0.02  -0.01
    68   1    -0.06   0.04  -0.05    -0.01  -0.00   0.03     0.01  -0.01  -0.02
    69   1    -0.13   0.11  -0.15    -0.02   0.02   0.00     0.00  -0.00  -0.02
    70   1    -0.13   0.07  -0.11     0.04  -0.05   0.07    -0.04   0.03  -0.06
    71   6     0.08   0.06   0.11    -0.08   0.05   0.05     0.03  -0.04  -0.01
    72   1     0.07   0.13   0.13    -0.12   0.02   0.03    -0.01   0.09   0.01
    73   1     0.14   0.06   0.06    -0.10   0.05   0.05     0.12  -0.05  -0.10
    74   6     0.08  -0.06   0.11     0.08   0.05  -0.05    -0.03  -0.04   0.01
    75   1     0.14  -0.06   0.06     0.10   0.05  -0.05    -0.12  -0.05   0.10
    76   1     0.07  -0.13   0.13     0.12   0.02  -0.03     0.01   0.09  -0.01
                     79                     80                     81
                      A                      A                      A
 Frequencies --    740.9164               744.4019               747.2010
 Red. masses --      9.3290                10.0324                10.6032
 Frc consts  --      3.0173                 3.2754                 3.4879
 IR Inten    --      0.0000                 0.0000                 0.0000
  Atom  AN      X      Y      Z        X      Y      Z        X      Y      Z
     1   6     0.15   0.03   0.03    -0.02  -0.03   0.08     0.06  -0.03   0.11
     2   6     0.07  -0.04   0.02    -0.06   0.01  -0.06     0.02  -0.01   0.01
     3   6    -0.05  -0.05  -0.03     0.06   0.07  -0.11    -0.01   0.00  -0.15
     4   6    -0.10   0.00   0.08     0.06  -0.00   0.23     0.00  -0.06  -0.00
     5   6    -0.03  -0.00   0.10    -0.02  -0.00  -0.14     0.00   0.01   0.00
     6   6     0.05   0.11  -0.06    -0.01  -0.00  -0.02    -0.02   0.07  -0.13
     7   6     0.09   0.01   0.02    -0.00   0.08   0.03    -0.07   0.09   0.02
     8   6     0.03   0.02   0.02     0.03   0.14   0.01    -0.03  -0.06   0.04
     9   6    -0.07  -0.10   0.07    -0.05  -0.12   0.01     0.01   0.09  -0.04
    10   6    -0.12   0.01   0.03     0.03   0.03  -0.07    -0.05  -0.06   0.01
    11   6    -0.06   0.01  -0.03    -0.01  -0.01   0.04    -0.15  -0.05   0.16
    12   6    -0.05   0.05  -0.03     0.06  -0.07  -0.11     0.01   0.00   0.15
    13   6     0.07   0.04   0.02    -0.06  -0.01  -0.06    -0.02  -0.01  -0.01
    14   6     0.15  -0.03   0.03    -0.02   0.03   0.08    -0.06  -0.03  -0.11
    15   6     0.05  -0.11  -0.06    -0.01   0.00  -0.02     0.02   0.07   0.13
    16   6     0.05  -0.04  -0.10     0.07   0.03   0.04    -0.10  -0.03   0.01
    17   6     0.05   0.04  -0.10     0.07  -0.03   0.04     0.10  -0.03  -0.01
    18   6    -0.07   0.04  -0.07    -0.18   0.02  -0.03     0.05  -0.07  -0.02
    19   6     0.02   0.02  -0.03     0.06  -0.14  -0.02    -0.02  -0.03   0.01
    20   6     0.03  -0.13  -0.02     0.04  -0.16   0.01     0.02  -0.09   0.00
    21   6     0.05   0.03  -0.03    -0.07   0.11   0.03    -0.03   0.12   0.08
    22   6    -0.00   0.09   0.00    -0.01  -0.02  -0.04     0.02  -0.01  -0.02
    23   6     0.03   0.05   0.06    -0.01   0.03   0.03     0.06  -0.02  -0.06
    24   6    -0.08   0.03   0.03     0.11  -0.02   0.00    -0.20   0.03   0.02
    25   6    -0.08  -0.03   0.03     0.11   0.02   0.00     0.20   0.03  -0.02
    26   6    -0.07  -0.04  -0.07    -0.18  -0.02  -0.03    -0.05  -0.07   0.02
    27   6     0.02  -0.02  -0.03     0.06   0.14  -0.02     0.02  -0.03  -0.01
    28   6     0.09  -0.01   0.02    -0.00  -0.08   0.03     0.07   0.09  -0.02
    29   6    -0.06  -0.01  -0.03    -0.01   0.01   0.04     0.15  -0.05  -0.16
    30   6    -0.03   0.05  -0.01     0.07  -0.02   0.07    -0.07   0.04   0.03
    31   6    -0.10  -0.06  -0.01     0.03  -0.07  -0.04    -0.02  -0.08   0.01
    32   6    -0.08  -0.12   0.07    -0.16   0.07  -0.07    -0.12   0.04  -0.09
    33   6     0.01  -0.02   0.07     0.07  -0.02   0.02     0.23  -0.06   0.05
    34   6    -0.08   0.08  -0.01     0.01  -0.01  -0.01     0.00   0.08  -0.10
    35   6     0.11  -0.04  -0.07    -0.08   0.00  -0.02     0.01  -0.07   0.08
    36   6     0.05  -0.03  -0.03    -0.07  -0.11   0.03     0.03   0.12  -0.08
    37   6     0.03   0.13  -0.02     0.04   0.16   0.01    -0.02  -0.09  -0.00
    38   6     0.03  -0.02   0.02     0.03  -0.14   0.01     0.03  -0.06  -0.04
    39   6    -0.07   0.10   0.07    -0.05   0.12   0.01    -0.01   0.09   0.04
    40   6    -0.12  -0.01   0.03     0.03  -0.03  -0.07     0.05  -0.06  -0.01
    41   6    -0.08   0.12   0.08    -0.16  -0.07  -0.07     0.12   0.04   0.09
    42   6     0.01   0.02   0.07     0.07   0.02   0.02    -0.23  -0.06  -0.05
    43   6    -0.08  -0.08  -0.01     0.01   0.01  -0.01    -0.00   0.08   0.10
    44   6    -0.09  -0.00   0.04    -0.00  -0.00  -0.11     0.00   0.04   0.00
    45   6    -0.05   0.00  -0.05     0.05   0.00   0.18     0.00  -0.06   0.00
    46   6     0.08  -0.08  -0.02     0.02   0.07  -0.09    -0.01  -0.01  -0.09
    47   6    -0.00  -0.09   0.00    -0.01   0.02  -0.04    -0.02  -0.01   0.02
    48   6     0.03  -0.05   0.06    -0.01  -0.03   0.03    -0.06  -0.02   0.06
    49   6     0.05  -0.05   0.11    -0.01   0.01   0.01    -0.01   0.03  -0.01
    50   6     0.05   0.05   0.11    -0.01  -0.01   0.01     0.01   0.03   0.01
    51   6     0.08   0.08  -0.01     0.02  -0.07  -0.09     0.01  -0.01   0.09
    52   6     0.11   0.04  -0.07    -0.08  -0.00  -0.02    -0.01  -0.07  -0.08
    53   6     0.06  -0.04  -0.05    -0.04  -0.01   0.04    -0.02   0.03  -0.06
    54   6    -0.03  -0.05  -0.01     0.07   0.02   0.07     0.07   0.04  -0.03
    55   6    -0.10   0.06  -0.01     0.03   0.07  -0.04     0.02  -0.08  -0.01
    56   6    -0.04  -0.13  -0.08    -0.03   0.09   0.08    -0.09   0.11   0.10
    57   6    -0.04   0.13  -0.08    -0.03  -0.09   0.08     0.09   0.11  -0.10
    58   6     0.06   0.05  -0.05    -0.04   0.01   0.04     0.02   0.03   0.06
    59   6    -0.02  -0.16   0.05     0.04   0.03   0.03    -0.01   0.02  -0.06
    60   6    -0.02   0.16   0.05     0.04  -0.03   0.03     0.01   0.02   0.06
    61   6    -0.01  -0.00   0.00     0.00  -0.02   0.01     0.02   0.02  -0.03
    62   6    -0.01   0.00   0.00     0.00   0.02   0.01    -0.02   0.02   0.03
    63   6    -0.01  -0.01  -0.01    -0.06  -0.07  -0.06     0.01   0.00  -0.01
    64   1    -0.03  -0.01  -0.04    -0.10  -0.06  -0.10     0.05   0.04   0.08
    65   1    -0.01   0.01  -0.03    -0.07  -0.06  -0.09    -0.03  -0.04   0.00
    66   1     0.01   0.02  -0.01    -0.04  -0.02  -0.05    -0.04  -0.05   0.00
    67   6    -0.01   0.01  -0.01    -0.06   0.07  -0.06    -0.01   0.00   0.01
    68   1     0.01  -0.02  -0.01    -0.04   0.02  -0.05     0.04  -0.05  -0.00
    69   1    -0.01  -0.01  -0.03    -0.07   0.06  -0.09     0.03  -0.04   0.00
    70   1    -0.03   0.01  -0.04    -0.10   0.06  -0.10    -0.05   0.04  -0.08
    71   6     0.07  -0.08   0.00     0.11   0.01   0.04     0.09  -0.04  -0.06
    72   1    -0.03   0.10   0.02     0.10   0.09   0.06     0.17  -0.09  -0.05
    73   1     0.28  -0.10  -0.14     0.16   0.01   0.01     0.08  -0.04   0.03
    74   6     0.07   0.08   0.00     0.11  -0.01   0.04    -0.09  -0.04   0.06
    75   1     0.28   0.10  -0.14     0.16  -0.01   0.01    -0.08  -0.04  -0.03
    76   1    -0.03  -0.10   0.02     0.10  -0.09   0.06    -0.17  -0.09   0.05
                     82                     83                     84
                      A                      A                      A
 Frequencies --    750.5201               751.3476               754.7466
 Red. masses --      7.6917                 8.4927                11.9642
 Frc consts  --      2.5527                 2.8247                 4.0155
 IR Inten    --      0.0000                 0.0000                 0.0000
  Atom  AN      X      Y      Z        X      Y      Z        X      Y      Z
     1   6     0.02   0.00  -0.00     0.05   0.04   0.05    -0.08   0.11  -0.12
     2   6     0.02   0.04  -0.03     0.03   0.06  -0.10    -0.03  -0.11   0.16
     3   6     0.04   0.00   0.03    -0.00  -0.08   0.04     0.06   0.09  -0.16
     4   6     0.06  -0.00  -0.06    -0.00  -0.08   0.00     0.09  -0.00   0.26
     5   6     0.07   0.00   0.04    -0.00   0.05  -0.00    -0.02  -0.00  -0.25
     6   6    -0.05   0.05  -0.09     0.02   0.07  -0.05     0.11  -0.08   0.09
     7   6     0.03  -0.03   0.03    -0.01  -0.02   0.08     0.07  -0.08   0.03
     8   6     0.01   0.15   0.01    -0.03   0.08   0.04     0.05   0.02  -0.00
     9   6     0.00  -0.06   0.03    -0.07  -0.06   0.06     0.06   0.09  -0.05
    10   6     0.03  -0.08  -0.09     0.02   0.07  -0.04    -0.06  -0.14   0.01
    11   6    -0.03  -0.05   0.07     0.09  -0.00  -0.12    -0.08  -0.02   0.08
    12   6     0.04  -0.01   0.03     0.00  -0.08  -0.05     0.06  -0.09  -0.16
    13   6     0.02  -0.04  -0.03    -0.03   0.06   0.10    -0.03   0.11   0.16
    14   6     0.02  -0.00  -0.00    -0.05   0.04  -0.05    -0.08  -0.11  -0.12
    15   6    -0.05  -0.05  -0.09    -0.02   0.07   0.05     0.11   0.07   0.09
    16   6    -0.01  -0.00   0.01    -0.07  -0.10   0.03    -0.08  -0.01  -0.03
    17   6    -0.01  -0.00   0.01     0.07  -0.10  -0.03    -0.08   0.01  -0.03
    18   6    -0.04  -0.05   0.06    -0.08  -0.03  -0.10     0.03  -0.00   0.02
    19   6    -0.02  -0.01  -0.00    -0.06  -0.05  -0.02    -0.06   0.10  -0.01
    20   6    -0.03  -0.07   0.03     0.09  -0.07  -0.01    -0.04  -0.02   0.02
    21   6     0.00  -0.09   0.04     0.04   0.01   0.02    -0.03   0.07   0.06
    22   6    -0.03   0.08   0.01     0.03  -0.00  -0.01     0.07  -0.08  -0.03
    23   6     0.16  -0.02  -0.08    -0.05   0.08   0.08    -0.02   0.02   0.05
    24   6    -0.02   0.00   0.10     0.12   0.04  -0.05     0.00   0.01   0.06
    25   6    -0.02  -0.00   0.10    -0.12   0.04   0.05     0.00  -0.01   0.05
    26   6    -0.04   0.05   0.06     0.08  -0.03   0.10     0.03   0.00   0.02
    27   6    -0.01   0.01   0.00     0.06  -0.05   0.02    -0.06  -0.10  -0.01
    28   6     0.03   0.02   0.03     0.01  -0.02  -0.08     0.07   0.08   0.03
    29   6    -0.03   0.05   0.07    -0.09  -0.01   0.12    -0.09   0.02   0.08
    30   6    -0.00  -0.06  -0.01    -0.10   0.03   0.07    -0.07   0.07  -0.02
    31   6    -0.02  -0.05  -0.08    -0.04  -0.10   0.03     0.06  -0.14  -0.01
    32   6     0.00  -0.06  -0.00     0.02  -0.07  -0.09    -0.08  -0.02  -0.01
    33   6     0.07  -0.04   0.03     0.04  -0.07  -0.06     0.07  -0.03   0.04
    34   6    -0.08   0.03  -0.05     0.04   0.10  -0.02    -0.10   0.06  -0.08
    35   6    -0.02   0.02   0.08     0.04   0.05  -0.09     0.01   0.11  -0.11
    36   6    -0.00   0.09   0.04    -0.04   0.01  -0.02    -0.03  -0.07   0.06
    37   6    -0.03   0.07   0.03    -0.08  -0.07   0.01    -0.04   0.02   0.02
    38   6     0.01  -0.15   0.01     0.03   0.09  -0.04     0.05  -0.02  -0.00
    39   6     0.00   0.06   0.03     0.07  -0.06  -0.06     0.06  -0.09  -0.05
    40   6     0.03   0.08  -0.09    -0.02   0.07   0.04    -0.06   0.14   0.01
    41   6     0.00   0.06   0.00    -0.02  -0.07   0.09    -0.08   0.02  -0.01
    42   6     0.07   0.04   0.03    -0.05  -0.07   0.06     0.07   0.03   0.04
    43   6    -0.08  -0.03  -0.05    -0.04   0.10   0.02    -0.10  -0.06  -0.08
    44   6     0.01   0.00   0.15    -0.00   0.10  -0.00     0.02   0.00   0.17
    45   6    -0.04  -0.00   0.01     0.00  -0.08  -0.00    -0.04  -0.00  -0.18
    46   6    -0.02   0.09  -0.12    -0.00  -0.08  -0.01    -0.04  -0.03   0.09
    47   6    -0.03  -0.08   0.01    -0.03  -0.00   0.01     0.07   0.08  -0.03
    48   6     0.16   0.02  -0.08     0.05   0.08  -0.08    -0.02  -0.02   0.05
    49   6    -0.06   0.01   0.01     0.00  -0.05  -0.00     0.06   0.01  -0.04
    50   6    -0.06  -0.01   0.01    -0.00  -0.05   0.00     0.06  -0.01  -0.04
    51   6    -0.02  -0.09  -0.12     0.00  -0.08   0.01    -0.04   0.03   0.09
    52   6    -0.02  -0.02   0.08    -0.04   0.05   0.09     0.01  -0.11  -0.11
    53   6    -0.01   0.03   0.03    -0.07   0.02  -0.12     0.05   0.08   0.11
    54   6    -0.00   0.06  -0.01     0.10   0.03  -0.07    -0.07  -0.07  -0.02
    55   6    -0.02   0.05  -0.08     0.04  -0.10  -0.03     0.06   0.14  -0.01
    56   6     0.09   0.06  -0.05     0.10   0.00  -0.04     0.07   0.01  -0.07
    57   6     0.09  -0.06  -0.05    -0.10   0.00   0.04     0.07  -0.01  -0.07
    58   6    -0.01  -0.03   0.03     0.07   0.02   0.12     0.05  -0.08   0.11
    59   6    -0.02   0.02  -0.03     0.02   0.12  -0.09    -0.01   0.01  -0.04
    60   6    -0.02  -0.02  -0.03    -0.02   0.12   0.09    -0.01  -0.01  -0.04
    61   6    -0.03   0.04  -0.01     0.01  -0.02   0.01     0.00   0.00  -0.00
    62   6    -0.03  -0.04  -0.01    -0.01  -0.01  -0.01     0.00  -0.00  -0.00
    63   6     0.08   0.11   0.09    -0.01  -0.01  -0.01    -0.00   0.00   0.00
    64   1     0.14   0.07   0.12    -0.04  -0.00  -0.03     0.00   0.00   0.01
    65   1     0.14   0.11   0.16    -0.03  -0.01  -0.04     0.01   0.00   0.01
    66   1     0.05   0.01   0.04     0.02   0.04   0.01    -0.00  -0.01  -0.00
    67   6     0.08  -0.11   0.09     0.00  -0.01   0.01    -0.00  -0.00   0.00
    68   1     0.05  -0.01   0.04    -0.02   0.04  -0.01    -0.00   0.01  -0.00
    69   1     0.14  -0.11   0.16     0.03  -0.01   0.04     0.01  -0.00   0.01
    70   1     0.14  -0.07   0.12     0.03  -0.00   0.03     0.00  -0.00   0.01
    71   6    -0.10  -0.04  -0.11    -0.01   0.04  -0.02     0.00   0.01  -0.01
    72   1    -0.09  -0.13  -0.13     0.15  -0.22  -0.04     0.03  -0.01  -0.01
    73   1    -0.22  -0.04  -0.06    -0.20   0.06   0.19    -0.02   0.01   0.00
    74   6    -0.10   0.05  -0.11     0.01   0.04   0.02     0.00  -0.01  -0.01
    75   1    -0.21   0.04  -0.06     0.20   0.06  -0.19    -0.02  -0.01   0.00
    76   1    -0.09   0.13  -0.13    -0.14  -0.23   0.04     0.03   0.01  -0.01
                     85                     86                     87
                      A                      A                      A
 Frequencies --    755.4622               755.7559               756.5003
 Red. masses --     11.9405                11.8733                11.9376
 Frc consts  --      4.0151                 3.9956                 4.0252
 IR Inten    --      0.0000                 0.0000                 0.0000
  Atom  AN      X      Y      Z        X      Y      Z        X      Y      Z
     1   6     0.05  -0.09   0.13    -0.01   0.00  -0.04     0.01  -0.00   0.06
     2   6     0.02   0.05  -0.02    -0.01   0.02  -0.03     0.02  -0.05   0.14
     3   6    -0.02   0.00   0.01    -0.01   0.00   0.01     0.00   0.07  -0.09
     4   6     0.00   0.00   0.00    -0.00   0.00  -0.00     0.06   0.00   0.12
     5   6    -0.00   0.02  -0.00    -0.00  -0.01   0.00     0.09  -0.00   0.03
     6   6    -0.08   0.05  -0.13    -0.02  -0.02   0.02     0.00   0.04  -0.11
     7   6    -0.09   0.17  -0.05     0.09  -0.09   0.03    -0.09   0.10  -0.03
     8   6    -0.00  -0.16   0.01     0.02   0.15  -0.01     0.02  -0.21  -0.04
     9   6     0.04   0.04  -0.03    -0.02  -0.07   0.05     0.12   0.13  -0.10
    10   6    -0.03  -0.06   0.03     0.03   0.03  -0.02    -0.06  -0.17   0.08
    11   6    -0.04  -0.03   0.01    -0.01  -0.00   0.01    -0.11  -0.00   0.04
    12   6     0.02   0.00  -0.01     0.01   0.00  -0.01     0.00  -0.07  -0.09
    13   6    -0.02   0.05   0.03     0.01   0.02   0.03     0.02   0.05   0.14
    14   6    -0.05  -0.09  -0.13     0.01   0.00   0.04     0.01   0.00   0.06
    15   6     0.08   0.05   0.13     0.02  -0.02  -0.02     0.00  -0.04  -0.11
    16   6    -0.20  -0.08  -0.10     0.04   0.00  -0.01     0.03  -0.02  -0.04
    17   6     0.20  -0.08   0.10    -0.04   0.00   0.01     0.03   0.02  -0.04
    18   6    -0.21   0.10  -0.07     0.06   0.01   0.03    -0.11   0.04  -0.01
    19   6     0.11  -0.15   0.01    -0.10   0.14  -0.04     0.05  -0.05   0.07
    20   6    -0.03   0.12   0.00    -0.05  -0.18   0.00    -0.01   0.12  -0.05
    21   6    -0.01  -0.01  -0.05    -0.11   0.21   0.10     0.10  -0.09  -0.05
    22   6    -0.02  -0.01   0.03     0.12  -0.21  -0.10     0.05   0.06   0.07
    23   6    -0.07   0.05   0.11    -0.15   0.06   0.14     0.06   0.04   0.01
    24   6     0.23   0.01  -0.05     0.09  -0.01   0.03     0.01   0.01   0.04
    25   6    -0.23   0.01   0.05    -0.09  -0.01  -0.03     0.01  -0.01   0.04
    26   6     0.21   0.10   0.07    -0.05   0.01  -0.03    -0.11  -0.04  -0.01
    27   6    -0.11  -0.15  -0.01     0.10   0.14   0.04     0.05   0.05   0.07
    28   6     0.09   0.17   0.05    -0.09  -0.09  -0.03    -0.09  -0.10  -0.03
    29   6     0.04  -0.03  -0.01     0.01  -0.00  -0.01    -0.11   0.00   0.04
    30   6     0.08  -0.10   0.02    -0.01   0.02  -0.05    -0.11   0.03  -0.02
    31   6    -0.05   0.09  -0.03     0.04  -0.01   0.00     0.04  -0.12   0.06
    32   6     0.04   0.00   0.01    -0.02   0.03   0.01    -0.04  -0.05   0.01
    33   6    -0.05  -0.00  -0.02    -0.01   0.02   0.01    -0.01  -0.02  -0.00
    34   6     0.02  -0.05   0.04     0.01  -0.04   0.03     0.07  -0.06   0.09
    35   6    -0.01  -0.03   0.09    -0.01  -0.12   0.21    -0.01  -0.04   0.11
    36   6     0.01  -0.01   0.05     0.11   0.21  -0.10     0.10   0.09  -0.05
    37   6     0.03   0.12  -0.00     0.05  -0.18  -0.00    -0.01  -0.12  -0.05
    38   6     0.00  -0.16  -0.01    -0.02   0.15   0.01     0.02   0.21  -0.04
    39   6    -0.04   0.04   0.03     0.02  -0.07  -0.05     0.12  -0.13  -0.10
    40   6     0.03  -0.06  -0.03    -0.03   0.03   0.02    -0.06   0.17   0.08
    41   6    -0.04   0.00  -0.01     0.02   0.03  -0.01    -0.04   0.05   0.01
    42   6     0.05  -0.00   0.02     0.01   0.02  -0.01    -0.01   0.02  -0.00
    43   6    -0.02  -0.05  -0.04    -0.01  -0.04  -0.03     0.07   0.06   0.09
    44   6     0.00  -0.04   0.00     0.00  -0.04   0.00    -0.08  -0.00  -0.20
    45   6    -0.00   0.05  -0.00     0.00   0.05  -0.00     0.01   0.00   0.23
    46   6     0.01   0.06  -0.09    -0.01   0.09  -0.16     0.02   0.11  -0.17
    47   6     0.02  -0.01  -0.03    -0.12  -0.21   0.10     0.05  -0.06   0.07
    48   6     0.07   0.05  -0.11     0.15   0.06  -0.14     0.06  -0.04   0.01
    49   6    -0.11  -0.08   0.11    -0.17  -0.06   0.17    -0.04   0.01   0.01
    50   6     0.11  -0.08  -0.11     0.17  -0.06  -0.17    -0.04  -0.01   0.01
    51   6    -0.01   0.06   0.09     0.01   0.09   0.16     0.02  -0.11  -0.17
    52   6     0.01  -0.03  -0.09     0.01  -0.12  -0.21    -0.01   0.04   0.11
    53   6     0.06   0.06   0.10     0.06   0.05   0.07    -0.08  -0.05  -0.02
    54   6    -0.08  -0.10  -0.02     0.01   0.02   0.05    -0.11  -0.03  -0.02
    55   6     0.05   0.09   0.03    -0.04  -0.01  -0.00     0.04   0.12   0.06
    56   6    -0.02   0.01   0.06    -0.00  -0.01   0.00     0.08  -0.03  -0.11
    57   6     0.02   0.01  -0.06     0.00  -0.01  -0.00     0.08   0.03  -0.11
    58   6    -0.06   0.06  -0.10    -0.06   0.05  -0.07    -0.08   0.05  -0.02
    59   6     0.02   0.00   0.03    -0.00  -0.02   0.01    -0.02  -0.01  -0.05
    60   6    -0.02   0.00  -0.03     0.00  -0.02  -0.01    -0.02   0.01  -0.05
    61   6     0.02  -0.00  -0.01     0.00   0.00  -0.00     0.01  -0.01  -0.00
    62   6    -0.02  -0.00   0.01    -0.00   0.00   0.00     0.01   0.01  -0.00
    63   6     0.01   0.01   0.01     0.00   0.00   0.00    -0.01  -0.01  -0.01
    64   1     0.01   0.02   0.02     0.01   0.01   0.01    -0.01  -0.01  -0.00
    65   1    -0.01  -0.01  -0.00     0.00   0.00   0.01    -0.02  -0.02  -0.02
    66   1     0.00   0.01   0.02     0.00   0.00   0.01    -0.01  -0.00  -0.00
    67   6    -0.01   0.01  -0.01    -0.00   0.00  -0.00    -0.01   0.01  -0.01
    68   1    -0.00   0.01  -0.02    -0.00   0.00  -0.01    -0.01   0.00  -0.00
    69   1     0.01  -0.01   0.00    -0.00   0.00  -0.01    -0.02   0.02  -0.02
    70   1    -0.01   0.02  -0.02    -0.01   0.01  -0.01    -0.01   0.01  -0.00
    71   6     0.01  -0.01  -0.01     0.01  -0.01  -0.00    -0.01   0.02   0.01
    72   1     0.02   0.00  -0.00    -0.01   0.04   0.01     0.02  -0.01   0.01
    73   1     0.02  -0.01  -0.01     0.04  -0.01  -0.04    -0.01   0.02   0.02
    74   6    -0.01  -0.01   0.01    -0.01  -0.01   0.00    -0.01  -0.02   0.01
    75   1    -0.02  -0.01   0.01    -0.04  -0.01   0.04    -0.01  -0.02   0.02
    76   1    -0.02   0.00   0.00     0.01   0.04  -0.01     0.02   0.01   0.01
                     88                     89                     90
                      A                      A                      A
 Frequencies --    758.3191               758.7272               760.0123
 Red. masses --     11.3266                10.6683                11.8267
 Frc consts  --      3.8375                 3.6184                 4.0249
 IR Inten    --      0.0000                 0.0000                 0.0000
  Atom  AN      X      Y      Z        X      Y      Z        X      Y      Z
     1   6     0.07  -0.07   0.12     0.10  -0.16   0.15     0.03  -0.02   0.03
     2   6     0.05   0.04  -0.09     0.02   0.11  -0.20     0.03   0.00  -0.01
     3   6    -0.01  -0.07   0.08    -0.00  -0.06   0.16     0.00  -0.04   0.07
     4   6    -0.03  -0.00  -0.16     0.00  -0.04   0.00     0.01   0.00  -0.19
     5   6     0.04  -0.00   0.20    -0.00  -0.00  -0.00     0.10  -0.00   0.25
     6   6    -0.11   0.10  -0.13    -0.04   0.03  -0.08    -0.12   0.10  -0.15
     7   6    -0.10   0.14  -0.01    -0.07   0.13  -0.04     0.05  -0.05   0.04
     8   6    -0.00  -0.09  -0.02    -0.03   0.01  -0.01     0.02   0.06  -0.00
     9   6     0.05   0.00  -0.06    -0.06  -0.15   0.03     0.02   0.03  -0.03
    10   6    -0.01  -0.05   0.04     0.06   0.12  -0.04    -0.07  -0.11   0.01
    11   6     0.04  -0.02  -0.00     0.14   0.12  -0.10    -0.01  -0.02   0.03
    12   6    -0.01   0.06   0.08     0.00  -0.06  -0.16     0.00   0.04   0.07
    13   6     0.05  -0.04  -0.09    -0.02   0.11   0.20     0.03  -0.00  -0.01
    14   6     0.07   0.06   0.12    -0.10  -0.16  -0.15     0.03   0.02   0.03
    15   6    -0.11  -0.10  -0.13     0.04   0.04   0.08    -0.12  -0.10  -0.15
    16   6     0.08   0.01   0.02    -0.03   0.06  -0.02     0.04  -0.01   0.01
    17   6     0.08  -0.01   0.02     0.03   0.06   0.02     0.04   0.01   0.01
    18   6    -0.09  -0.02   0.01     0.04  -0.04   0.06     0.04  -0.00   0.02
    19   6     0.01  -0.11   0.04     0.04  -0.03   0.02    -0.15   0.15  -0.03
    20   6    -0.02   0.12  -0.01     0.02   0.00   0.00    -0.02  -0.14  -0.00
    21   6    -0.01   0.02  -0.02     0.01   0.06   0.03    -0.08   0.19   0.12
    22   6    -0.03  -0.02   0.05    -0.02   0.07   0.01     0.16  -0.25  -0.11
    23   6    -0.00  -0.03   0.00     0.04  -0.05  -0.11    -0.14   0.05   0.11
    24   6     0.07  -0.02   0.00    -0.20  -0.05   0.03     0.06  -0.01   0.04
    25   6     0.07   0.02   0.00     0.20  -0.05  -0.03     0.06   0.01   0.04
    26   6    -0.09   0.02   0.01    -0.04  -0.04  -0.06     0.04   0.00   0.02
    27   6     0.01   0.11   0.04    -0.04  -0.03  -0.02    -0.15  -0.15  -0.03
    28   6    -0.10  -0.14  -0.01     0.07   0.13   0.04     0.05   0.05   0.04
    29   6     0.04   0.02  -0.00    -0.14   0.12   0.10    -0.01   0.02   0.03
    30   6    -0.08   0.12  -0.01    -0.01  -0.03  -0.03     0.02  -0.03   0.02
    31   6     0.08  -0.13   0.03     0.07  -0.06   0.02     0.03  -0.05  -0.01
    32   6    -0.11   0.05  -0.07    -0.03   0.01   0.05     0.00  -0.02  -0.01
    33   6     0.11   0.01  -0.01     0.02   0.07   0.03    -0.02  -0.02  -0.00
    34   6    -0.07   0.10  -0.12     0.03  -0.02   0.03     0.07  -0.06   0.11
    35   6     0.03   0.07  -0.09    -0.02  -0.10   0.08    -0.02   0.05  -0.08
    36   6    -0.01  -0.02  -0.02    -0.01   0.06  -0.03    -0.08  -0.19   0.12
    37   6    -0.02  -0.12  -0.01    -0.02   0.00  -0.00    -0.02   0.14  -0.00
    38   6    -0.00   0.09  -0.02     0.03   0.01   0.01     0.02  -0.06  -0.00
    39   6     0.05  -0.00  -0.06     0.06  -0.14  -0.03     0.02  -0.03  -0.03
    40   6    -0.01   0.05   0.04    -0.06   0.12   0.04    -0.07   0.11   0.01
    41   6    -0.11  -0.05  -0.07     0.03   0.01  -0.05     0.00   0.02  -0.01
    42   6     0.11  -0.01  -0.01    -0.02   0.07  -0.03    -0.02   0.02  -0.00
    43   6    -0.07  -0.10  -0.12    -0.03  -0.02  -0.02     0.07   0.06   0.11
    44   6     0.04  -0.00   0.24    -0.00  -0.02  -0.00    -0.10  -0.00  -0.18
    45   6    -0.08  -0.00  -0.18     0.00  -0.01   0.00    -0.02   0.00   0.12
    46   6    -0.08  -0.07   0.10     0.02   0.02  -0.06     0.01   0.02  -0.02
    47   6    -0.03   0.02   0.05     0.02   0.06  -0.01     0.16   0.25  -0.11
    48   6    -0.00   0.03   0.00    -0.04  -0.05   0.11    -0.14  -0.05   0.11
    49   6     0.04   0.02  -0.07     0.01   0.05   0.02     0.05   0.02  -0.05
    50   6     0.03  -0.02  -0.07    -0.01   0.05  -0.02     0.05  -0.02  -0.05
    51   6    -0.08   0.07   0.10    -0.02   0.02   0.06     0.01  -0.02  -0.02
    52   6     0.03  -0.07  -0.09     0.02  -0.10  -0.08    -0.02  -0.05  -0.08
    53   6     0.09   0.08   0.15     0.04   0.03   0.07    -0.02  -0.02  -0.02
    54   6    -0.08  -0.12  -0.01     0.01  -0.03   0.03     0.02   0.03   0.02
    55   6     0.07   0.13   0.03    -0.07  -0.06  -0.02     0.03   0.05  -0.01
    56   6     0.01   0.04   0.03     0.06  -0.06  -0.15     0.06  -0.02  -0.06
    57   6     0.01  -0.04   0.03    -0.06  -0.06   0.15     0.06   0.02  -0.06
    58   6     0.09  -0.08   0.15    -0.04   0.03  -0.07    -0.02   0.02  -0.02
    59   6     0.00   0.03  -0.03    -0.04  -0.07   0.01    -0.02   0.00  -0.03
    60   6     0.00  -0.03  -0.03     0.04  -0.07  -0.01    -0.02  -0.00  -0.03
    61   6     0.01  -0.02   0.00    -0.03   0.00   0.02     0.00   0.00  -0.01
    62   6     0.01   0.02   0.00     0.03   0.00  -0.02     0.00  -0.00  -0.01
    63   6    -0.03  -0.04  -0.04    -0.01  -0.00  -0.00     0.01   0.01   0.01
    64   1    -0.06  -0.03  -0.05    -0.01  -0.04  -0.05     0.03   0.01   0.03
    65   1    -0.05  -0.04  -0.06     0.04   0.03   0.02     0.01   0.01   0.02
    66   1    -0.03  -0.01  -0.02     0.01  -0.01  -0.03     0.00  -0.00   0.01
    67   6    -0.03   0.04  -0.04     0.01  -0.00   0.00     0.01  -0.01   0.01
    68   1    -0.03   0.01  -0.02    -0.01  -0.01   0.03     0.00   0.00   0.01
    69   1    -0.05   0.04  -0.06    -0.04   0.03  -0.02     0.01  -0.01   0.02
    70   1    -0.06   0.03  -0.05     0.01  -0.04   0.05     0.03  -0.01   0.03
    71   6     0.05   0.04   0.03    -0.04   0.02   0.04    -0.04   0.02  -0.01
    72   1     0.08   0.03   0.04    -0.15   0.14   0.04    -0.02  -0.03  -0.01
    73   1     0.04   0.04   0.05     0.03   0.01  -0.09    -0.06   0.02   0.02
    74   6     0.05  -0.04   0.03     0.04   0.02  -0.04    -0.04  -0.02  -0.01
    75   1     0.04  -0.04   0.05    -0.03   0.01   0.09    -0.06  -0.02   0.02
    76   1     0.08  -0.03   0.04     0.15   0.14  -0.04    -0.02   0.03  -0.01
                     91                     92                     93
                      A                      A                      A
 Frequencies --    760.9811               761.4426               763.5986
 Red. masses --     11.2005                 9.2701                 9.2689
 Frc consts  --      3.8215                 3.1667                 3.1842
 IR Inten    --      0.0000                 0.0000                 0.0000
  Atom  AN      X      Y      Z        X      Y      Z        X      Y      Z
     1   6     0.01   0.05  -0.02    -0.01   0.04  -0.07     0.02  -0.01   0.04
     2   6     0.04  -0.01   0.03    -0.00   0.02  -0.05     0.01   0.10  -0.05
     3   6     0.01  -0.04   0.03    -0.03  -0.06   0.12    -0.06   0.00   0.02
     4   6    -0.00  -0.05   0.00    -0.01  -0.00  -0.14    -0.00   0.01  -0.00
     5   6    -0.00  -0.02   0.00     0.01  -0.00  -0.00    -0.00   0.02  -0.00
     6   6     0.09  -0.03   0.10     0.04  -0.02   0.05    -0.03   0.02  -0.03
     7   6    -0.08   0.05  -0.01     0.07  -0.13   0.05     0.03  -0.02   0.03
     8   6    -0.02  -0.20   0.06     0.01   0.06  -0.01     0.01   0.04   0.01
     9   6     0.02   0.12  -0.05    -0.02  -0.05   0.02     0.01  -0.05   0.07
    10   6    -0.03  -0.01   0.01    -0.02   0.00   0.03    -0.00  -0.06   0.01
    11   6     0.08   0.01  -0.12     0.05   0.00  -0.05    -0.06  -0.09  -0.04
    12   6    -0.01  -0.04  -0.03    -0.03   0.06   0.12     0.06   0.00  -0.02
    13   6    -0.04  -0.01  -0.03    -0.00  -0.02  -0.05    -0.01   0.10   0.05
    14   6    -0.01   0.05   0.02    -0.01  -0.04  -0.07    -0.02  -0.01  -0.04
    15   6    -0.09  -0.03  -0.10     0.04   0.02   0.05     0.03   0.02   0.03
    16   6     0.24   0.05   0.16    -0.07  -0.01  -0.04     0.03  -0.06   0.04
    17   6    -0.24   0.05  -0.16    -0.07   0.01  -0.04    -0.03  -0.06  -0.04
    18   6     0.15  -0.11   0.01     0.14  -0.05   0.03     0.10  -0.04  -0.03
    19   6    -0.06   0.01   0.00    -0.10   0.14  -0.00    -0.04   0.03  -0.02
    20   6     0.05   0.21   0.03    -0.00   0.08   0.01    -0.04  -0.02  -0.01
    21   6     0.06  -0.05  -0.05     0.03  -0.06  -0.04    -0.05   0.03  -0.01
    22   6     0.02   0.01   0.00     0.01  -0.00  -0.02    -0.03  -0.01  -0.00
    23   6    -0.06   0.06   0.06     0.05  -0.03  -0.03     0.14  -0.07  -0.01
    24   6    -0.06   0.03   0.04    -0.08   0.01   0.03    -0.15   0.12   0.05
    25   6     0.06   0.03  -0.04    -0.08  -0.01   0.03     0.15   0.12  -0.05
    26   6    -0.15  -0.11  -0.01     0.14   0.05   0.03    -0.10  -0.04   0.03
    27   6     0.06   0.01  -0.00    -0.10  -0.14  -0.00     0.04   0.03   0.02
    28   6     0.08   0.05   0.01     0.07   0.13   0.05    -0.03  -0.02  -0.03
    29   6    -0.08   0.01   0.12     0.05  -0.00  -0.05     0.06  -0.09   0.04
    30   6     0.04  -0.16   0.08    -0.08   0.13  -0.03     0.06  -0.09   0.06
    31   6    -0.06  -0.00   0.01     0.09  -0.14   0.02    -0.12   0.10  -0.03
    32   6    -0.04   0.01  -0.05    -0.15   0.07  -0.05     0.15  -0.08  -0.04
    33   6     0.10  -0.05   0.02     0.07  -0.01   0.03    -0.17  -0.04  -0.14
    34   6     0.03   0.04  -0.00    -0.03   0.02  -0.04     0.07  -0.05   0.09
    35   6     0.00  -0.04   0.02     0.00  -0.05   0.07    -0.00  -0.01   0.08
    36   6    -0.06  -0.05   0.05     0.03   0.06  -0.04     0.05   0.03   0.01
    37   6    -0.05   0.21  -0.03    -0.00  -0.08   0.01     0.04  -0.02   0.01
    38   6     0.02  -0.20  -0.06     0.01  -0.06  -0.01    -0.01   0.04  -0.01
    39   6    -0.02   0.12   0.05    -0.02   0.05   0.02    -0.01  -0.05  -0.07
    40   6     0.03  -0.01  -0.01    -0.02  -0.00   0.03     0.00  -0.06  -0.01
    41   6     0.04   0.01   0.05    -0.15  -0.07  -0.05    -0.15  -0.08   0.04
    42   6    -0.10  -0.05  -0.02     0.07   0.01   0.03     0.17  -0.04   0.14
    43   6    -0.03   0.04   0.00    -0.03  -0.02  -0.04    -0.07  -0.05  -0.09
    44   6     0.00   0.06   0.00    -0.03   0.00  -0.04    -0.00  -0.01  -0.00
    45   6    -0.00   0.01  -0.00     0.02  -0.00   0.21     0.00   0.02   0.00
    46   6     0.03   0.02  -0.14     0.05   0.08  -0.17    -0.01   0.01   0.01
    47   6    -0.02   0.01  -0.00     0.01   0.00  -0.02     0.03  -0.01   0.00
    48   6     0.06   0.06  -0.06     0.05   0.03  -0.03    -0.14  -0.07   0.01
    49   6    -0.12  -0.08   0.16    -0.05  -0.00   0.06     0.05  -0.04  -0.14
    50   6     0.12  -0.08  -0.16    -0.05   0.00   0.06    -0.05  -0.04   0.14
    51   6    -0.03   0.02   0.14     0.05  -0.08  -0.17     0.01   0.01  -0.01
    52   6    -0.00  -0.04  -0.02     0.00   0.05   0.07     0.00  -0.01  -0.08
    53   6     0.01   0.07   0.05     0.00   0.02   0.06     0.07   0.14   0.09
    54   6    -0.04  -0.16  -0.08    -0.08  -0.13  -0.03    -0.06  -0.09  -0.06
    55   6     0.06  -0.00  -0.01     0.09   0.14   0.02     0.12   0.10   0.03
    56   6     0.07  -0.01  -0.02    -0.05   0.04   0.04     0.02   0.01   0.12
    57   6    -0.07  -0.01   0.02    -0.05  -0.04   0.04    -0.02   0.01  -0.12
    58   6    -0.01   0.07  -0.05     0.00  -0.02   0.06    -0.07   0.14  -0.09
    59   6     0.02   0.06  -0.05     0.01   0.01  -0.02     0.06   0.11  -0.01
    60   6    -0.02   0.06   0.05     0.01  -0.01  -0.02    -0.06   0.11   0.01
    61   6     0.01  -0.01   0.00     0.02  -0.03   0.01     0.03  -0.02  -0.01
    62   6    -0.01  -0.01  -0.00     0.02   0.03   0.01    -0.03  -0.02   0.01
    63   6     0.01  -0.00   0.00    -0.06  -0.08  -0.07     0.01  -0.00   0.00
    64   1    -0.01   0.02   0.00    -0.11  -0.06  -0.11    -0.02   0.03   0.01
    65   1    -0.03  -0.01  -0.02    -0.10  -0.07  -0.11    -0.05  -0.02  -0.04
    66   1     0.01   0.03   0.02    -0.04  -0.01  -0.04     0.02   0.07   0.05
    67   6    -0.01  -0.00  -0.00    -0.06   0.08  -0.07    -0.01  -0.00  -0.00
    68   1    -0.01   0.03  -0.02    -0.04   0.01  -0.04    -0.02   0.07  -0.05
    69   1     0.03  -0.01   0.02    -0.10   0.07  -0.11     0.05  -0.02   0.04
    70   1     0.01   0.01  -0.00    -0.11   0.06  -0.11     0.02   0.03  -0.01
    71   6     0.02   0.00  -0.02     0.12   0.03   0.06    -0.00   0.02  -0.02
    72   1     0.10  -0.11  -0.03     0.15   0.08   0.08     0.14  -0.19  -0.03
    73   1    -0.07   0.01   0.07     0.17   0.03   0.05    -0.16   0.04   0.16
    74   6    -0.02   0.00   0.02     0.12  -0.03   0.06     0.00   0.02   0.02
    75   1     0.07   0.01  -0.07     0.17  -0.03   0.05     0.16   0.04  -0.16
    76   1    -0.10  -0.11   0.03     0.14  -0.08   0.08    -0.14  -0.19   0.03
                     94                     95                     96
                      A                      A                      A
 Frequencies --    771.4156               773.1174               774.8171
 Red. masses --     11.4107                11.9569                10.9288
 Frc consts  --      4.0007                 4.2108                 3.8657
 IR Inten    --      0.0000                 0.0000                 0.0000
  Atom  AN      X      Y      Z        X      Y      Z        X      Y      Z
     1   6    -0.05  -0.16   0.03     0.01  -0.06  -0.03     0.03   0.02  -0.04
     2   6    -0.12   0.09   0.01    -0.04  -0.06  -0.02     0.02  -0.10   0.04
     3   6    -0.08   0.07   0.12     0.08  -0.02  -0.01     0.07   0.01  -0.02
     4   6     0.17  -0.00  -0.05     0.04   0.00  -0.05    -0.00   0.01   0.00
     5   6     0.25   0.00   0.05    -0.03  -0.00  -0.00    -0.00  -0.00  -0.00
     6   6     0.00  -0.12  -0.11    -0.09  -0.02   0.00     0.06   0.01  -0.03
     7   6     0.04  -0.02  -0.07     0.11   0.11  -0.06     0.01   0.01  -0.00
     8   6     0.01  -0.02   0.01     0.05  -0.08   0.22     0.06   0.01  -0.06
     9   6    -0.04  -0.01   0.05    -0.12   0.14  -0.04     0.01  -0.01  -0.08
    10   6     0.04   0.03  -0.04    -0.20  -0.06  -0.07    -0.12  -0.11   0.08
    11   6    -0.09   0.04  -0.09     0.05  -0.02   0.09     0.00   0.13   0.16
    12   6    -0.08  -0.07   0.12     0.08   0.02  -0.01    -0.07   0.01   0.02
    13   6    -0.12  -0.09   0.01    -0.04   0.06  -0.02    -0.02  -0.10  -0.04
    14   6    -0.05   0.16   0.03     0.01   0.06  -0.03    -0.03   0.02   0.04
    15   6     0.00   0.12  -0.11    -0.09   0.02   0.00    -0.06   0.01   0.03
    16   6    -0.00   0.00  -0.01    -0.00   0.02   0.10    -0.04   0.01   0.02
    17   6    -0.00  -0.00  -0.01    -0.00  -0.02   0.10     0.04   0.01  -0.02
    18   6    -0.02   0.13  -0.03     0.02   0.05   0.00    -0.06  -0.05  -0.02
    19   6     0.12   0.08  -0.03     0.10  -0.01  -0.15    -0.06   0.05   0.00
    20   6     0.01  -0.02   0.01     0.04   0.07   0.22     0.13   0.02  -0.05
    21   6     0.06  -0.03   0.05    -0.13  -0.10  -0.01     0.07   0.12   0.09
    22   6     0.11   0.08  -0.03    -0.16   0.00  -0.09     0.03   0.05   0.02
    23   6    -0.01   0.12   0.04    -0.02  -0.05   0.01    -0.14   0.01  -0.05
    24   6    -0.08   0.06   0.02     0.01  -0.00   0.01    -0.06  -0.17  -0.06
    25   6    -0.08  -0.06   0.02     0.01   0.00   0.01     0.06  -0.17   0.06
    26   6    -0.02  -0.13  -0.03     0.02  -0.05   0.00     0.06  -0.05   0.02
    27   6     0.12  -0.08  -0.03     0.10   0.01  -0.15     0.06   0.05  -0.00
    28   6     0.04   0.02  -0.07     0.11  -0.11  -0.06    -0.01   0.01   0.00
    29   6    -0.09  -0.04  -0.09     0.05   0.02   0.09    -0.00   0.13  -0.16
    30   6    -0.04  -0.00  -0.03     0.10   0.12  -0.08    -0.05  -0.09   0.08
    31   6     0.04  -0.00   0.00     0.14  -0.04  -0.15    -0.08   0.04   0.05
    32   6     0.01   0.01   0.09     0.03   0.04   0.01     0.19  -0.12   0.11
    33   6    -0.06  -0.04   0.12    -0.03  -0.02   0.09    -0.10   0.14  -0.05
    34   6    -0.12  -0.08  -0.06    -0.06  -0.04   0.04     0.07   0.04   0.08
    35   6    -0.06   0.15  -0.01    -0.03  -0.06  -0.02    -0.04  -0.08  -0.05
    36   6     0.06   0.03   0.05    -0.13   0.10  -0.01    -0.07   0.12  -0.09
    37   6     0.01   0.02   0.01     0.04  -0.07   0.22    -0.13   0.02   0.05
    38   6     0.01   0.02   0.01     0.05   0.08   0.22    -0.06   0.01   0.06
    39   6    -0.04   0.01   0.05    -0.12  -0.14  -0.04    -0.01  -0.01   0.08
    40   6     0.04  -0.03  -0.04    -0.20   0.06  -0.07     0.12  -0.11  -0.08
    41   6     0.01  -0.01   0.09     0.03  -0.04   0.01    -0.19  -0.12  -0.11
    42   6    -0.06   0.04   0.12    -0.03   0.02   0.09     0.10   0.14   0.05
    43   6    -0.12   0.08  -0.06    -0.06   0.04   0.04    -0.07   0.04  -0.08
    44   6     0.16   0.00  -0.03    -0.06   0.00  -0.05    -0.00   0.02  -0.00
    45   6     0.20  -0.00  -0.16     0.02   0.00   0.00    -0.00  -0.15  -0.00
    46   6     0.06   0.11   0.10     0.08  -0.02  -0.04     0.01  -0.08  -0.09
    47   6     0.11  -0.08  -0.03    -0.16  -0.00  -0.09    -0.03   0.05  -0.02
    48   6    -0.01  -0.12   0.04    -0.02   0.05   0.01     0.14   0.01   0.05
    49   6     0.01  -0.00   0.02     0.04  -0.02   0.09     0.04   0.04   0.04
    50   6     0.01   0.00   0.02     0.04   0.02   0.09    -0.04   0.04  -0.04
    51   6     0.06  -0.11   0.10     0.08   0.02  -0.04    -0.01  -0.08   0.09
    52   6    -0.06  -0.15  -0.01    -0.03   0.06  -0.02     0.04  -0.08   0.05
    53   6    -0.12   0.09   0.02     0.02   0.05  -0.05     0.03   0.04  -0.01
    54   6    -0.04   0.00  -0.03     0.10  -0.12  -0.08     0.05  -0.09  -0.08
    55   6     0.04   0.00   0.00     0.14   0.04  -0.15     0.08   0.04  -0.05
    56   6    -0.05   0.02  -0.06     0.00  -0.06   0.00    -0.07   0.08  -0.12
    57   6    -0.05  -0.02  -0.06     0.00   0.06   0.00     0.07   0.08   0.12
    58   6    -0.12  -0.09   0.02     0.02  -0.05  -0.05    -0.03   0.04   0.01
    59   6     0.01   0.01  -0.01    -0.00  -0.00  -0.00    -0.02   0.02  -0.04
    60   6     0.01  -0.01  -0.01    -0.00   0.00  -0.00     0.02   0.02   0.04
    61   6     0.01  -0.01   0.01    -0.00   0.00  -0.00    -0.02   0.02  -0.00
    62   6     0.01   0.01   0.01    -0.00  -0.00  -0.00     0.02   0.02   0.00
    63   6    -0.03  -0.03  -0.03     0.01   0.01   0.01    -0.03  -0.02  -0.02
    64   1    -0.05  -0.03  -0.05     0.02   0.01   0.02    -0.01  -0.03  -0.02
    65   1    -0.04  -0.03  -0.05     0.01   0.01   0.02     0.01  -0.01   0.00
    66   1    -0.01  -0.00  -0.02     0.00   0.00   0.01    -0.04  -0.06  -0.05
    67   6    -0.03   0.03  -0.03     0.01  -0.01   0.01     0.03  -0.02   0.02
    68   1    -0.01   0.00  -0.02     0.00  -0.00   0.01     0.04  -0.06   0.05
    69   1    -0.04   0.03  -0.05     0.01  -0.01   0.02    -0.01  -0.01  -0.00
    70   1    -0.05   0.03  -0.05     0.02  -0.01   0.02     0.01  -0.03   0.02
    71   6     0.06   0.01   0.01    -0.02  -0.00  -0.00    -0.05   0.04   0.01
    72   1     0.10  -0.01   0.02    -0.02  -0.01  -0.01     0.02  -0.10  -0.00
    73   1     0.07   0.01   0.03    -0.02  -0.00  -0.01    -0.12   0.05   0.11
    74   6     0.06  -0.01   0.01    -0.02   0.00  -0.00     0.05   0.04  -0.01
    75   1     0.07  -0.01   0.03    -0.02   0.00  -0.01     0.12   0.05  -0.11
    76   1     0.10   0.01   0.02    -0.02   0.01  -0.01    -0.02  -0.10   0.00
                     97                     98                     99
                      A                      A                      A
 Frequencies --    785.3253               794.1780               800.5500
 Red. masses --      8.2249                10.4360                 6.7639
 Frc consts  --      2.9887                 3.8781                 2.5540
 IR Inten    --      0.0000                 0.0000                 0.0000
  Atom  AN      X      Y      Z        X      Y      Z        X      Y      Z
     1   6     0.03  -0.03  -0.09     0.05  -0.08  -0.10    -0.05  -0.05   0.02
     2   6     0.07   0.05   0.02     0.00  -0.16  -0.07    -0.07  -0.00  -0.03
     3   6    -0.03   0.02   0.01    -0.05  -0.15   0.03    -0.06   0.00  -0.04
     4   6    -0.00  -0.01   0.00    -0.03  -0.00   0.13    -0.08   0.00   0.01
     5   6     0.00  -0.14  -0.00     0.05  -0.00   0.08    -0.04   0.00   0.08
     6   6    -0.06  -0.07  -0.09     0.10  -0.07  -0.01    -0.01  -0.05   0.05
     7   6     0.06   0.12  -0.09    -0.06   0.01  -0.10    -0.05  -0.04  -0.03
     8   6     0.14   0.03   0.05    -0.01   0.09  -0.05    -0.02   0.04  -0.03
     9   6     0.08  -0.03   0.09     0.01  -0.03  -0.15     0.02   0.04  -0.05
    10   6     0.02  -0.05   0.03     0.04   0.03  -0.10     0.00  -0.04   0.05
    11   6    -0.04   0.04  -0.00    -0.08  -0.06  -0.01     0.01   0.03  -0.02
    12   6     0.03   0.02  -0.01    -0.05   0.15   0.03    -0.06  -0.00  -0.04
    13   6    -0.07   0.05  -0.02     0.00   0.16  -0.07    -0.07   0.00  -0.03
    14   6    -0.03  -0.03   0.09     0.05   0.08  -0.10    -0.05   0.05   0.02
    15   6     0.06  -0.07   0.09     0.10   0.07  -0.01    -0.01   0.05   0.05
    16   6     0.06  -0.04  -0.03     0.05   0.01  -0.07     0.08   0.05  -0.00
    17   6    -0.06  -0.04   0.03     0.05  -0.01  -0.07     0.08  -0.05  -0.00
    18   6    -0.10  -0.02   0.07    -0.04  -0.05  -0.04     0.02  -0.07  -0.05
    19   6    -0.02   0.06  -0.07    -0.09   0.01  -0.03    -0.06  -0.04  -0.06
    20   6     0.09  -0.02   0.07     0.00   0.09   0.07     0.02   0.03   0.00
    21   6    -0.01  -0.01  -0.01    -0.03  -0.02   0.13     0.01   0.03   0.05
    22   6    -0.07   0.04   0.02    -0.07  -0.01   0.09    -0.01   0.03  -0.03
    23   6     0.02  -0.06   0.12     0.02  -0.07   0.08    -0.05   0.03  -0.02
    24   6    -0.02  -0.08   0.11    -0.00  -0.02   0.03    -0.01  -0.01  -0.07
    25   6     0.02  -0.08  -0.11    -0.01   0.02   0.03    -0.01   0.01  -0.07
    26   6     0.10  -0.02  -0.07    -0.04   0.05  -0.04     0.02   0.07  -0.05
    27   6     0.02   0.06   0.07    -0.09  -0.01  -0.03    -0.06   0.04  -0.06
    28   6    -0.06   0.12   0.09    -0.06  -0.01  -0.10    -0.05   0.04  -0.03
    29   6     0.04   0.04   0.00    -0.08   0.06  -0.01     0.01  -0.03  -0.02
    30   6    -0.04  -0.08  -0.03     0.07  -0.01   0.13     0.02   0.04   0.02
    31   6     0.07  -0.07   0.02     0.02   0.02   0.02     0.10  -0.04   0.07
    32   6     0.02   0.09   0.05     0.10  -0.01   0.06    -0.13   0.10   0.04
    33   6     0.04   0.08   0.09    -0.06   0.03   0.05    -0.05   0.06   0.02
    34   6    -0.05   0.02   0.06    -0.07   0.12   0.06    -0.00   0.05  -0.07
    35   6    -0.05   0.05   0.00     0.06   0.10   0.05     0.06   0.03   0.05
    36   6     0.01  -0.01   0.01    -0.03   0.02   0.13     0.01  -0.03   0.05
    37   6    -0.09  -0.02  -0.07     0.00  -0.09   0.07     0.02  -0.03   0.00
    38   6    -0.14   0.03  -0.05    -0.01  -0.09  -0.05    -0.02  -0.04  -0.03
    39   6    -0.08  -0.03  -0.09     0.01   0.03  -0.15     0.02  -0.04  -0.05
    40   6    -0.02  -0.05  -0.03     0.04  -0.03  -0.10     0.00   0.04   0.05
    41   6    -0.02   0.09  -0.05     0.10   0.01   0.06    -0.13  -0.10   0.04
    42   6    -0.04   0.08  -0.09    -0.06  -0.03   0.05    -0.05  -0.06   0.02
    43   6     0.05   0.02  -0.06    -0.07  -0.12   0.06    -0.00  -0.05  -0.07
    44   6    -0.00   0.07  -0.00    -0.14   0.00  -0.08     0.07  -0.00  -0.08
    45   6    -0.00   0.06   0.00    -0.05   0.00  -0.12     0.10  -0.00   0.00
    46   6    -0.07   0.02   0.03     0.07   0.08  -0.06     0.05   0.04   0.03
    47   6     0.07   0.04  -0.02    -0.07   0.01   0.09    -0.01  -0.03  -0.03
    48   6    -0.02  -0.06  -0.12     0.02   0.07   0.08    -0.05  -0.03  -0.02
    49   6    -0.05  -0.07  -0.07     0.11   0.04   0.03    -0.04  -0.02   0.03
    50   6     0.05  -0.07   0.07     0.11  -0.04   0.03    -0.04   0.02   0.03
    51   6     0.07   0.02  -0.03     0.07  -0.08  -0.06     0.06  -0.04   0.03
    52   6     0.05   0.05  -0.00     0.06  -0.10   0.05     0.06  -0.03   0.05
    53   6     0.03  -0.06  -0.06     0.00  -0.14   0.07     0.04  -0.04   0.00
    54   6     0.04  -0.08   0.03     0.07   0.01   0.13     0.02  -0.04   0.02
    55   6    -0.07  -0.07  -0.02     0.02  -0.02   0.02     0.10   0.04   0.07
    56   6     0.05  -0.00  -0.02    -0.04   0.05  -0.05     0.12  -0.03  -0.03
    57   6    -0.05  -0.00   0.02    -0.04  -0.05  -0.05     0.12   0.03  -0.03
    58   6    -0.03  -0.06   0.06     0.00   0.14   0.07     0.04   0.04   0.00
    59   6     0.06   0.11  -0.03    -0.01   0.06  -0.06     0.06  -0.03   0.14
    60   6    -0.06   0.11   0.03    -0.01  -0.06  -0.06     0.06   0.03   0.14
    61   6     0.06  -0.03  -0.03     0.02  -0.02   0.01    -0.06   0.05  -0.02
    62   6    -0.06  -0.03   0.03     0.02   0.02   0.01    -0.06  -0.05  -0.02
    63   6     0.03   0.01   0.01    -0.02  -0.04  -0.02     0.04   0.08   0.06
    64   1     0.00   0.08   0.07    -0.04  -0.02  -0.03     0.10   0.03   0.06
    65   1    -0.09  -0.05  -0.05    -0.05  -0.04  -0.05     0.13   0.11   0.13
    66   1     0.02   0.08   0.09    -0.02  -0.01  -0.01     0.04  -0.00  -0.00
    67   6    -0.03   0.01  -0.01    -0.02   0.04  -0.02     0.04  -0.08   0.06
    68   1    -0.02   0.08  -0.09    -0.02   0.01  -0.01     0.04   0.00  -0.00
    69   1     0.09  -0.05   0.05    -0.05   0.04  -0.05     0.13  -0.11   0.13
    70   1    -0.00   0.08  -0.07    -0.04   0.02  -0.03     0.10  -0.03   0.06
    71   6     0.08  -0.01  -0.07     0.01   0.07   0.02    -0.02  -0.14  -0.08
    72   1     0.25  -0.21  -0.07     0.13  -0.09   0.01    -0.23   0.11  -0.08
    73   1    -0.10   0.00   0.12    -0.07   0.08   0.15     0.02  -0.15  -0.29
    74   6    -0.08  -0.01   0.07     0.01  -0.07   0.02    -0.03   0.14  -0.08
    75   1     0.10   0.00  -0.12    -0.07  -0.08   0.15     0.02   0.15  -0.29
    76   1    -0.25  -0.21   0.07     0.13   0.09   0.01    -0.23  -0.11  -0.08
                    100                    101                    102
                      A                      A                      A
 Frequencies --    803.0612               808.2958               814.2148
 Red. masses --     10.3088                10.5663                11.2340
 Frc consts  --      3.9170                 4.0674                 4.3879
 IR Inten    --      0.0000                 0.0000                 0.0000
  Atom  AN      X      Y      Z        X      Y      Z        X      Y      Z
     1   6     0.08   0.08   0.05     0.06  -0.11   0.02    -0.02  -0.05  -0.04
     2   6     0.04  -0.07   0.03    -0.05  -0.02   0.11    -0.06  -0.09  -0.06
     3   6     0.04  -0.01   0.03    -0.07   0.09   0.09     0.11  -0.04   0.00
     4   6     0.00   0.03   0.00    -0.00   0.18   0.00    -0.00  -0.00  -0.00
     5   6     0.00   0.13  -0.00    -0.00   0.10   0.00    -0.00  -0.00   0.00
     6   6     0.12   0.08   0.00    -0.01   0.02   0.08    -0.05  -0.03   0.04
     7   6     0.00  -0.02   0.05     0.08  -0.07  -0.14     0.11   0.06  -0.03
     8   6     0.01  -0.04  -0.07     0.00  -0.05  -0.07     0.02  -0.01   0.17
     9   6    -0.02  -0.08  -0.04    -0.05  -0.07   0.02    -0.16   0.08  -0.05
    10   6    -0.06   0.01   0.00    -0.03  -0.02  -0.12    -0.16   0.04  -0.06
    11   6     0.01   0.11   0.06    -0.10   0.04  -0.03     0.11   0.03   0.07
    12   6    -0.04  -0.01  -0.03     0.07   0.09  -0.09    -0.11  -0.04  -0.00
    13   6    -0.04  -0.07  -0.03     0.05  -0.02  -0.11     0.06  -0.09   0.06
    14   6    -0.08   0.08  -0.05    -0.06  -0.11  -0.02     0.02  -0.05   0.04
    15   6    -0.12   0.08  -0.00     0.01   0.02  -0.08     0.05  -0.03  -0.04
    16   6    -0.03  -0.11   0.15    -0.03   0.13  -0.08    -0.00   0.04  -0.06
    17   6     0.03  -0.10  -0.15     0.03   0.13   0.08     0.00   0.04   0.06
    18   6     0.04  -0.05  -0.20     0.02   0.05   0.07     0.04   0.10   0.02
    19   6    -0.08  -0.05  -0.05     0.07   0.02  -0.13     0.09   0.02  -0.09
    20   6     0.01   0.02  -0.09     0.00   0.06  -0.06     0.01   0.01   0.17
    21   6    -0.04   0.08  -0.08    -0.05   0.06  -0.01    -0.18  -0.07  -0.03
    22   6    -0.08  -0.01   0.04    -0.06   0.07  -0.11    -0.14  -0.09  -0.06
    23   6     0.04  -0.06   0.13    -0.10  -0.02  -0.04     0.03  -0.10   0.06
    24   6    -0.03   0.17  -0.03    -0.00  -0.10  -0.01     0.01   0.05   0.04
    25   6     0.03   0.17   0.04     0.00  -0.10   0.00    -0.01   0.05  -0.04
    26   6    -0.04  -0.05   0.20    -0.02   0.05  -0.07    -0.04   0.10  -0.02
    27   6     0.08  -0.05   0.05    -0.07   0.02   0.13    -0.09   0.02   0.09
    28   6    -0.00  -0.02  -0.05    -0.08  -0.07   0.14    -0.11   0.06   0.03
    29   6    -0.01   0.11  -0.06     0.10   0.04   0.03    -0.11   0.03  -0.07
    30   6    -0.01   0.03  -0.00    -0.06   0.07   0.10    -0.12  -0.06   0.04
    31   6     0.09  -0.00   0.05    -0.02  -0.03   0.12    -0.12  -0.00   0.10
    32   6    -0.05   0.07   0.10    -0.09   0.03  -0.06    -0.02  -0.11  -0.01
    33   6    -0.02   0.04   0.09    -0.01  -0.12  -0.01     0.01  -0.01  -0.07
    34   6    -0.09  -0.08  -0.03    -0.04  -0.04  -0.05     0.06   0.02  -0.06
    35   6    -0.04   0.11  -0.02     0.03   0.02  -0.10     0.05   0.08   0.07
    36   6     0.04   0.08   0.08     0.05   0.06   0.01     0.18  -0.07   0.03
    37   6    -0.01   0.02   0.09    -0.00   0.06   0.06    -0.01   0.01  -0.17
    38   6    -0.01  -0.04   0.07    -0.00  -0.05   0.07    -0.02  -0.01  -0.17
    39   6     0.02  -0.08   0.04     0.05  -0.07  -0.02     0.16   0.08   0.05
    40   6     0.06   0.01  -0.00     0.03  -0.02   0.12     0.16   0.04   0.06
    41   6     0.05   0.07  -0.10     0.09   0.03   0.06     0.02  -0.11   0.01
    42   6     0.02   0.04  -0.09     0.01  -0.12   0.01    -0.01  -0.01   0.07
    43   6     0.09  -0.08   0.03     0.03  -0.04   0.05    -0.06   0.02   0.06
    44   6    -0.00  -0.13   0.00     0.00  -0.10  -0.00     0.00  -0.03   0.00
    45   6    -0.00  -0.02  -0.00     0.00  -0.14  -0.00     0.00  -0.00  -0.00
    46   6    -0.06   0.02  -0.05     0.06  -0.07  -0.09    -0.11   0.05   0.00
    47   6     0.08  -0.01  -0.04     0.06   0.07   0.11     0.14  -0.09   0.06
    48   6    -0.04  -0.06  -0.13     0.10  -0.02   0.04    -0.03  -0.10  -0.06
    49   6    -0.01  -0.17  -0.12     0.08  -0.07   0.02    -0.08  -0.01  -0.08
    50   6     0.01  -0.17   0.12    -0.08  -0.07  -0.02     0.08  -0.01   0.08
    51   6     0.06   0.02   0.05    -0.06  -0.07   0.09     0.11   0.05  -0.00
    52   6     0.04   0.11   0.02    -0.03   0.02   0.10    -0.05   0.08  -0.07
    53   6     0.09  -0.03   0.02     0.08   0.08   0.03     0.00   0.06  -0.04
    54   6     0.01   0.03   0.00     0.06   0.07  -0.10     0.12  -0.06  -0.04
    55   6    -0.09  -0.00  -0.05     0.02  -0.03  -0.12     0.12  -0.00  -0.10
    56   6     0.02   0.04  -0.09     0.12  -0.00   0.05    -0.04   0.07  -0.09
    57   6    -0.02   0.04   0.09    -0.12  -0.00  -0.05     0.04   0.07   0.09
    58   6    -0.09  -0.03  -0.02    -0.08   0.08  -0.03    -0.00   0.06   0.04
    59   6    -0.00  -0.06   0.05     0.06   0.08   0.01    -0.06  -0.05  -0.06
    60   6     0.00  -0.06  -0.05    -0.06   0.08  -0.01     0.06  -0.05   0.06
    61   6     0.01  -0.01  -0.01     0.04  -0.04  -0.01    -0.04   0.03   0.01
    62   6    -0.01  -0.01   0.01    -0.04  -0.04   0.01     0.04   0.03  -0.01
    63   6     0.02   0.02   0.02     0.03   0.01   0.02    -0.03  -0.01  -0.02
    64   1     0.03   0.03   0.04    -0.02   0.05   0.02     0.01  -0.05  -0.02
    65   1     0.01   0.01   0.02    -0.05  -0.02  -0.05     0.05   0.01   0.03
    66   1     0.01   0.01   0.03     0.05   0.11   0.09    -0.05  -0.11  -0.09
    67   6    -0.02   0.02  -0.02    -0.03   0.01  -0.02     0.03  -0.01   0.02
    68   1    -0.01   0.01  -0.03    -0.05   0.11  -0.09     0.05  -0.11   0.09
    69   1    -0.01   0.01  -0.02     0.05  -0.02   0.05    -0.05   0.01  -0.03
    70   1    -0.03   0.03  -0.04     0.02   0.05  -0.02    -0.01  -0.05   0.02
    71   6     0.03  -0.04   0.01     0.05  -0.01  -0.03    -0.05   0.01   0.02
    72   1    -0.06   0.16   0.03     0.13  -0.09  -0.03    -0.08   0.03   0.01
    73   1     0.12  -0.06  -0.16    -0.06   0.00   0.05     0.01   0.01  -0.01
    74   6    -0.03  -0.04  -0.01    -0.05  -0.01   0.03     0.04   0.01  -0.02
    75   1    -0.12  -0.06   0.16     0.06   0.00  -0.05    -0.01   0.01   0.01
    76   1     0.06   0.16  -0.03    -0.13  -0.09   0.03     0.08   0.03  -0.01
                    103                    104                    105
                      A                      A                      A
 Frequencies --    815.2997               837.8177               840.3313
 Red. masses --     11.9841                 9.8531                 8.9251
 Frc consts  --      4.6934                 4.0750                 3.7133
 IR Inten    --      0.0000                 0.0000                 0.0000
  Atom  AN      X      Y      Z        X      Y      Z        X      Y      Z
     1   6     0.13   0.12  -0.00    -0.04   0.02   0.09    -0.08   0.06   0.13
     2   6     0.12  -0.13  -0.05    -0.11  -0.01   0.03    -0.13  -0.05  -0.07
     3   6     0.04  -0.16  -0.06    -0.01   0.07  -0.02    -0.00  -0.02  -0.01
     4   6    -0.19  -0.00   0.04    -0.00   0.01   0.00     0.02  -0.00   0.02
     5   6    -0.19  -0.00   0.04    -0.00  -0.14  -0.00    -0.00   0.00  -0.04
     6   6     0.06   0.15   0.05     0.12  -0.02  -0.10    -0.00   0.04   0.01
     7   6    -0.05  -0.00   0.09    -0.05   0.02   0.07     0.10   0.05   0.11
     8   6    -0.08  -0.01   0.02     0.02   0.04   0.01     0.12  -0.00  -0.02
     9   6    -0.09   0.01  -0.07    -0.03  -0.02  -0.07     0.03  -0.05  -0.11
    10   6    -0.10   0.03  -0.04     0.01  -0.03  -0.11    -0.00   0.03   0.09
    11   6     0.07  -0.05   0.06     0.05   0.00   0.01     0.07   0.05   0.00
    12   6     0.04   0.16  -0.06     0.01   0.07   0.02    -0.00   0.02  -0.01
    13   6     0.12   0.13  -0.05     0.11  -0.01  -0.03    -0.13   0.05  -0.07
    14   6     0.13  -0.12  -0.00     0.04   0.02  -0.08    -0.08  -0.06   0.13
    15   6     0.06  -0.15   0.05    -0.12  -0.02   0.10    -0.00  -0.04   0.01
    16   6     0.03  -0.04  -0.09    -0.09   0.18   0.06     0.06   0.04  -0.03
    17   6     0.03   0.04  -0.09     0.09   0.18  -0.06     0.06  -0.04  -0.03
    18   6    -0.02  -0.06  -0.02    -0.00  -0.07   0.05    -0.06  -0.09  -0.03
    19   6    -0.07  -0.03   0.08    -0.05  -0.13  -0.04    -0.04  -0.03  -0.09
    20   6     0.08   0.01  -0.02     0.04  -0.03   0.01    -0.13  -0.02   0.03
    21   6     0.08   0.00   0.06    -0.05   0.04  -0.07    -0.03  -0.05   0.11
    22   6     0.09   0.03   0.04    -0.00   0.00  -0.13     0.01   0.04  -0.11
    23   6     0.01   0.06  -0.03     0.07   0.09   0.05     0.05   0.11  -0.05
    24   6    -0.00   0.00  -0.00    -0.00  -0.00   0.10     0.01   0.00   0.06
    25   6    -0.00  -0.00  -0.00     0.00  -0.00  -0.10     0.01  -0.00   0.06
    26   6    -0.02   0.06  -0.02     0.00  -0.07  -0.05    -0.06   0.09  -0.03
    27   6    -0.07   0.03   0.08     0.05  -0.13   0.04    -0.04   0.03  -0.09
    28   6    -0.05   0.00   0.09     0.05   0.02  -0.07     0.10  -0.05   0.11
    29   6     0.07   0.05   0.06    -0.05   0.00  -0.01     0.07  -0.05   0.00
    30   6     0.05   0.01  -0.10     0.01  -0.02  -0.09    -0.11  -0.06  -0.09
    31   6     0.08   0.03  -0.07     0.03   0.10   0.03     0.01   0.01   0.08
    32   6     0.04   0.06   0.01     0.02   0.03   0.02     0.06   0.05   0.05
    33   6    -0.04  -0.05   0.08    -0.12  -0.13   0.08    -0.06   0.04   0.03
    34   6    -0.07  -0.16  -0.04    -0.14   0.02   0.11     0.00  -0.01  -0.00
    35   6    -0.13   0.12   0.05     0.12   0.01  -0.04     0.14   0.04   0.06
    36   6     0.08  -0.00   0.06     0.05   0.04   0.07    -0.03   0.05   0.11
    37   6     0.08  -0.01  -0.02    -0.04  -0.03  -0.01    -0.13   0.02   0.03
    38   6    -0.08   0.01   0.02    -0.02   0.04  -0.01     0.12   0.00  -0.02
    39   6    -0.09  -0.01  -0.07     0.03  -0.02   0.07     0.03   0.05  -0.11
    40   6    -0.10  -0.03  -0.04    -0.01  -0.03   0.11    -0.00  -0.03   0.09
    41   6     0.04  -0.06   0.01    -0.02   0.03  -0.02     0.06  -0.05   0.05
    42   6    -0.04   0.05   0.08     0.12  -0.13  -0.08    -0.06  -0.04   0.03
    43   6    -0.07   0.16  -0.04     0.14   0.02  -0.11     0.00   0.01  -0.00
    44   6     0.19   0.00  -0.04    -0.00   0.12   0.00    -0.02  -0.00   0.03
    45   6     0.19   0.00  -0.04    -0.00  -0.06  -0.00    -0.03   0.00  -0.03
    46   6    -0.04   0.16   0.07    -0.02  -0.08   0.01     0.02   0.01   0.01
    47   6     0.09  -0.03   0.04     0.00   0.00   0.13     0.01  -0.04  -0.11
    48   6     0.01  -0.06  -0.03    -0.07   0.09  -0.05     0.05  -0.11  -0.05
    49   6    -0.06   0.04  -0.07    -0.07   0.03  -0.01    -0.06  -0.05   0.01
    50   6    -0.06  -0.04  -0.07     0.07   0.03   0.01    -0.06   0.05   0.01
    51   6    -0.04  -0.16   0.07     0.02  -0.08  -0.01     0.02  -0.01   0.01
    52   6    -0.13  -0.12   0.05    -0.12   0.01   0.04     0.14  -0.04   0.06
    53   6    -0.13   0.13   0.01    -0.04  -0.03   0.09     0.09   0.04  -0.12
    54   6     0.05  -0.01  -0.10    -0.01  -0.02   0.09    -0.11   0.06  -0.09
    55   6     0.08  -0.03  -0.07    -0.03   0.10  -0.03     0.01  -0.01   0.08
    56   6    -0.03  -0.06   0.03    -0.10  -0.10  -0.05    -0.03  -0.07   0.06
    57   6    -0.03   0.06   0.03     0.10  -0.10   0.05    -0.03   0.07   0.06
    58   6    -0.13  -0.13   0.01     0.04  -0.03  -0.09     0.09  -0.04  -0.12
    59   6    -0.00   0.00  -0.00    -0.04   0.02  -0.10    -0.03   0.05  -0.10
    60   6    -0.00  -0.00  -0.01     0.04   0.02   0.10    -0.03  -0.05  -0.10
    61   6     0.00  -0.00  -0.00    -0.01   0.04  -0.02     0.02  -0.02   0.01
    62   6     0.00   0.00  -0.00     0.01   0.04   0.02     0.02   0.02   0.01
    63   6    -0.00  -0.00  -0.00    -0.02  -0.01  -0.04    -0.01  -0.02  -0.01
    64   1    -0.00  -0.00  -0.00     0.02  -0.00   0.03    -0.02  -0.02  -0.02
    65   1    -0.00  -0.00  -0.00    -0.02  -0.04  -0.00    -0.02  -0.02  -0.02
    66   1    -0.00   0.00   0.00    -0.07  -0.11  -0.07    -0.01  -0.01  -0.01
    67   6    -0.00   0.00  -0.00     0.02  -0.02   0.04    -0.01   0.02  -0.01
    68   1    -0.00  -0.00   0.00     0.07  -0.11   0.07    -0.01   0.01  -0.01
    69   1    -0.00   0.00  -0.00     0.02  -0.04   0.00    -0.02   0.02  -0.02
    70   1    -0.00   0.00  -0.00    -0.02  -0.00  -0.03    -0.02   0.02  -0.02
    71   6     0.00   0.01   0.00     0.01   0.01  -0.06     0.01   0.10  -0.01
    72   1     0.01  -0.01   0.00     0.12  -0.19  -0.08     0.18  -0.18  -0.03
    73   1     0.00   0.01   0.02    -0.05   0.02   0.12    -0.10   0.11   0.22
    74   6     0.00  -0.01   0.00    -0.01   0.01   0.06     0.01  -0.10  -0.01
    75   1     0.00  -0.01   0.02     0.05   0.02  -0.12    -0.10  -0.11   0.22
    76   1     0.01   0.01   0.00    -0.12  -0.19   0.08     0.18   0.18  -0.03
                    106                    107                    108
                      A                      A                      A
 Frequencies --    849.3471               893.6506               910.6070
 Red. masses --      9.8942                 3.2144                 2.6727
 Frc consts  --      4.2053                 1.5125                 1.3058
 IR Inten    --      0.0000                 0.0000                 0.0000
  Atom  AN      X      Y      Z        X      Y      Z        X      Y      Z
     1   6    -0.10   0.00   0.00    -0.00   0.00   0.02    -0.00  -0.01  -0.00
     2   6    -0.04   0.00  -0.02    -0.00   0.02   0.01     0.01   0.01  -0.00
     3   6     0.14   0.05   0.08     0.00   0.02  -0.03    -0.03  -0.01  -0.01
     4   6     0.00   0.18   0.00    -0.06  -0.00  -0.03     0.00  -0.01   0.00
     5   6     0.00  -0.05  -0.00    -0.06   0.00   0.03     0.00   0.04  -0.00
     6   6     0.02  -0.08  -0.01    -0.01   0.01   0.03    -0.03   0.01   0.03
     7   6     0.00   0.04   0.05    -0.02  -0.03   0.00    -0.02  -0.03  -0.02
     8   6     0.06  -0.04  -0.07    -0.06  -0.01   0.02    -0.03  -0.01  -0.02
     9   6    -0.03  -0.06  -0.03    -0.03   0.03   0.02     0.01   0.01   0.02
    10   6    -0.01   0.09   0.06    -0.00   0.00  -0.02     0.02   0.01   0.02
    11   6     0.08  -0.17  -0.02     0.04  -0.01   0.02    -0.01  -0.00  -0.02
    12   6    -0.14   0.05  -0.08     0.00  -0.02  -0.03     0.03  -0.01   0.01
    13   6     0.04   0.00   0.02    -0.00  -0.02   0.01    -0.01   0.01   0.00
    14   6     0.10   0.00  -0.00    -0.00  -0.00   0.02     0.00  -0.01   0.00
    15   6    -0.02  -0.08   0.01    -0.01  -0.01   0.03     0.03   0.01  -0.03
    16   6    -0.04   0.01   0.03     0.02  -0.00  -0.01     0.00  -0.01  -0.01
    17   6     0.04   0.01  -0.03     0.02   0.00  -0.01    -0.00  -0.01   0.01
    18   6     0.02   0.08  -0.07     0.03   0.02  -0.04     0.03   0.03  -0.01
    19   6     0.05   0.03   0.10     0.02  -0.01   0.00     0.02   0.01   0.02
    20   6     0.06   0.04  -0.07     0.01  -0.02   0.00    -0.01   0.02  -0.02
    21   6    -0.03   0.06  -0.05     0.04   0.02  -0.04    -0.02   0.01  -0.01
    22   6    -0.02  -0.09   0.06     0.03   0.03  -0.02    -0.01  -0.03   0.02
    23   6    -0.06  -0.07  -0.04    -0.02   0.04   0.01    -0.02  -0.03  -0.02
    24   6    -0.06  -0.05  -0.09    -0.03   0.01  -0.06     0.00   0.02  -0.03
    25   6     0.06  -0.05   0.09    -0.03  -0.01  -0.06    -0.00   0.02   0.03
    26   6    -0.02   0.08   0.07     0.03  -0.02  -0.04    -0.03   0.03   0.01
    27   6    -0.05   0.04  -0.10     0.02   0.01   0.00    -0.02   0.01  -0.02
    28   6    -0.00   0.04  -0.05    -0.02   0.03   0.00     0.02  -0.03   0.02
    29   6    -0.08  -0.17   0.02     0.04   0.01   0.02     0.01  -0.00   0.02
    30   6     0.01  -0.03  -0.06    -0.02   0.01   0.04    -0.02   0.00  -0.02
    31   6    -0.03  -0.04  -0.10    -0.04  -0.05  -0.01    -0.02  -0.02  -0.01
    32   6    -0.07  -0.04   0.05    -0.03  -0.04   0.02    -0.02  -0.02   0.06
    33   6    -0.05  -0.02   0.04    -0.01  -0.02   0.02    -0.01   0.04   0.04
    34   6    -0.03   0.08   0.01    -0.02   0.03   0.01    -0.02  -0.00   0.00
    35   6     0.05   0.02   0.03     0.02  -0.02  -0.03     0.01   0.01   0.00
    36   6     0.03   0.06   0.05     0.04  -0.02  -0.04     0.02   0.01   0.01
    37   6    -0.06   0.04   0.07     0.01   0.02   0.00     0.01   0.02   0.02
    38   6    -0.06  -0.04   0.07    -0.06   0.01   0.02     0.03  -0.01   0.02
    39   6     0.03  -0.06   0.03    -0.03  -0.03   0.02    -0.01   0.01  -0.02
    40   6     0.01   0.09  -0.06    -0.00  -0.00  -0.02    -0.02   0.01  -0.02
    41   6     0.07  -0.04  -0.05    -0.03   0.04   0.02     0.02  -0.02  -0.06
    42   6     0.05  -0.02  -0.04    -0.01   0.02   0.02     0.01   0.04  -0.04
    43   6     0.03   0.08  -0.01    -0.02  -0.03   0.01     0.02  -0.00  -0.00
    44   6    -0.00   0.05   0.00    -0.00  -0.00  -0.03     0.00  -0.03   0.00
    45   6    -0.00  -0.18  -0.00     0.03  -0.00  -0.00    -0.00  -0.03   0.00
    46   6    -0.15  -0.04  -0.06     0.05  -0.02   0.01    -0.02   0.00  -0.01
    47   6     0.02  -0.09  -0.06     0.03  -0.03  -0.02     0.01  -0.03  -0.02
    48   6     0.06  -0.07   0.04    -0.02  -0.04   0.01     0.02  -0.02   0.02
    49   6    -0.08   0.15  -0.02     0.01  -0.03   0.04    -0.01   0.02  -0.00
    50   6     0.08   0.15   0.02     0.01   0.03   0.04     0.01   0.02   0.00
    51   6     0.15  -0.04   0.06     0.05   0.02   0.01     0.02   0.00   0.01
    52   6    -0.05   0.02  -0.03     0.02   0.02  -0.03    -0.01   0.01  -0.00
    53   6    -0.10  -0.00   0.01    -0.02  -0.04   0.02    -0.00  -0.01   0.02
    54   6    -0.01  -0.03   0.06    -0.02  -0.01   0.04     0.02   0.00   0.02
    55   6     0.03  -0.04   0.10    -0.04   0.05  -0.01     0.02  -0.02   0.01
    56   6     0.10   0.07   0.06     0.07   0.04   0.02     0.02  -0.02   0.00
    57   6    -0.10   0.07  -0.06     0.07  -0.04   0.02    -0.02  -0.02  -0.00
    58   6     0.10  -0.00  -0.01    -0.02   0.04   0.02     0.00  -0.01  -0.02
    59   6     0.07   0.09   0.10     0.02   0.11  -0.01    -0.03  -0.00  -0.02
    60   6    -0.07   0.09  -0.10     0.02  -0.11  -0.01     0.03  -0.00   0.02
    61   6     0.04  -0.06  -0.01    -0.01  -0.01   0.02     0.02   0.09  -0.02
    62   6    -0.04  -0.06   0.01    -0.01   0.01   0.02    -0.02   0.09   0.02
    63   6     0.06   0.02   0.05    -0.01   0.01   0.00    -0.05  -0.02  -0.10
    64   1    -0.01   0.07   0.04     0.04  -0.03   0.01     0.08   0.05   0.14
    65   1    -0.04   0.00  -0.04     0.07   0.03   0.08    -0.09  -0.14  -0.01
    66   1     0.09   0.17   0.15    -0.02  -0.08  -0.06    -0.22  -0.28  -0.15
    67   6    -0.06   0.02  -0.05    -0.01  -0.01   0.00     0.05  -0.02   0.10
    68   1    -0.09   0.17  -0.15    -0.02   0.08  -0.06     0.22  -0.28   0.15
    69   1     0.04   0.00   0.03     0.08  -0.03   0.08     0.09  -0.14   0.02
    70   1     0.01   0.07  -0.04     0.04   0.03   0.01    -0.08   0.05  -0.14
    71   6     0.10  -0.04  -0.01     0.02   0.12  -0.09    -0.04   0.00  -0.15
    72   1     0.15   0.02   0.02     0.17  -0.36  -0.15    -0.09  -0.33  -0.24
    73   1     0.03  -0.04  -0.04    -0.22   0.16   0.35    -0.10   0.03   0.18
    74   6    -0.10  -0.04   0.01     0.02  -0.12  -0.08     0.04   0.00   0.15
    75   1    -0.02  -0.04   0.04    -0.22  -0.16   0.35     0.10   0.03  -0.18
    76   1    -0.15   0.02  -0.02     0.17   0.35  -0.15     0.09  -0.33   0.24
                    109                    110                    111
                      A                      A                      A
 Frequencies --    939.1580               940.1689               970.6396
 Red. masses --      2.6935                 7.6349                 3.5911
 Frc consts  --      1.3997                 3.9762                 1.9934
 IR Inten    --      0.0000                 0.0000                 0.0000
  Atom  AN      X      Y      Z        X      Y      Z        X      Y      Z
     1   6    -0.01  -0.01   0.00     0.03  -0.00   0.03     0.04  -0.01  -0.02
     2   6     0.01  -0.00  -0.01    -0.08  -0.04  -0.02    -0.02  -0.02   0.00
     3   6    -0.01  -0.02  -0.02    -0.08  -0.03  -0.03    -0.05  -0.01   0.00
     4   6    -0.00  -0.05   0.00    -0.08   0.00   0.03     0.01   0.00   0.03
     5   6    -0.00   0.02   0.00    -0.01  -0.00   0.05     0.05  -0.00  -0.01
     6   6    -0.02   0.01   0.03     0.08   0.02  -0.03     0.05  -0.01  -0.05
     7   6    -0.05  -0.03  -0.01     0.05  -0.02   0.01     0.03   0.02  -0.01
     8   6    -0.05   0.02  -0.01    -0.07  -0.02   0.01     0.02  -0.00  -0.00
     9   6     0.03   0.01  -0.01    -0.08   0.03  -0.03    -0.02  -0.01  -0.01
    10   6     0.04  -0.04  -0.00    -0.02   0.07   0.00    -0.03   0.02   0.02
    11   6    -0.00   0.04   0.02     0.03   0.04  -0.02    -0.04   0.03  -0.03
    12   6     0.01  -0.02   0.02    -0.08   0.03  -0.03    -0.06   0.02   0.00
    13   6    -0.01  -0.00   0.01    -0.08   0.04  -0.02    -0.01   0.02   0.01
    14   6     0.01  -0.01  -0.00     0.03   0.00   0.04     0.05   0.01  -0.03
    15   6     0.03   0.01  -0.03     0.08  -0.02  -0.02     0.05   0.00  -0.05
    16   6    -0.00   0.01  -0.02     0.03  -0.07  -0.10    -0.02  -0.03  -0.01
    17   6     0.00   0.01   0.02     0.03   0.07  -0.10    -0.02   0.03  -0.02
    18   6     0.03   0.02   0.00     0.00   0.11  -0.06    -0.02   0.01   0.04
    19   6    -0.00  -0.03   0.02     0.07   0.06   0.01     0.01   0.02   0.01
    20   6    -0.02   0.03   0.01    -0.10  -0.01   0.02    -0.00   0.00   0.00
    21   6    -0.04  -0.02   0.01    -0.02  -0.04  -0.01    -0.03  -0.00  -0.00
    22   6    -0.02  -0.04   0.00     0.04  -0.00  -0.01    -0.02  -0.03   0.01
    23   6     0.01  -0.00  -0.02     0.08   0.07   0.07     0.01  -0.04  -0.01
    24   6     0.02   0.05  -0.02    -0.04   0.04   0.09     0.03  -0.01   0.09
    25   6    -0.02   0.05   0.02    -0.04  -0.04   0.09     0.03   0.01   0.08
    26   6    -0.03   0.02  -0.00     0.01  -0.11  -0.06    -0.02  -0.02   0.04
    27   6     0.01  -0.03  -0.02     0.07  -0.06   0.01     0.02  -0.03   0.02
    28   6     0.05  -0.03   0.01     0.05   0.02   0.01     0.03  -0.01  -0.01
    29   6     0.00   0.04  -0.02     0.03  -0.04  -0.02    -0.04  -0.04  -0.04
    30   6    -0.04   0.00  -0.02    -0.03  -0.05   0.02     0.02   0.01  -0.01
    31   6    -0.04  -0.04   0.01     0.04  -0.02   0.02     0.02   0.02  -0.00
    32   6    -0.02  -0.03   0.07     0.04   0.12  -0.12    -0.02   0.02   0.03
    33   6    -0.00   0.05   0.04     0.07   0.02  -0.07    -0.00   0.05  -0.03
    34   6    -0.02  -0.01   0.00     0.02  -0.01   0.03     0.06  -0.01  -0.05
    35   6     0.03   0.00   0.00    -0.06  -0.01  -0.04    -0.03  -0.02   0.00
    36   6     0.04  -0.02  -0.01    -0.02   0.04  -0.01    -0.03  -0.00  -0.01
    37   6     0.02   0.03  -0.01    -0.10   0.01   0.02     0.01  -0.00  -0.00
    38   6     0.05   0.02   0.01    -0.07   0.02   0.01     0.01   0.00  -0.00
    39   6    -0.03   0.01   0.01    -0.07  -0.03  -0.03    -0.02   0.01  -0.00
    40   6    -0.04  -0.04   0.00    -0.02  -0.06   0.00    -0.03  -0.02   0.01
    41   6     0.02  -0.03  -0.07     0.04  -0.12  -0.12    -0.01  -0.03   0.02
    42   6     0.00   0.05  -0.04     0.07  -0.02  -0.07    -0.01  -0.04  -0.02
    43   6     0.02  -0.01  -0.00     0.02   0.01   0.03     0.05   0.01  -0.04
    44   6    -0.00  -0.04   0.00    -0.08   0.00   0.07     0.04  -0.01   0.01
    45   6    -0.00  -0.01  -0.00    -0.11   0.00  -0.01    -0.01   0.00   0.03
    46   6     0.01   0.01   0.01    -0.03  -0.02  -0.05    -0.06  -0.01  -0.01
    47   6     0.02  -0.04  -0.00     0.04   0.00  -0.01    -0.02   0.04   0.02
    48   6    -0.01  -0.00   0.02     0.08  -0.07   0.07     0.01   0.05  -0.01
    49   6    -0.01   0.03   0.01     0.08  -0.02   0.02    -0.02   0.04  -0.04
    50   6     0.01   0.03  -0.01     0.08   0.01   0.02    -0.03  -0.04  -0.04
    51   6    -0.01   0.01  -0.01    -0.03   0.02  -0.05    -0.07   0.01  -0.01
    52   6    -0.03   0.00  -0.00    -0.05   0.01  -0.04    -0.03   0.02   0.01
    53   6     0.01  -0.01   0.02    -0.04   0.01   0.03     0.04   0.02  -0.02
    54   6     0.04   0.00   0.02    -0.04   0.05   0.02     0.02  -0.00  -0.02
    55   6     0.04  -0.04  -0.01     0.04   0.02   0.02     0.02  -0.03   0.01
    56   6    -0.04  -0.03  -0.03     0.05   0.03   0.06    -0.00  -0.06  -0.03
    57   6     0.04  -0.03   0.03     0.04  -0.03   0.06    -0.01   0.06  -0.03
    58   6    -0.01  -0.01  -0.02    -0.04  -0.01   0.03     0.03  -0.02  -0.02
    59   6     0.01   0.03  -0.02     0.22   0.06   0.05    -0.03   0.04   0.16
    60   6    -0.00   0.03   0.02     0.22  -0.06   0.05    -0.03  -0.03   0.15
    61   6     0.01  -0.05   0.02    -0.02   0.02  -0.02    -0.03   0.01   0.00
    62   6    -0.02  -0.05  -0.02    -0.02  -0.02  -0.02    -0.03  -0.00   0.00
    63   6     0.03  -0.05   0.04     0.02   0.03  -0.00    -0.03   0.05   0.00
    64   1    -0.17  -0.02  -0.15     0.09   0.07   0.13     0.10  -0.07   0.00
    65   1    -0.09   0.02  -0.16     0.00  -0.03   0.05     0.18   0.09   0.19
    66   1     0.18   0.30   0.19    -0.07  -0.08  -0.02    -0.05  -0.19  -0.18
    67   6    -0.03  -0.05  -0.04     0.02  -0.03   0.00    -0.04  -0.05   0.00
    68   1    -0.18   0.30  -0.19    -0.06   0.07  -0.01    -0.05   0.19  -0.18
    69   1     0.09   0.02   0.16     0.00   0.03   0.04     0.19  -0.10   0.20
    70   1     0.17  -0.02   0.15     0.08  -0.07   0.12     0.10   0.08  -0.00
    71   6     0.07   0.10   0.03    -0.12  -0.01   0.05     0.10   0.06  -0.07
    72   1     0.28  -0.14   0.03    -0.21   0.19   0.08    -0.01  -0.29  -0.18
    73   1     0.03   0.12   0.25    -0.21  -0.02  -0.18     0.05   0.10   0.31
    74   6    -0.07   0.10  -0.03    -0.12   0.01   0.05     0.09  -0.06  -0.07
    75   1    -0.03   0.12  -0.25    -0.21   0.02  -0.17     0.05  -0.09   0.30
    76   1    -0.29  -0.14  -0.03    -0.20  -0.18   0.08    -0.01   0.27  -0.17
                    112                    113                    114
                      A                      A                      A
 Frequencies --    970.7435               983.8287               991.5776
 Red. masses --      8.6084                 3.7761                 7.9341
 Frc consts  --      4.7795                 2.1535                 4.5962
 IR Inten    --      0.0000                 0.0000                 0.0000
  Atom  AN      X      Y      Z        X      Y      Z        X      Y      Z
     1   6    -0.09   0.03   0.08    -0.04   0.03   0.00    -0.03  -0.06  -0.03
     2   6    -0.08  -0.02  -0.04     0.05   0.03  -0.00    -0.02   0.06   0.04
     3   6     0.10   0.03   0.03     0.02  -0.02  -0.03    -0.05   0.08  -0.03
     4   6    -0.00   0.09  -0.00     0.00  -0.10   0.00    -0.10  -0.00  -0.03
     5   6    -0.01  -0.10   0.00     0.00  -0.08  -0.00    -0.07  -0.00   0.07
     6   6     0.05  -0.03  -0.05    -0.04  -0.01   0.00    -0.01  -0.08   0.04
     7   6     0.02   0.04   0.07    -0.02   0.01   0.04    -0.00   0.00  -0.10
     8   6     0.09   0.01  -0.03    -0.01   0.00   0.02     0.15   0.00  -0.04
     9   6     0.04  -0.05  -0.09     0.05   0.01   0.04     0.04  -0.01   0.08
    10   6     0.01   0.03   0.09     0.02  -0.04   0.01    -0.02  -0.00   0.10
    11   6     0.07  -0.08   0.02     0.03   0.02   0.02     0.07   0.09   0.00
    12   6    -0.09   0.03  -0.03    -0.02  -0.01   0.03    -0.05  -0.08  -0.03
    13   6     0.09  -0.03   0.04    -0.05   0.03   0.00    -0.02  -0.06   0.04
    14   6     0.08   0.03  -0.07     0.04   0.03  -0.00    -0.03   0.06  -0.03
    15   6    -0.06  -0.03   0.06     0.05  -0.01  -0.00    -0.01   0.08   0.04
    16   6    -0.05   0.10   0.04     0.02  -0.00  -0.03     0.06   0.06  -0.04
    17   6     0.05   0.09  -0.03    -0.02  -0.00   0.03     0.06  -0.06  -0.04
    18   6    -0.02  -0.08   0.04     0.02   0.01   0.04    -0.03  -0.07  -0.06
    19   6    -0.06  -0.07  -0.07     0.01  -0.02   0.04    -0.07   0.00  -0.09
    20   6    -0.11   0.02   0.02    -0.02   0.00  -0.01     0.15   0.00  -0.03
    21   6    -0.03  -0.06   0.10    -0.03  -0.00  -0.03     0.04   0.00   0.09
    22   6     0.00   0.03  -0.09    -0.00  -0.03  -0.02    -0.03   0.00   0.11
    23   6     0.06   0.09   0.01     0.01   0.02  -0.04    -0.00  -0.07   0.07
    24   6     0.03   0.03   0.09     0.02   0.03  -0.00    -0.01  -0.02   0.00
    25   6    -0.04   0.03  -0.10    -0.02   0.03   0.00    -0.01   0.02   0.00
    26   6     0.03  -0.07  -0.05    -0.02   0.01  -0.04    -0.03   0.07  -0.06
    27   6     0.06  -0.07   0.07    -0.01  -0.02  -0.04    -0.07  -0.00  -0.09
    28   6    -0.02   0.04  -0.07     0.02   0.01  -0.04    -0.00  -0.00  -0.10
    29   6    -0.06  -0.07  -0.01    -0.03   0.02  -0.02     0.07  -0.09   0.00
    30   6     0.02   0.05   0.07    -0.02   0.02   0.06     0.01   0.01  -0.09
    31   6    -0.07  -0.08  -0.08    -0.01  -0.03   0.04    -0.06  -0.00  -0.08
    32   6    -0.06  -0.09   0.07     0.03  -0.01   0.05    -0.04  -0.05  -0.09
    33   6     0.05   0.11  -0.01    -0.03   0.00   0.03     0.06  -0.09  -0.03
    34   6     0.05  -0.04  -0.06    -0.02  -0.02  -0.02    -0.04  -0.08   0.05
    35   6    -0.08  -0.03  -0.04     0.06   0.03  -0.00    -0.01   0.06   0.04
    36   6     0.04  -0.06  -0.10     0.03  -0.00   0.03     0.04  -0.00   0.09
    37   6     0.11   0.02  -0.02     0.01   0.00   0.01     0.15  -0.00  -0.03
    38   6    -0.09   0.01   0.03     0.01   0.00  -0.02     0.15  -0.00  -0.04
    39   6    -0.04  -0.05   0.09    -0.05   0.01  -0.04     0.04   0.01   0.08
    40   6    -0.01   0.04  -0.09    -0.02  -0.04  -0.01    -0.02   0.00   0.10
    41   6     0.06  -0.08  -0.07    -0.03  -0.01  -0.05    -0.04   0.05  -0.09
    42   6    -0.05   0.12   0.02     0.03   0.00  -0.03     0.06   0.09  -0.03
    43   6    -0.07  -0.04   0.07     0.02  -0.02   0.02    -0.04   0.08   0.05
    44   6    -0.00  -0.12  -0.00     0.00  -0.10  -0.00    -0.08  -0.00   0.06
    45   6     0.00   0.10  -0.00     0.00  -0.07   0.00    -0.09  -0.00  -0.03
    46   6     0.11   0.04   0.04     0.05  -0.01  -0.01    -0.02   0.08  -0.03
    47   6     0.00   0.03   0.09     0.00  -0.03   0.02    -0.03  -0.00   0.11
    48   6    -0.07   0.08  -0.01    -0.01   0.02   0.04    -0.00   0.07   0.07
    49   6     0.06  -0.08   0.03     0.02   0.02   0.03     0.07   0.06   0.01
    50   6    -0.05  -0.07  -0.02    -0.02   0.02  -0.03     0.07  -0.06   0.01
    51   6    -0.09   0.03  -0.03    -0.05  -0.01   0.01    -0.02  -0.08  -0.02
    52   6     0.09  -0.03   0.04    -0.06   0.03   0.00    -0.01  -0.06   0.04
    53   6     0.07   0.02  -0.06     0.03   0.04  -0.00    -0.04   0.06  -0.03
    54   6    -0.02   0.05  -0.06     0.02   0.02  -0.06     0.00  -0.01  -0.09
    55   6     0.07  -0.08   0.07     0.01  -0.03  -0.04    -0.06   0.00  -0.08
    56   6     0.08   0.07   0.00     0.01  -0.01  -0.06    -0.00  -0.05   0.10
    57   6    -0.07   0.06   0.01    -0.01  -0.01   0.06    -0.00   0.06   0.10
    58   6    -0.08   0.03   0.07    -0.03   0.04   0.00    -0.04  -0.06  -0.03
    59   6     0.02   0.03   0.08    -0.05   0.14   0.02     0.07  -0.07  -0.01
    60   6    -0.01   0.04  -0.12     0.05   0.14  -0.02     0.07   0.07  -0.01
    61   6     0.03   0.02   0.01    -0.03  -0.03  -0.03    -0.01   0.00  -0.00
    62   6    -0.02   0.02  -0.01     0.03  -0.03   0.03    -0.01  -0.00  -0.00
    63   6     0.02  -0.02  -0.04     0.01   0.09   0.02    -0.01   0.05  -0.02
    64   1    -0.01   0.10   0.09     0.18   0.04   0.16     0.14   0.04   0.15
    65   1    -0.16  -0.14  -0.11     0.14   0.05   0.20     0.06  -0.02   0.13
    66   1    -0.06   0.01   0.07    -0.08  -0.17  -0.09    -0.12  -0.20  -0.11
    67   6    -0.01  -0.01   0.04    -0.01   0.09  -0.02    -0.01  -0.05  -0.02
    68   1     0.08  -0.03  -0.02     0.08  -0.17   0.09    -0.12   0.20  -0.11
    69   1     0.12  -0.11   0.07    -0.14   0.05  -0.20     0.06   0.02   0.13
    70   1    -0.02   0.08  -0.09    -0.18   0.05  -0.16     0.14  -0.04   0.15
    71   6     0.03   0.01  -0.06     0.05  -0.11  -0.00    -0.04   0.08   0.01
    72   1    -0.06  -0.15  -0.12     0.11   0.19   0.08    -0.05  -0.10  -0.03
    73   1    -0.01   0.02   0.12    -0.16  -0.14  -0.33     0.06   0.10   0.17
    74   6    -0.05   0.02   0.08    -0.05  -0.11   0.00    -0.04  -0.08   0.01
    75   1    -0.00   0.04  -0.19     0.16  -0.14   0.33     0.06  -0.10   0.17
    76   1     0.06  -0.22   0.16    -0.11   0.19  -0.08    -0.05   0.10  -0.03
                    115                    116                    117
                      A                      A                      A
 Frequencies --    993.7431               997.3531              1008.3118
 Red. masses --      7.1763                 6.4636                 7.1115
 Frc consts  --      4.1754                 3.7881                 4.2599
 IR Inten    --      0.0000                 0.0000                 0.0000
  Atom  AN      X      Y      Z        X      Y      Z        X      Y      Z
     1   6     0.07  -0.05  -0.05     0.08   0.03  -0.07    -0.04  -0.08  -0.10
     2   6    -0.01  -0.07   0.01     0.10  -0.01   0.02    -0.03  -0.05  -0.10
     3   6    -0.01   0.02   0.06     0.06   0.00   0.04    -0.06  -0.10  -0.04
     4   6    -0.00   0.15  -0.00     0.00   0.02   0.00    -0.06   0.00   0.05
     5   6    -0.00   0.13   0.00     0.00  -0.07  -0.00     0.01   0.00   0.07
     6   6     0.05   0.01   0.01     0.02  -0.01  -0.08     0.03  -0.13  -0.04
     7   6    -0.08  -0.04  -0.09     0.04   0.08   0.07    -0.04   0.05   0.01
     8   6     0.01   0.06  -0.05     0.04  -0.01   0.01     0.03   0.06   0.12
     9   6     0.04  -0.08  -0.13    -0.01  -0.04  -0.01     0.05   0.06   0.01
    10   6     0.03  -0.07  -0.10    -0.05  -0.03  -0.08     0.05  -0.00   0.07
    11   6    -0.08   0.08   0.00    -0.03   0.09   0.03     0.02  -0.04   0.01
    12   6     0.01   0.02  -0.06    -0.06   0.00  -0.04    -0.06   0.10  -0.04
    13   6     0.00  -0.07  -0.01    -0.10  -0.01  -0.02    -0.03   0.05  -0.10
    14   6    -0.07  -0.05   0.05    -0.08   0.03   0.07    -0.04   0.08  -0.10
    15   6    -0.05   0.01  -0.01    -0.02  -0.01   0.08     0.03   0.13  -0.04
    16   6    -0.03   0.01   0.03     0.06  -0.10   0.00     0.03   0.06  -0.03
    17   6     0.03   0.01  -0.03    -0.06  -0.10  -0.00     0.03  -0.06  -0.03
    18   6    -0.00  -0.03  -0.02    -0.06  -0.04   0.03    -0.03  -0.05  -0.03
    19   6    -0.06  -0.03  -0.01     0.02   0.06   0.11    -0.03   0.02   0.06
    20   6     0.00   0.05   0.05    -0.04  -0.01   0.00     0.03  -0.06   0.12
    21   6    -0.03  -0.08   0.14     0.01  -0.04   0.00     0.05  -0.06   0.02
    22   6    -0.03  -0.07   0.10     0.05  -0.04   0.07     0.06  -0.02   0.07
    23   6     0.05   0.00   0.02     0.05   0.05  -0.01     0.04   0.07   0.01
    24   6     0.02   0.05   0.01     0.01  -0.01   0.05    -0.02   0.01  -0.02
    25   6    -0.02   0.05  -0.01    -0.01  -0.01  -0.05    -0.02  -0.01  -0.02
    26   6     0.00  -0.02   0.02     0.06  -0.04  -0.03    -0.03   0.05  -0.03
    27   6     0.06  -0.03   0.01    -0.02   0.06  -0.11    -0.03  -0.02   0.06
    28   6     0.08  -0.04   0.09    -0.04   0.08  -0.07    -0.04  -0.05   0.01
    29   6     0.08   0.08  -0.00     0.03   0.09  -0.03     0.02   0.04   0.01
    30   6    -0.08  -0.04  -0.08     0.03   0.07   0.06    -0.04   0.04   0.01
    31   6    -0.06  -0.03   0.01     0.02   0.05   0.11    -0.02   0.01   0.06
    32   6     0.01  -0.03  -0.03    -0.07  -0.01   0.01    -0.02  -0.04  -0.02
    33   6     0.02  -0.00  -0.04    -0.07  -0.11   0.01     0.02  -0.04  -0.03
    34   6     0.05   0.02  -0.00     0.01  -0.02  -0.07     0.03  -0.12  -0.05
    35   6     0.00  -0.06   0.01     0.12   0.00   0.03    -0.04  -0.07  -0.11
    36   6     0.03  -0.08  -0.14    -0.01  -0.04  -0.00     0.05   0.06   0.02
    37   6     0.00   0.05  -0.05     0.04  -0.01  -0.00     0.03   0.06   0.12
    38   6    -0.01   0.06   0.05    -0.04  -0.01  -0.01     0.03  -0.06   0.12
    39   6    -0.03  -0.08   0.13     0.01  -0.04   0.01     0.05  -0.06   0.01
    40   6    -0.03  -0.07   0.10     0.05  -0.03   0.08     0.05   0.00   0.07
    41   6    -0.01  -0.03   0.03     0.07  -0.01  -0.01    -0.02   0.04  -0.02
    42   6    -0.02  -0.00   0.04     0.07  -0.11  -0.01     0.02   0.04  -0.03
    43   6    -0.05   0.02   0.00    -0.01  -0.02   0.07     0.03   0.12  -0.05
    44   6    -0.00   0.12   0.00     0.00  -0.09  -0.00     0.03   0.00   0.05
    45   6    -0.00   0.15  -0.00     0.00  -0.01   0.00    -0.03   0.00   0.06
    46   6    -0.00   0.02   0.06     0.06   0.00   0.04    -0.06  -0.12  -0.04
    47   6     0.03  -0.07  -0.10    -0.05  -0.04  -0.07     0.06   0.02   0.07
    48   6    -0.05   0.00  -0.02    -0.05   0.05   0.01     0.04  -0.07   0.01
    49   6    -0.07   0.08   0.01    -0.03   0.08   0.03     0.01  -0.05   0.00
    50   6     0.07   0.08  -0.01     0.03   0.08  -0.03     0.01   0.05   0.00
    51   6     0.00   0.02  -0.06    -0.06   0.00  -0.04    -0.06   0.12  -0.04
    52   6    -0.00  -0.06  -0.01    -0.12   0.00  -0.03    -0.03   0.07  -0.11
    53   6    -0.07  -0.05   0.04    -0.06   0.04   0.06    -0.04   0.07  -0.09
    54   6     0.08  -0.04   0.08    -0.03   0.07  -0.06    -0.04  -0.04   0.01
    55   6     0.06  -0.03  -0.01    -0.02   0.05  -0.11    -0.02  -0.01   0.06
    56   6     0.05  -0.02  -0.00     0.05   0.03  -0.03     0.06   0.03  -0.01
    57   6    -0.05  -0.02   0.00    -0.05   0.03   0.03     0.06  -0.03  -0.01
    58   6     0.07  -0.05  -0.05     0.06   0.04  -0.06    -0.04  -0.07  -0.09
    59   6    -0.01   0.10   0.03     0.02  -0.04   0.08    -0.08   0.04   0.01
    60   6     0.01   0.10  -0.03    -0.02  -0.04  -0.08    -0.08  -0.04   0.01
    61   6    -0.02  -0.02  -0.02     0.03   0.03   0.02     0.01  -0.01   0.01
    62   6     0.02  -0.02   0.02    -0.03   0.03  -0.02     0.01   0.01   0.01
    63   6     0.00   0.07  -0.00     0.02  -0.05  -0.04     0.01  -0.05   0.03
    64   1     0.15   0.05   0.15    -0.07   0.08   0.02    -0.18  -0.06  -0.20
    65   1     0.09   0.01   0.15    -0.19  -0.13  -0.17    -0.06   0.04  -0.14
    66   1    -0.09  -0.16  -0.09    -0.02   0.09   0.10     0.17   0.26   0.14
    67   6    -0.00   0.07   0.00    -0.02  -0.05   0.04     0.01   0.05   0.04
    68   1     0.09  -0.16   0.09     0.02   0.08  -0.10     0.17  -0.26   0.14
    69   1    -0.09   0.01  -0.15     0.19  -0.13   0.17    -0.06  -0.04  -0.14
    70   1    -0.15   0.05  -0.14     0.07   0.08  -0.02    -0.18   0.06  -0.20
    71   6     0.01  -0.08  -0.01     0.02   0.05  -0.04     0.03  -0.04  -0.04
    72   1     0.01   0.11   0.03    -0.15  -0.18  -0.13     0.01  -0.02  -0.04
    73   1    -0.17  -0.10  -0.22     0.11   0.07   0.22    -0.04  -0.04  -0.03
    74   6    -0.01  -0.08   0.01    -0.02   0.05   0.04     0.03   0.04  -0.04
    75   1     0.17  -0.10   0.22    -0.11   0.07  -0.22    -0.04   0.04  -0.03
    76   1    -0.01   0.12  -0.03     0.14  -0.18   0.13     0.01   0.02  -0.04
                    118                    119                    120
                      A                      A                      A
 Frequencies --   1011.8257              1019.2729              1043.1882
 Red. masses --      2.4721                 3.0433                 4.0608
 Frc consts  --      1.4912                 1.8628                 2.6037
 IR Inten    --      0.0000                 0.0000                 0.0000
  Atom  AN      X      Y      Z        X      Y      Z        X      Y      Z
     1   6    -0.01   0.01   0.03     0.03  -0.00  -0.02     0.02  -0.01   0.01
     2   6    -0.02   0.02   0.02     0.01  -0.01   0.01    -0.05  -0.00   0.00
     3   6    -0.00   0.04  -0.01    -0.02  -0.00   0.00    -0.04  -0.00  -0.02
     4   6    -0.03   0.00  -0.02     0.02  -0.00   0.01     0.00  -0.02   0.00
     5   6    -0.03   0.00   0.01     0.03   0.00  -0.01     0.00   0.05  -0.00
     6   6     0.00   0.02   0.02     0.02   0.00  -0.03     0.02   0.01   0.00
     7   6     0.01  -0.02  -0.03     0.01   0.01  -0.00     0.03  -0.01  -0.03
     8   6    -0.01  -0.02  -0.03     0.02  -0.00  -0.00    -0.03  -0.01   0.02
     9   6    -0.01  -0.00   0.01    -0.02  -0.01  -0.00    -0.02   0.03   0.01
    10   6    -0.01  -0.01  -0.00    -0.02   0.02   0.00     0.01   0.01  -0.02
    11   6     0.03   0.02   0.02    -0.03   0.03  -0.02     0.03   0.00   0.00
    12   6    -0.00  -0.04  -0.01    -0.02   0.00   0.00     0.04  -0.00   0.02
    13   6    -0.02  -0.02   0.02     0.01   0.01   0.01     0.05  -0.00  -0.00
    14   6    -0.01  -0.01   0.03     0.03   0.00  -0.02    -0.02  -0.01  -0.01
    15   6    -0.00  -0.02   0.02     0.02  -0.00  -0.03    -0.02   0.01  -0.00
    16   6     0.02  -0.02  -0.03    -0.02  -0.00   0.02    -0.01  -0.01   0.02
    17   6     0.02   0.02  -0.03    -0.02   0.00   0.02     0.01  -0.01  -0.02
    18   6     0.01   0.04  -0.03    -0.02  -0.02   0.04    -0.01   0.00  -0.03
    19   6     0.01   0.00  -0.03    -0.00   0.01   0.01     0.02   0.03  -0.03
    20   6    -0.00   0.02  -0.03     0.03  -0.00  -0.00    -0.01  -0.02   0.01
    21   6    -0.02   0.01   0.01     0.00   0.02  -0.01     0.05   0.00  -0.00
    22   6    -0.01  -0.00   0.00    -0.01  -0.01   0.01     0.03   0.05  -0.00
    23   6     0.02  -0.01   0.03    -0.03  -0.04  -0.03    -0.02  -0.01   0.03
    24   6    -0.01   0.01   0.03     0.02  -0.02   0.02    -0.03  -0.05  -0.01
    25   6    -0.01  -0.01   0.03     0.02   0.02   0.02     0.03  -0.05   0.01
    26   6     0.01  -0.04  -0.03    -0.02   0.02   0.04     0.01   0.00   0.03
    27   6     0.01  -0.00  -0.03    -0.00  -0.01   0.01    -0.02   0.03   0.03
    28   6     0.01   0.02  -0.03     0.01  -0.01  -0.00    -0.03  -0.01   0.03
    29   6     0.03  -0.02   0.02    -0.03  -0.03  -0.02    -0.03   0.00  -0.00
    30   6     0.02  -0.02  -0.02    -0.00   0.01   0.00     0.03   0.01  -0.01
    31   6     0.01   0.01  -0.03    -0.01  -0.02   0.00     0.00   0.02  -0.02
    32   6     0.02   0.01  -0.01    -0.05   0.00   0.03     0.02  -0.04   0.01
    33   6     0.02   0.02  -0.03    -0.02  -0.00   0.03    -0.02  -0.02  -0.02
    34   6     0.01   0.02   0.01     0.00   0.00  -0.02     0.04   0.01  -0.03
    35   6    -0.02   0.02   0.03     0.02  -0.01   0.01    -0.03  -0.00   0.02
    36   6    -0.02  -0.01   0.01     0.00  -0.02  -0.01    -0.05   0.00   0.00
    37   6    -0.00  -0.02  -0.03     0.03   0.00  -0.00     0.01  -0.02  -0.01
    38   6    -0.01   0.02  -0.03     0.02   0.00  -0.00     0.03  -0.01  -0.02
    39   6    -0.01   0.00   0.01    -0.02   0.01  -0.00     0.02   0.03  -0.01
    40   6    -0.01   0.01  -0.00    -0.02  -0.02   0.00    -0.01   0.01   0.02
    41   6     0.02  -0.01  -0.01    -0.05  -0.00   0.03    -0.02  -0.04  -0.01
    42   6     0.02  -0.02  -0.03    -0.02   0.01   0.03     0.02  -0.02   0.02
    43   6     0.01  -0.02   0.01     0.00  -0.00  -0.02    -0.04   0.01   0.03
    44   6    -0.03   0.00   0.01     0.04   0.00  -0.02     0.00   0.02  -0.00
    45   6    -0.04   0.00  -0.02     0.04  -0.00   0.01     0.00   0.04   0.00
    46   6    -0.01   0.04  -0.01    -0.01  -0.01   0.01    -0.04   0.01  -0.00
    47   6    -0.01   0.00   0.00    -0.01   0.01   0.01    -0.03   0.05   0.00
    48   6     0.02   0.01   0.03    -0.03   0.04  -0.03     0.02  -0.01  -0.03
    49   6     0.03   0.03   0.01    -0.04   0.02  -0.02    -0.00  -0.03  -0.02
    50   6     0.03  -0.03   0.01    -0.04  -0.02  -0.02     0.00  -0.03   0.02
    51   6    -0.01  -0.04  -0.01    -0.01   0.01   0.01     0.04   0.01   0.00
    52   6    -0.02  -0.02   0.03     0.02   0.01   0.01     0.03  -0.00  -0.02
    53   6     0.00  -0.00   0.03     0.02  -0.00  -0.02    -0.04   0.00  -0.00
    54   6     0.02   0.02  -0.02    -0.00  -0.01   0.00    -0.03   0.01   0.01
    55   6     0.01  -0.01  -0.03    -0.01   0.02   0.00    -0.00   0.02   0.02
    56   6     0.03  -0.02   0.02    -0.02  -0.01   0.01    -0.03  -0.07  -0.04
    57   6     0.03   0.02   0.02    -0.02   0.01   0.01     0.03  -0.07   0.04
    58   6     0.00   0.00   0.03     0.02   0.00  -0.02     0.04   0.00   0.00
    59   6    -0.10   0.05   0.05     0.17  -0.05  -0.00    -0.20   0.10   0.09
    60   6    -0.10  -0.05   0.05     0.17   0.05  -0.00     0.20   0.10  -0.09
    61   6     0.01  -0.02   0.01     0.01  -0.04   0.04    -0.03   0.01   0.04
    62   6     0.01   0.02   0.01     0.01   0.04   0.04     0.03   0.01  -0.04
    63   6     0.02  -0.07   0.05     0.04  -0.07   0.03     0.07  -0.02  -0.04
    64   1    -0.25  -0.10  -0.29    -0.19   0.01  -0.13     0.01   0.22   0.20
    65   1    -0.06   0.08  -0.19    -0.16  -0.04  -0.22    -0.25  -0.23  -0.17
    66   1     0.24   0.36   0.19     0.16   0.33   0.25    -0.07   0.10   0.20
    67   6     0.02   0.07   0.05     0.04   0.07   0.03    -0.07  -0.02   0.04
    68   1     0.24  -0.36   0.19     0.16  -0.33   0.25     0.06   0.11  -0.20
    69   1    -0.06  -0.08  -0.18    -0.16   0.04  -0.22     0.25  -0.23   0.17
    70   1    -0.25   0.10  -0.29    -0.19  -0.01  -0.13    -0.01   0.22  -0.20
    71   6     0.04  -0.04  -0.06    -0.11   0.06  -0.06     0.13  -0.04  -0.00
    72   1    -0.02  -0.05  -0.07    -0.07  -0.13  -0.09    -0.08   0.00  -0.04
    73   1    -0.04  -0.04  -0.00    -0.19   0.08   0.09     0.25  -0.04   0.03
    74   6     0.04   0.04  -0.06    -0.11  -0.06  -0.06    -0.13  -0.04   0.00
    75   1    -0.04   0.04  -0.00    -0.19  -0.08   0.09    -0.25  -0.04  -0.03
    76   1    -0.02   0.05  -0.07    -0.07   0.13  -0.09     0.08   0.00   0.04
                    121                    122                    123
                      A                      A                      A
 Frequencies --   1052.6850              1055.3368              1069.4082
 Red. masses --      2.4055                 1.5416                 3.4538
 Frc consts  --      1.5706                 1.0116                 2.3272
 IR Inten    --      0.0000                 0.0000                 0.0000
  Atom  AN      X      Y      Z        X      Y      Z        X      Y      Z
     1   6    -0.03  -0.00  -0.00     0.01  -0.01  -0.00    -0.05   0.01   0.02
     2   6     0.03  -0.00  -0.01    -0.01   0.00   0.00     0.02   0.01  -0.01
     3   6     0.04  -0.01   0.01    -0.01   0.01  -0.00     0.04  -0.01   0.00
     4   6    -0.00  -0.02  -0.00    -0.01   0.00  -0.00    -0.01  -0.00  -0.00
     5   6    -0.00  -0.02   0.00    -0.01   0.00   0.01    -0.01   0.00   0.00
     6   6    -0.03  -0.01   0.02     0.01  -0.00  -0.01    -0.02  -0.01   0.02
     7   6    -0.04  -0.01   0.00     0.01  -0.00  -0.01    -0.03  -0.02   0.01
     8   6     0.00   0.02   0.01     0.00  -0.00   0.00    -0.03   0.01   0.01
     9   6     0.03  -0.00  -0.00    -0.01   0.00   0.01     0.04  -0.01  -0.02
    10   6     0.02  -0.02   0.01    -0.01   0.00   0.00     0.04  -0.04  -0.03
    11   6    -0.00   0.02   0.02     0.01   0.01   0.00     0.00  -0.05   0.01
    12   6    -0.04  -0.01  -0.01    -0.01  -0.01  -0.00     0.04   0.01   0.00
    13   6    -0.03  -0.00   0.01    -0.01  -0.00   0.00     0.02  -0.01  -0.01
    14   6     0.03  -0.00   0.00     0.01   0.01  -0.00    -0.05  -0.01   0.02
    15   6     0.03  -0.01  -0.02     0.01   0.00  -0.00    -0.02   0.01   0.02
    16   6    -0.01   0.03  -0.02     0.00  -0.01  -0.01     0.02  -0.00  -0.01
    17   6     0.01   0.03   0.02     0.00   0.01  -0.01     0.02   0.00  -0.01
    18   6     0.03   0.01   0.01    -0.00   0.00   0.00     0.03   0.05  -0.04
    19   6    -0.03  -0.04   0.00     0.00   0.01  -0.00     0.01  -0.01   0.01
    20   6     0.05  -0.00   0.01     0.01  -0.00  -0.00    -0.04   0.01   0.01
    21   6    -0.02   0.01  -0.01    -0.00   0.01  -0.00    -0.03  -0.03   0.02
    22   6    -0.03  -0.02  -0.01    -0.00  -0.00   0.01     0.01  -0.01  -0.02
    23   6    -0.01  -0.01  -0.02    -0.00  -0.01   0.00     0.05   0.07   0.03
    24   6     0.01   0.04  -0.02     0.01  -0.00   0.02    -0.03   0.02  -0.02
    25   6    -0.01   0.04   0.02     0.01   0.00   0.02    -0.03  -0.02  -0.02
    26   6    -0.03   0.01  -0.01    -0.00  -0.00   0.00     0.03  -0.05  -0.04
    27   6     0.03  -0.04  -0.00     0.00  -0.01  -0.00     0.01   0.02   0.01
    28   6     0.04  -0.01  -0.00     0.01   0.00  -0.01    -0.03   0.02   0.01
    29   6     0.00   0.02  -0.02     0.01  -0.01   0.00     0.00   0.05   0.01
    30   6    -0.02  -0.03  -0.00     0.00   0.00  -0.00     0.03   0.00  -0.00
    31   6     0.02  -0.00   0.01    -0.01  -0.00  -0.00     0.05   0.04   0.01
    32   6     0.04   0.06  -0.06    -0.00  -0.01   0.02    -0.02   0.02  -0.01
    33   6     0.02  -0.02  -0.03    -0.01   0.01   0.00     0.02   0.04  -0.02
    34   6    -0.01   0.01   0.03     0.01   0.00  -0.01     0.02   0.01  -0.00
    35   6    -0.00   0.01  -0.01    -0.00  -0.00   0.00    -0.05   0.00  -0.01
    36   6     0.02   0.01   0.01    -0.00  -0.01  -0.00    -0.03   0.03   0.02
    37   6    -0.05  -0.00  -0.01     0.01   0.00  -0.00    -0.04  -0.01   0.01
    38   6    -0.00   0.02  -0.01     0.00   0.00   0.00    -0.03  -0.01   0.01
    39   6    -0.03  -0.00   0.00    -0.01  -0.00   0.01     0.04   0.01  -0.02
    40   6    -0.02  -0.02  -0.01    -0.01  -0.00   0.00     0.04   0.04  -0.03
    41   6    -0.04   0.06   0.06    -0.00   0.01   0.02    -0.02  -0.02  -0.01
    42   6    -0.02  -0.02   0.03    -0.01  -0.01   0.00     0.02  -0.04  -0.02
    43   6     0.01   0.01  -0.03     0.01  -0.00  -0.01     0.02  -0.01  -0.00
    44   6     0.00   0.03  -0.00     0.01  -0.00  -0.00    -0.02  -0.00   0.02
    45   6     0.00  -0.04   0.00     0.01   0.00   0.00    -0.02   0.00  -0.01
    46   6     0.00  -0.01  -0.01    -0.01  -0.00   0.00    -0.01   0.01  -0.01
    47   6     0.03  -0.02   0.01    -0.00   0.00   0.01     0.01   0.01  -0.02
    48   6     0.01  -0.01   0.02    -0.00   0.01   0.00     0.05  -0.07   0.03
    49   6     0.01   0.00   0.01    -0.01   0.01  -0.01     0.04  -0.03   0.02
    50   6    -0.01   0.00  -0.01    -0.01  -0.01  -0.01     0.04   0.03   0.02
    51   6    -0.00  -0.01   0.01    -0.01   0.00  -0.00    -0.01  -0.01  -0.01
    52   6    -0.00   0.01   0.01    -0.00   0.00   0.00    -0.05  -0.00  -0.01
    53   6     0.03   0.00  -0.02     0.01  -0.00  -0.00     0.00   0.01   0.01
    54   6     0.02  -0.03   0.00     0.00  -0.00  -0.00     0.03  -0.00  -0.00
    55   6    -0.02  -0.00  -0.01    -0.01   0.00  -0.00     0.05  -0.04   0.01
    56   6    -0.01   0.01  -0.00     0.02  -0.00   0.01    -0.04   0.00  -0.01
    57   6     0.01   0.01   0.00     0.02   0.00   0.01    -0.04  -0.00  -0.01
    58   6    -0.03   0.00   0.02     0.01   0.00  -0.00     0.00  -0.01   0.01
    59   6     0.08  -0.02   0.05    -0.03   0.05   0.01    -0.02  -0.20   0.03
    60   6    -0.09  -0.02  -0.05    -0.03  -0.05   0.01    -0.02   0.20   0.03
    61   6    -0.04  -0.01   0.05    -0.05   0.00   0.04    -0.03  -0.03   0.03
    62   6     0.04  -0.01  -0.05    -0.05  -0.00   0.04    -0.03   0.03   0.03
    63   6     0.07  -0.00  -0.06     0.08   0.00  -0.07     0.04  -0.00  -0.02
    64   1     0.05   0.26   0.25     0.08   0.30   0.32     0.03   0.12   0.12
    65   1    -0.26  -0.26  -0.15    -0.28  -0.29  -0.15    -0.11  -0.12  -0.06
    66   1    -0.13   0.03   0.16    -0.16   0.01   0.17    -0.04   0.06   0.11
    67   6    -0.07  -0.00   0.06     0.08  -0.00  -0.07     0.04   0.00  -0.02
    68   1     0.13   0.03  -0.15    -0.16  -0.01   0.17    -0.04  -0.06   0.11
    69   1     0.26  -0.26   0.14    -0.29   0.29  -0.15    -0.11   0.12  -0.06
    70   1    -0.05   0.25  -0.25     0.08  -0.31   0.32     0.03  -0.12   0.12
    71   6    -0.02   0.01   0.03     0.03  -0.02  -0.02    -0.01   0.08  -0.05
    72   1    -0.32   0.03  -0.04     0.16  -0.00   0.02    -0.18  -0.21  -0.15
    73   1     0.06   0.01   0.01    -0.05  -0.02  -0.05     0.32   0.11   0.31
    74   6     0.02   0.01  -0.03     0.03   0.02  -0.02    -0.01  -0.08  -0.05
    75   1    -0.06   0.01  -0.01    -0.05   0.02  -0.05     0.32  -0.11   0.31
    76   1     0.32   0.03   0.04     0.15   0.00   0.02    -0.18   0.21  -0.15
                    124                    125                    126
                      A                      A                      A
 Frequencies --   1086.9701              1090.4662              1110.9444
 Red. masses --      8.5178                 3.0046                 6.2672
 Frc consts  --      5.9294                 2.1051                 4.5573
 IR Inten    --      0.0000                 0.0000                 0.0000
  Atom  AN      X      Y      Z        X      Y      Z        X      Y      Z
     1   6     0.03   0.03  -0.02    -0.01  -0.00  -0.01    -0.04  -0.03   0.00
     2   6     0.09  -0.02   0.00     0.04  -0.00  -0.00    -0.03  -0.04  -0.06
     3   6     0.04  -0.03   0.04     0.03  -0.00   0.01     0.06  -0.02   0.01
     4   6     0.12   0.00   0.02    -0.00   0.00  -0.00     0.00  -0.04  -0.00
     5   6     0.07  -0.00  -0.07    -0.00  -0.03   0.00    -0.00   0.04  -0.00
     6   6    -0.06   0.03   0.01    -0.03  -0.01   0.02    -0.01  -0.00   0.03
     7   6     0.02   0.04   0.06    -0.04  -0.00   0.00    -0.02  -0.01  -0.01
     8   6     0.03  -0.02  -0.02     0.03   0.02   0.01    -0.06   0.03   0.09
     9   6    -0.00  -0.02  -0.02     0.02  -0.01  -0.00     0.03   0.03  -0.02
    10   6    -0.03   0.03   0.03     0.00  -0.00   0.01     0.07  -0.05  -0.03
    11   6    -0.12   0.02  -0.05    -0.01   0.01  -0.00     0.02   0.08   0.07
    12   6     0.04   0.03   0.04    -0.03  -0.00  -0.01    -0.06  -0.02  -0.01
    13   6     0.09   0.02   0.00    -0.04  -0.00   0.00     0.03  -0.04   0.06
    14   6     0.03  -0.03  -0.02     0.01  -0.00   0.01     0.04  -0.03  -0.00
    15   6    -0.06  -0.03   0.01     0.03  -0.01  -0.02     0.01  -0.00  -0.03
    16   6    -0.06   0.11   0.11    -0.01   0.03  -0.02    -0.03   0.03   0.02
    17   6    -0.06  -0.11   0.11     0.01   0.03   0.02     0.03   0.03  -0.02
    18   6    -0.02  -0.11   0.04     0.02   0.00   0.01     0.01   0.00  -0.04
    19   6    -0.03  -0.02  -0.01    -0.04  -0.05  -0.00     0.01   0.00  -0.00
    20   6    -0.02   0.00  -0.01     0.05  -0.00   0.01    -0.02  -0.04   0.07
    21   6     0.04  -0.02   0.05    -0.02   0.01   0.00     0.07  -0.00  -0.02
    22   6     0.02   0.03  -0.01    -0.02  -0.03   0.00     0.06   0.08  -0.04
    23   6    -0.02   0.04  -0.00    -0.00  -0.00  -0.02    -0.03   0.01   0.03
    24   6    -0.03  -0.01  -0.18     0.02   0.04  -0.02    -0.04  -0.05  -0.05
    25   6    -0.03   0.01  -0.18    -0.02   0.04   0.02     0.04  -0.05   0.05
    26   6    -0.02   0.11   0.04    -0.02   0.00  -0.01    -0.01   0.00   0.04
    27   6    -0.03   0.02  -0.01     0.04  -0.05   0.00    -0.01   0.00   0.00
    28   6     0.02  -0.04   0.06     0.04  -0.00  -0.00     0.02  -0.01   0.01
    29   6    -0.12  -0.02  -0.05     0.01   0.01   0.00    -0.02   0.08  -0.07
    30   6    -0.05  -0.03  -0.01    -0.00  -0.02   0.00     0.03   0.01   0.01
    31   6    -0.00  -0.01   0.01     0.03   0.02   0.01     0.01   0.01  -0.02
    32   6     0.07   0.07  -0.14     0.05   0.05  -0.04    -0.04   0.02   0.01
    33   6     0.08  -0.03  -0.08     0.01  -0.03  -0.04    -0.04  -0.06  -0.00
    34   6    -0.06  -0.05   0.07     0.01   0.01   0.01     0.05   0.01  -0.05
    35   6     0.02   0.04  -0.01    -0.01   0.01  -0.01    -0.01   0.02   0.04
    36   6     0.04   0.02   0.05     0.02   0.01  -0.00    -0.07  -0.00   0.02
    37   6    -0.02  -0.00  -0.01    -0.05  -0.00  -0.01     0.02  -0.04  -0.07
    38   6     0.03   0.02  -0.02    -0.03   0.02  -0.01     0.06   0.03  -0.09
    39   6    -0.00   0.02  -0.02    -0.02  -0.01   0.00    -0.03   0.03   0.02
    40   6    -0.03  -0.03   0.03    -0.00  -0.00  -0.01    -0.07  -0.05   0.03
    41   6     0.07  -0.06  -0.14    -0.05   0.05   0.04     0.04   0.02  -0.01
    42   6     0.08   0.03  -0.08    -0.01  -0.03   0.04     0.04  -0.06   0.00
    43   6    -0.06   0.05   0.07    -0.01   0.01  -0.01    -0.05   0.01   0.05
    44   6    -0.09   0.00   0.05     0.00   0.03  -0.00    -0.00  -0.01   0.00
    45   6    -0.08  -0.00  -0.03     0.00  -0.03   0.00    -0.00   0.03  -0.00
    46   6     0.10   0.02  -0.00     0.01  -0.01  -0.01    -0.08   0.02  -0.02
    47   6     0.02  -0.03  -0.01     0.02  -0.03  -0.00    -0.06   0.08   0.04
    48   6    -0.02  -0.04  -0.00     0.00  -0.00   0.02     0.03   0.01  -0.03
    49   6     0.06  -0.10   0.06     0.01   0.01   0.01     0.01  -0.07  -0.04
    50   6     0.06   0.10   0.06    -0.01   0.01  -0.01    -0.01  -0.07   0.04
    51   6     0.10  -0.02  -0.00    -0.01  -0.01   0.01     0.08   0.02   0.02
    52   6     0.02  -0.04  -0.01     0.01   0.01   0.01     0.01   0.02  -0.04
    53   6    -0.10   0.01   0.03     0.02   0.01  -0.03    -0.06   0.03  -0.01
    54   6    -0.05   0.03  -0.01     0.00  -0.02  -0.00    -0.03   0.01  -0.01
    55   6    -0.00   0.01   0.01    -0.03   0.02  -0.01    -0.01   0.01   0.02
    56   6    -0.07  -0.06  -0.09     0.04   0.01  -0.00    -0.07  -0.09  -0.04
    57   6    -0.07   0.06  -0.09    -0.04   0.01   0.00     0.07  -0.09   0.04
    58   6    -0.10  -0.01   0.04    -0.02   0.01   0.03     0.06   0.03   0.01
    59   6     0.04   0.12   0.21    -0.10   0.01   0.10     0.20   0.04   0.21
    60   6     0.04  -0.12   0.21     0.10   0.01  -0.10    -0.20   0.04  -0.21
    61   6    -0.06  -0.00   0.02     0.11   0.07  -0.03     0.06  -0.05  -0.06
    62   6    -0.06   0.00   0.02    -0.11   0.07   0.03    -0.06  -0.05   0.06
    63   6     0.05  -0.01  -0.01    -0.07  -0.06   0.03    -0.05   0.04   0.03
    64   1    -0.02   0.12   0.07    -0.16  -0.25  -0.31     0.06  -0.13  -0.07
    65   1    -0.12  -0.09  -0.09     0.12   0.18  -0.01     0.18   0.15   0.16
    66   1    -0.00   0.10   0.13     0.14   0.04  -0.09     0.02  -0.11  -0.16
    67   6     0.05   0.01  -0.01     0.07  -0.06  -0.03     0.05   0.04  -0.03
    68   1    -0.00  -0.10   0.13    -0.14   0.04   0.09    -0.02  -0.11   0.16
    69   1    -0.12   0.09  -0.09    -0.12   0.18   0.01    -0.18   0.15  -0.16
    70   1    -0.02  -0.12   0.07     0.16  -0.25   0.31    -0.06  -0.13   0.07
    71   6     0.06  -0.01  -0.05     0.05  -0.04  -0.04     0.01   0.03  -0.07
    72   1    -0.21  -0.08  -0.12    -0.18  -0.04  -0.10    -0.01  -0.15  -0.11
    73   1    -0.05   0.01   0.10     0.32  -0.03   0.09    -0.26   0.05   0.13
    74   6     0.06   0.01  -0.05    -0.05  -0.04   0.04    -0.01   0.03   0.07
    75   1    -0.05  -0.01   0.10    -0.32  -0.03  -0.09     0.26   0.05  -0.13
    76   1    -0.21   0.08  -0.12     0.18  -0.04   0.10     0.01  -0.15   0.11
                    127                    128                    129
                      A                      A                      A
 Frequencies --   1126.0490              1127.6562              1132.9875
 Red. masses --      9.0344                11.7653                11.9495
 Frc consts  --      6.7494                 8.8147                 9.0376
 IR Inten    --      0.0000                 0.0000                 0.0000
  Atom  AN      X      Y      Z        X      Y      Z        X      Y      Z
     1   6    -0.05  -0.00  -0.01    -0.05  -0.04   0.05    -0.11   0.12   0.14
     2   6     0.05   0.01  -0.01    -0.08   0.04  -0.01     0.16   0.12   0.08
     3   6     0.14  -0.01   0.03    -0.07  -0.01  -0.06     0.11   0.05   0.00
     4   6     0.04   0.00  -0.03     0.00  -0.12  -0.00    -0.00  -0.25  -0.00
     5   6    -0.04  -0.00  -0.01    -0.00   0.11  -0.00     0.00  -0.26  -0.00
     6   6    -0.12  -0.02   0.09    -0.03   0.01   0.08    -0.10   0.06   0.05
     7   6     0.08   0.05   0.01    -0.05  -0.06  -0.16     0.04  -0.03   0.02
     8   6     0.05  -0.03   0.04     0.20  -0.00  -0.03    -0.01  -0.04  -0.10
     9   6    -0.09   0.05   0.06     0.00   0.07   0.15    -0.02  -0.03   0.05
    10   6    -0.03   0.03  -0.06    -0.04   0.07   0.15    -0.04  -0.04  -0.10
    11   6    -0.04  -0.15  -0.00     0.10  -0.08   0.02     0.02   0.01   0.02
    12   6     0.14   0.01   0.03     0.07  -0.01   0.06    -0.11   0.05  -0.00
    13   6     0.05  -0.01  -0.01     0.08   0.04   0.01    -0.16   0.12  -0.08
    14   6    -0.05   0.00  -0.01     0.05  -0.04  -0.05     0.11   0.12  -0.14
    15   6    -0.12   0.02   0.09     0.03   0.01  -0.08     0.10   0.06  -0.05
    16   6     0.05   0.11  -0.01    -0.08   0.09   0.05     0.00  -0.00  -0.02
    17   6     0.05  -0.11  -0.01     0.08   0.09  -0.05    -0.00  -0.00   0.02
    18   6    -0.00  -0.04  -0.13     0.01  -0.02  -0.03     0.04   0.07  -0.01
    19   6    -0.03   0.01  -0.09    -0.09  -0.06  -0.15    -0.00  -0.04  -0.10
    20   6     0.02  -0.03  -0.06     0.20  -0.01  -0.04    -0.03   0.04  -0.10
    21   6     0.07   0.04  -0.04     0.02  -0.06   0.16    -0.02   0.02   0.05
    22   6     0.01   0.01   0.10    -0.02  -0.06   0.18    -0.03   0.04  -0.07
    23   6     0.06  -0.02   0.13     0.03  -0.01   0.02    -0.04  -0.07   0.02
    24   6    -0.04   0.02  -0.02    -0.01  -0.01   0.00    -0.01  -0.01  -0.03
    25   6    -0.04  -0.02  -0.02     0.01  -0.01  -0.00     0.01  -0.01   0.03
    26   6    -0.00   0.04  -0.13    -0.01  -0.02   0.03    -0.04   0.07   0.01
    27   6    -0.03  -0.01  -0.09     0.09  -0.06   0.15     0.00  -0.04   0.10
    28   6     0.08  -0.05   0.01     0.05  -0.06   0.16    -0.04  -0.03  -0.02
    29   6    -0.04   0.15  -0.00    -0.10  -0.08  -0.02    -0.02   0.01  -0.02
    30   6    -0.11  -0.06  -0.03     0.07   0.06   0.14    -0.03   0.03  -0.02
    31   6     0.00  -0.03   0.05     0.10   0.06   0.11     0.00   0.05   0.12
    32   6    -0.01   0.04   0.14    -0.03   0.02   0.03    -0.06  -0.07   0.01
    33   6    -0.02   0.17   0.01    -0.09  -0.09   0.06    -0.01  -0.02  -0.01
    34   6     0.12   0.01  -0.09     0.04   0.00  -0.08     0.10  -0.05  -0.06
    35   6    -0.06   0.01   0.02     0.08  -0.02   0.03    -0.15  -0.12  -0.07
    36   6     0.07  -0.04  -0.04    -0.02  -0.06  -0.16     0.02   0.02  -0.05
    37   6     0.02   0.03  -0.06    -0.20  -0.01   0.04     0.03   0.04   0.10
    38   6     0.05   0.03   0.04    -0.20  -0.00   0.03     0.01  -0.04   0.10
    39   6    -0.09  -0.05   0.06    -0.00   0.07  -0.15     0.02  -0.03  -0.05
    40   6    -0.03  -0.03  -0.06     0.04   0.07  -0.15     0.04  -0.04   0.10
    41   6    -0.01  -0.04   0.14     0.03   0.02  -0.03     0.06  -0.07  -0.01
    42   6    -0.02  -0.17   0.01     0.09  -0.09  -0.06     0.01  -0.02   0.01
    43   6     0.12  -0.01  -0.09    -0.04   0.00   0.08    -0.10  -0.05   0.06
    44   6     0.03   0.00   0.02     0.00  -0.14   0.00    -0.00   0.23   0.00
    45   6    -0.05  -0.00   0.02    -0.00   0.08   0.00    -0.00   0.28   0.00
    46   6    -0.14   0.02  -0.04     0.07   0.02   0.05    -0.11  -0.05   0.00
    47   6     0.01  -0.01   0.10     0.02  -0.06  -0.18     0.03   0.04   0.07
    48   6     0.06   0.02   0.13    -0.03  -0.01  -0.02     0.04  -0.07  -0.02
    49   6     0.07   0.08   0.01    -0.09   0.08  -0.01    -0.02   0.01  -0.02
    50   6     0.07  -0.08   0.01     0.09   0.08   0.01     0.02   0.01   0.02
    51   6    -0.14  -0.02  -0.04    -0.07   0.02  -0.05     0.11  -0.05  -0.00
    52   6    -0.06  -0.01   0.02    -0.08  -0.02  -0.03     0.15  -0.12   0.07
    53   6     0.03   0.01   0.00    -0.06   0.05   0.03    -0.12  -0.11   0.15
    54   6    -0.11   0.06  -0.03    -0.07   0.06  -0.14     0.03   0.03   0.02
    55   6     0.00   0.03   0.05    -0.10   0.06  -0.11    -0.00   0.05  -0.12
    56   6    -0.08   0.03  -0.13    -0.05   0.00  -0.01     0.05   0.07  -0.03
    57   6    -0.08  -0.03  -0.13     0.05   0.00   0.01    -0.05   0.07   0.03
    58   6     0.03  -0.01   0.00     0.06   0.05  -0.03     0.12  -0.11  -0.15
    59   6     0.08   0.03   0.01     0.05  -0.03   0.01     0.01  -0.00   0.01
    60   6     0.08  -0.03   0.01    -0.05  -0.03  -0.01    -0.01  -0.00  -0.01
    61   6     0.04   0.01   0.03    -0.01  -0.01  -0.00     0.00  -0.00  -0.00
    62   6     0.04  -0.01   0.03     0.01  -0.01   0.00    -0.00  -0.00   0.00
    63   6    -0.02  -0.01  -0.01     0.01   0.01  -0.00    -0.00   0.00  -0.00
    64   1     0.00  -0.03  -0.01     0.01   0.02   0.02     0.00   0.00   0.00
    65   1     0.00  -0.00   0.01    -0.00  -0.01   0.00     0.00   0.00   0.00
    66   1    -0.03  -0.07  -0.06    -0.00   0.01   0.01     0.00   0.00  -0.00
    67   6    -0.02   0.01  -0.01    -0.01   0.01   0.00     0.00   0.00   0.00
    68   1    -0.03   0.07  -0.06     0.00   0.01  -0.01    -0.00   0.00   0.00
    69   1     0.00   0.00   0.01     0.00  -0.01  -0.00    -0.00   0.00  -0.00
    70   1     0.00   0.03  -0.02    -0.01   0.02  -0.03    -0.00   0.00  -0.00
    71   6    -0.02  -0.01  -0.01    -0.00   0.02  -0.00     0.00   0.00  -0.01
    72   1     0.16   0.02   0.05     0.05  -0.02   0.00    -0.01  -0.02  -0.02
    73   1    -0.28  -0.02  -0.13    -0.08   0.02   0.02    -0.04   0.01   0.01
    74   6    -0.02   0.01  -0.01     0.00   0.02   0.00    -0.00   0.00   0.01
    75   1    -0.28   0.02  -0.13     0.08   0.02  -0.02     0.04   0.01  -0.01
    76   1     0.16  -0.02   0.05    -0.05  -0.02  -0.00     0.01  -0.02   0.02
                    130                    131                    132
                      A                      A                      A
 Frequencies --   1135.2676              1142.7942              1153.3628
 Red. masses --      9.5315                11.9101                 5.0849
 Frc consts  --      7.2378                 9.1643                 3.9853
 IR Inten    --      0.0000                 0.0000                 0.0000
  Atom  AN      X      Y      Z        X      Y      Z        X      Y      Z
     1   6     0.04   0.03   0.05    -0.02   0.08   0.12     0.06  -0.01   0.00
     2   6     0.02   0.01   0.07    -0.06  -0.09  -0.10    -0.09   0.01   0.03
     3   6     0.08   0.12   0.07     0.00  -0.10   0.00     0.01   0.08   0.02
     4   6     0.06  -0.00  -0.05     0.15   0.00   0.03     0.00  -0.00  -0.03
     5   6    -0.03  -0.00  -0.05     0.11  -0.00  -0.10    -0.05   0.00   0.00
     6   6    -0.07   0.13   0.10    -0.03   0.10   0.03     0.01   0.06   0.02
     7   6    -0.07  -0.10  -0.15    -0.03  -0.07  -0.01     0.08   0.01  -0.07
     8   6     0.01   0.04  -0.05    -0.16   0.01   0.06    -0.00  -0.02   0.01
     9   6     0.00  -0.10  -0.15    -0.01   0.06  -0.03    -0.07   0.01  -0.01
    10   6    -0.01  -0.02  -0.05     0.08   0.05   0.11    -0.01   0.01  -0.09
    11   6    -0.07   0.12  -0.03    -0.06  -0.10  -0.03     0.02  -0.04   0.01
    12   6     0.08  -0.12   0.07     0.00   0.10   0.00     0.01  -0.08   0.02
    13   6     0.02  -0.01   0.07    -0.06   0.09  -0.10    -0.09  -0.01   0.03
    14   6     0.04  -0.03   0.05    -0.02  -0.08   0.12     0.06   0.01   0.00
    15   6    -0.07  -0.13   0.10    -0.03  -0.10   0.03     0.01  -0.06   0.02
    16   6     0.02  -0.06  -0.01    -0.02  -0.11   0.03     0.01   0.00  -0.02
    17   6     0.02   0.06  -0.01    -0.02   0.11   0.03     0.01  -0.00  -0.02
    18   6     0.04   0.05  -0.01     0.08   0.14  -0.00    -0.06  -0.09   0.03
    19   6    -0.04  -0.03  -0.06    -0.01  -0.08  -0.15     0.00   0.05  -0.05
    20   6     0.01   0.04   0.04     0.17  -0.01  -0.01    -0.04  -0.01  -0.01
    21   6    -0.00  -0.11   0.17     0.05   0.05   0.02     0.09   0.00   0.02
    22   6    -0.00  -0.05   0.09    -0.05   0.08  -0.09     0.03   0.04   0.07
    23   6     0.06   0.09  -0.00    -0.08  -0.15   0.03    -0.06  -0.09  -0.02
    24   6    -0.02  -0.00  -0.02     0.01  -0.01   0.06     0.03  -0.04   0.02
    25   6    -0.02   0.00  -0.02     0.01   0.01   0.06     0.03   0.04   0.02
    26   6     0.04  -0.05  -0.01     0.08  -0.14  -0.00    -0.06   0.09   0.03
    27   6    -0.04   0.03  -0.06    -0.01   0.08  -0.15     0.00  -0.05  -0.05
    28   6    -0.07   0.10  -0.15    -0.03   0.07  -0.01     0.08  -0.01  -0.07
    29   6    -0.07  -0.12  -0.03    -0.06   0.10  -0.03     0.02   0.04   0.01
    30   6     0.06   0.09   0.12    -0.01   0.07   0.01    -0.06  -0.01   0.06
    31   6     0.02   0.01   0.02    -0.02   0.04   0.16     0.03  -0.01   0.07
    32   6    -0.04  -0.04   0.02    -0.07  -0.10  -0.04     0.07   0.08  -0.03
    33   6    -0.04  -0.08   0.04     0.02  -0.11  -0.04    -0.00   0.01   0.01
    34   6     0.05  -0.10  -0.10     0.01  -0.14  -0.03    -0.02  -0.06  -0.01
    35   6    -0.01  -0.04  -0.08     0.08   0.08   0.07     0.08  -0.01  -0.04
    36   6    -0.00   0.11   0.17     0.05  -0.05   0.02     0.09  -0.00   0.02
    37   6     0.01  -0.04   0.04     0.17   0.01  -0.01    -0.04   0.01  -0.01
    38   6     0.01  -0.04  -0.05    -0.16  -0.01   0.06    -0.00   0.02   0.01
    39   6     0.00   0.10  -0.15    -0.01  -0.06  -0.03    -0.07  -0.01  -0.01
    40   6    -0.01   0.02  -0.05     0.08  -0.05   0.11    -0.01  -0.01  -0.09
    41   6    -0.04   0.04   0.02    -0.07   0.10  -0.04     0.07  -0.08  -0.03
    42   6    -0.04   0.08   0.04     0.02   0.11  -0.04    -0.00  -0.01   0.01
    43   6     0.05   0.10  -0.10     0.01   0.14  -0.03    -0.02   0.06  -0.01
    44   6     0.08   0.00   0.01    -0.09   0.00   0.10     0.05  -0.00  -0.01
    45   6     0.01   0.00   0.06    -0.14  -0.00  -0.02     0.00   0.00   0.03
    46   6    -0.11  -0.14  -0.07     0.00   0.05  -0.01     0.00  -0.09  -0.02
    47   6    -0.00   0.05   0.09    -0.05  -0.08  -0.09     0.03  -0.04   0.07
    48   6     0.06  -0.09  -0.00    -0.08   0.15   0.03    -0.06   0.09  -0.02
    49   6     0.04  -0.10   0.01     0.04   0.10   0.02    -0.02   0.01  -0.01
    50   6     0.04   0.10   0.01     0.04  -0.10   0.02    -0.02  -0.01  -0.01
    51   6    -0.11   0.14  -0.07     0.00  -0.05  -0.01     0.00   0.09  -0.02
    52   6    -0.01   0.04  -0.08     0.08  -0.08   0.07     0.08   0.01  -0.04
    53   6    -0.02  -0.00  -0.04    -0.01   0.09  -0.12    -0.09  -0.01   0.01
    54   6     0.06  -0.09   0.12    -0.01  -0.07   0.01    -0.06   0.01   0.06
    55   6     0.02  -0.01   0.02    -0.02  -0.04   0.16     0.03   0.01   0.07
    56   6    -0.04  -0.07   0.01     0.05   0.11  -0.08     0.05   0.08   0.00
    57   6    -0.04   0.07   0.01     0.05  -0.11  -0.08     0.05  -0.08   0.00
    58   6    -0.02   0.00  -0.04    -0.01  -0.09  -0.12    -0.09   0.01   0.01
    59   6     0.04   0.06   0.02     0.01  -0.00   0.01    -0.06  -0.06  -0.03
    60   6     0.04  -0.06   0.02     0.01   0.00   0.01    -0.06   0.06  -0.03
    61   6     0.03   0.01   0.02     0.00  -0.00   0.01    -0.06  -0.02  -0.04
    62   6     0.03  -0.01   0.02     0.00   0.00   0.01    -0.06   0.02  -0.04
    63   6    -0.02  -0.01  -0.01     0.00  -0.00  -0.00     0.03   0.01   0.02
    64   1    -0.00  -0.03  -0.02    -0.00   0.00  -0.00     0.00   0.04   0.03
    65   1     0.00  -0.00   0.00    -0.01  -0.01  -0.00     0.01   0.01   0.00
    66   1    -0.03  -0.06  -0.05    -0.01  -0.01   0.00     0.04   0.10   0.08
    67   6    -0.02   0.01  -0.01     0.00   0.00  -0.00     0.03  -0.01   0.02
    68   1    -0.03   0.06  -0.05    -0.01   0.01   0.00     0.04  -0.10   0.08
    69   1     0.00   0.00   0.00    -0.01   0.01  -0.00     0.01  -0.01   0.00
    70   1    -0.00   0.03  -0.02    -0.00  -0.00  -0.00     0.00  -0.04   0.03
    71   6    -0.01  -0.02  -0.01     0.00   0.00  -0.01     0.03   0.03   0.02
    72   1     0.19   0.03   0.05    -0.05  -0.01  -0.03    -0.31  -0.02  -0.07
    73   1    -0.22  -0.03  -0.12    -0.02   0.00   0.01     0.40   0.04   0.18
    74   6    -0.01   0.02  -0.01     0.00  -0.00  -0.01     0.03  -0.03   0.02
    75   1    -0.22   0.03  -0.12    -0.02  -0.00   0.01     0.40  -0.04   0.18
    76   1     0.19  -0.03   0.05    -0.05   0.01  -0.03    -0.31   0.02  -0.07
                    133                    134                    135
                      A                      A                      A
 Frequencies --   1168.7529              1177.7598              1181.7786
 Red. masses --      6.7269                 9.6375                 6.7131
 Frc consts  --      5.4139                 7.8764                 5.5239
 IR Inten    --      0.0000                 0.0000                 0.0000
  Atom  AN      X      Y      Z        X      Y      Z        X      Y      Z
     1   6    -0.01   0.03   0.08    -0.16  -0.01   0.04     0.12   0.02  -0.03
     2   6    -0.08   0.04   0.01     0.08   0.03  -0.02    -0.03  -0.01   0.03
     3   6    -0.01   0.01  -0.03     0.13  -0.03   0.01    -0.09   0.04  -0.01
     4   6     0.00  -0.10  -0.00    -0.06  -0.00  -0.01    -0.00   0.00  -0.00
     5   6     0.00   0.05  -0.00    -0.04   0.00   0.03    -0.00  -0.07   0.00
     6   6     0.08   0.03  -0.05    -0.07  -0.08   0.06     0.04   0.03  -0.06
     7   6     0.06  -0.03  -0.03    -0.00  -0.00  -0.01     0.03   0.03   0.03
     8   6    -0.10  -0.03  -0.06     0.06  -0.02  -0.05     0.01  -0.03  -0.04
     9   6    -0.02   0.03   0.04     0.03   0.02   0.08    -0.08   0.01   0.01
    10   6     0.01   0.01   0.02    -0.03   0.03   0.05    -0.06   0.08   0.01
    11   6     0.09  -0.02   0.05    -0.00  -0.16   0.00     0.06  -0.01   0.02
    12   6     0.01   0.01   0.03     0.13   0.03   0.01     0.09   0.04   0.01
    13   6     0.08   0.04  -0.01     0.08  -0.03  -0.02     0.03  -0.01  -0.03
    14   6     0.01   0.03  -0.08    -0.16   0.01   0.04    -0.12   0.02   0.03
    15   6    -0.08   0.03   0.05    -0.07   0.08   0.06    -0.04   0.03   0.06
    16   6     0.02  -0.08   0.05     0.09  -0.04  -0.11     0.07  -0.04  -0.07
    17   6    -0.02  -0.08  -0.05     0.09   0.04  -0.11    -0.07  -0.04   0.07
    18   6    -0.03   0.05  -0.03     0.01   0.06  -0.12    -0.01  -0.02   0.08
    19   6     0.10   0.10  -0.01    -0.00   0.00   0.03    -0.02  -0.01  -0.01
    20   6    -0.02   0.04  -0.07    -0.05   0.02  -0.02     0.07   0.01  -0.06
    21   6    -0.04  -0.01   0.03    -0.05  -0.00  -0.01    -0.04   0.04  -0.02
    22   6    -0.03  -0.03   0.00    -0.01  -0.04   0.03    -0.09  -0.08   0.03
    23   6     0.04  -0.01   0.04     0.00   0.00  -0.07    -0.02  -0.06  -0.06
    24   6    -0.01  -0.07   0.11     0.03   0.02   0.20     0.07   0.12   0.05
    25   6     0.01  -0.07  -0.11     0.03  -0.02   0.20    -0.07   0.12  -0.05
    26   6     0.03   0.05   0.03     0.01  -0.06  -0.12     0.01  -0.02  -0.08
    27   6    -0.10   0.10   0.01    -0.00  -0.00   0.03     0.02  -0.01   0.01
    28   6    -0.06  -0.03   0.03    -0.00   0.00  -0.01    -0.03   0.03  -0.03
    29   6    -0.09  -0.02  -0.05    -0.00   0.16   0.00    -0.06  -0.01  -0.02
    30   6    -0.09  -0.02   0.01     0.02   0.02   0.06     0.01  -0.02  -0.03
    31   6    -0.07  -0.09   0.00     0.00   0.00  -0.02     0.03   0.03  -0.03
    32   6     0.08   0.07  -0.06     0.03  -0.00  -0.12    -0.03  -0.02  -0.02
    33   6     0.05   0.04  -0.04    -0.03  -0.19   0.04     0.01  -0.01  -0.04
    34   6    -0.07  -0.04   0.06    -0.09   0.01   0.05     0.07   0.01  -0.02
    35   6     0.08  -0.04  -0.04     0.13  -0.03  -0.02    -0.11  -0.02  -0.04
    36   6     0.04  -0.01  -0.03    -0.05   0.00  -0.01     0.04   0.04   0.02
    37   6     0.02   0.04   0.07    -0.05  -0.02  -0.02    -0.07   0.01   0.06
    38   6     0.10  -0.03   0.06     0.06   0.02  -0.05    -0.01  -0.03   0.04
    39   6     0.02   0.03  -0.04     0.03  -0.02   0.08     0.08   0.01  -0.01
    40   6    -0.01   0.01  -0.02    -0.03  -0.03   0.05     0.06   0.08  -0.01
    41   6    -0.08   0.07   0.06     0.03   0.00  -0.12     0.03  -0.02   0.02
    42   6    -0.05   0.04   0.04    -0.03   0.19   0.04    -0.01  -0.01   0.04
    43   6     0.07  -0.04  -0.06    -0.09  -0.01   0.05    -0.07   0.01   0.02
    44   6    -0.00   0.03   0.00     0.07  -0.00  -0.05     0.00   0.09  -0.00
    45   6    -0.00   0.04  -0.00     0.08   0.00   0.01     0.00  -0.06  -0.00
    46   6     0.09  -0.03   0.04     0.03  -0.06   0.03     0.03  -0.01  -0.01
    47   6     0.03  -0.03  -0.00    -0.01   0.04   0.03     0.09  -0.08  -0.03
    48   6    -0.04  -0.01  -0.04     0.00  -0.00  -0.07     0.02  -0.06   0.06
    49   6    -0.08   0.07   0.00    -0.13   0.04  -0.07     0.06   0.04   0.06
    50   6     0.08   0.07   0.00    -0.13  -0.04  -0.07    -0.06   0.04  -0.06
    51   6    -0.09  -0.03  -0.04     0.03   0.06   0.03    -0.03  -0.01   0.01
    52   6    -0.08  -0.04   0.04     0.13   0.03  -0.02     0.11  -0.02   0.04
    53   6     0.05  -0.02   0.02    -0.01  -0.04  -0.00     0.02  -0.03  -0.03
    54   6     0.09  -0.02  -0.01     0.02  -0.02   0.06    -0.01  -0.02   0.03
    55   6     0.07  -0.09  -0.00     0.00  -0.00  -0.02    -0.03   0.03   0.03
    56   6    -0.06  -0.03  -0.05    -0.12  -0.04  -0.12    -0.11  -0.11  -0.01
    57   6     0.06  -0.03   0.05    -0.12   0.04  -0.12     0.11  -0.11   0.01
    58   6    -0.05  -0.02  -0.02    -0.01   0.04  -0.00    -0.02  -0.03   0.03
    59   6     0.11   0.06   0.09     0.07   0.10   0.08     0.00  -0.02   0.14
    60   6    -0.11   0.06  -0.09     0.07  -0.10   0.08    -0.00  -0.02  -0.14
    61   6     0.06   0.03  -0.01    -0.04  -0.00  -0.01    -0.00  -0.12  -0.03
    62   6    -0.06   0.03   0.01    -0.04   0.00  -0.01     0.00  -0.12   0.03
    63   6    -0.03  -0.02   0.01     0.02   0.00   0.01    -0.00   0.08   0.01
    64   1    -0.06  -0.09  -0.11    -0.01   0.03   0.01     0.16   0.02   0.12
    65   1     0.02   0.05  -0.02    -0.00   0.00  -0.01     0.11   0.04   0.17
    66   1     0.05   0.02  -0.03     0.02   0.05   0.05    -0.05  -0.11  -0.08
    67   6     0.03  -0.02  -0.01     0.02  -0.00   0.01     0.00   0.08  -0.01
    68   1    -0.05   0.02   0.03     0.02  -0.05   0.05     0.05  -0.11   0.08
    69   1    -0.02   0.05   0.02     0.00  -0.00  -0.01    -0.11   0.04  -0.17
    70   1     0.06  -0.09   0.11    -0.01  -0.03   0.01    -0.16   0.02  -0.12
    71   6     0.02  -0.04   0.00     0.03   0.00   0.01     0.05   0.08  -0.04
    72   1    -0.42   0.03  -0.09    -0.29   0.01  -0.07     0.16  -0.14  -0.05
    73   1     0.15  -0.03   0.02     0.07   0.01   0.08    -0.20   0.10   0.20
    74   6    -0.02  -0.04  -0.00     0.03  -0.00   0.01    -0.05   0.08   0.04
    75   1    -0.15  -0.03  -0.02     0.07  -0.01   0.08     0.20   0.10  -0.20
    76   1     0.42   0.03   0.09    -0.29  -0.01  -0.07    -0.16  -0.14   0.05
                    136                    137                    138
                      A                      A                      A
 Frequencies --   1200.0538              1217.4028              1219.1691
 Red. masses --      3.5272                11.6936                 4.2095
 Frc consts  --      2.9928                10.2110                 3.6864
 IR Inten    --      0.0000                 0.0000                 0.0000
  Atom  AN      X      Y      Z        X      Y      Z        X      Y      Z
     1   6    -0.01  -0.01   0.00     0.01  -0.01  -0.00     0.06   0.00  -0.01
     2   6    -0.02   0.02   0.01    -0.03   0.04   0.03    -0.04   0.00   0.01
     3   6     0.01   0.02  -0.00     0.02   0.04  -0.01    -0.06   0.02  -0.02
     4   6    -0.04  -0.00  -0.01    -0.08   0.00  -0.01    -0.00  -0.00  -0.00
     5   6    -0.03   0.00   0.02    -0.04   0.00   0.04    -0.00  -0.02   0.00
     6   6     0.02  -0.01  -0.01     0.09  -0.02  -0.06     0.03   0.02  -0.03
     7   6     0.03   0.01  -0.01    -0.14  -0.05  -0.04    -0.01   0.00  -0.00
     8   6    -0.01  -0.01  -0.01     0.22   0.00  -0.07     0.00   0.00  -0.00
     9   6    -0.01   0.00   0.01    -0.10   0.02   0.06     0.01  -0.01  -0.01
    10   6     0.01  -0.02  -0.03    -0.06   0.07  -0.01    -0.01   0.00  -0.01
    11   6     0.03  -0.05   0.01     0.06  -0.22   0.02     0.05  -0.02   0.02
    12   6     0.01  -0.02  -0.00     0.02  -0.04  -0.01     0.06   0.02   0.02
    13   6    -0.02  -0.02   0.01    -0.03  -0.04   0.03     0.04   0.00  -0.01
    14   6    -0.01   0.01   0.00     0.01   0.01  -0.00    -0.06   0.00   0.01
    15   6     0.02   0.01  -0.01     0.09   0.02  -0.06    -0.03   0.02   0.03
    16   6     0.01  -0.01  -0.02    -0.01  -0.19  -0.01     0.04  -0.01  -0.04
    17   6     0.01   0.01  -0.02    -0.01   0.19  -0.01    -0.04  -0.01   0.04
    18   6    -0.03  -0.04   0.02     0.03   0.08   0.12    -0.01  -0.03   0.05
    19   6     0.02   0.03   0.01    -0.04  -0.07   0.03    -0.01  -0.01  -0.00
    20   6    -0.03   0.01  -0.01     0.22   0.01  -0.05    -0.00   0.00   0.00
    21   6     0.01  -0.00   0.01    -0.12  -0.05   0.10    -0.00  -0.00   0.01
    22   6     0.01   0.02  -0.01    -0.05  -0.07  -0.02    -0.00  -0.00   0.01
    23   6    -0.04  -0.03  -0.03    -0.01   0.09  -0.12    -0.03  -0.03  -0.04
    24   6     0.02  -0.02   0.03     0.01  -0.04  -0.01     0.03   0.07  -0.01
    25   6     0.02   0.02   0.03     0.01   0.04  -0.01    -0.03   0.07   0.01
    26   6    -0.03   0.04   0.02     0.03  -0.08   0.12     0.01  -0.03  -0.05
    27   6     0.02  -0.03   0.01    -0.04   0.07   0.03     0.01  -0.01   0.00
    28   6     0.03  -0.01  -0.01    -0.14   0.05  -0.04     0.01   0.00   0.00
    29   6     0.03   0.05   0.01     0.06   0.22   0.02    -0.05  -0.02  -0.02
    30   6     0.01   0.01   0.01    -0.11  -0.02  -0.00    -0.01  -0.01  -0.01
    31   6     0.04   0.03   0.03    -0.05  -0.06   0.03    -0.00   0.00  -0.01
    32   6    -0.00   0.01  -0.04     0.03   0.05   0.07    -0.04  -0.03   0.05
    33   6     0.03  -0.00  -0.03     0.04   0.20  -0.03    -0.04  -0.02   0.04
    34   6    -0.02  -0.02   0.02     0.03  -0.05  -0.01     0.05   0.02  -0.04
    35   6     0.03   0.01  -0.01     0.01   0.02   0.00    -0.06   0.01   0.01
    36   6     0.01   0.00   0.01    -0.12   0.05   0.10     0.00  -0.00  -0.01
    37   6    -0.03  -0.01  -0.01     0.22  -0.01  -0.05     0.00   0.00  -0.00
    38   6    -0.01   0.01  -0.01     0.22  -0.00  -0.07    -0.00   0.00   0.00
    39   6    -0.01  -0.00   0.01    -0.10  -0.02   0.06    -0.01  -0.01   0.01
    40   6     0.01   0.02  -0.03    -0.06  -0.07  -0.01     0.01   0.00   0.01
    41   6    -0.00  -0.00  -0.04     0.03  -0.05   0.07     0.04  -0.03  -0.05
    42   6     0.03   0.00  -0.03     0.04  -0.20  -0.03     0.04  -0.02  -0.04
    43   6    -0.02   0.02   0.02     0.03   0.05  -0.01    -0.05   0.02   0.04
    44   6    -0.02  -0.00   0.01    -0.07  -0.00   0.05    -0.00  -0.01   0.00
    45   6    -0.03   0.00  -0.01    -0.06   0.00  -0.02    -0.00  -0.02  -0.00
    46   6     0.05  -0.01   0.01     0.10   0.02   0.01    -0.05   0.02  -0.02
    47   6     0.01  -0.02  -0.01    -0.05   0.07  -0.02     0.00  -0.00  -0.01
    48   6    -0.04   0.03  -0.03    -0.01  -0.09  -0.12     0.03  -0.03   0.04
    49   6    -0.01  -0.01   0.00     0.01  -0.20   0.01     0.06  -0.02   0.02
    50   6    -0.01   0.01   0.00     0.01   0.20   0.01    -0.06  -0.02  -0.02
    51   6     0.05   0.01   0.01     0.10  -0.02   0.01     0.05   0.02   0.02
    52   6     0.03  -0.01  -0.01     0.01  -0.02   0.00     0.06   0.01  -0.01
    53   6    -0.05   0.01   0.01    -0.04   0.04  -0.02    -0.05   0.00   0.01
    54   6     0.01  -0.01   0.01    -0.11   0.02  -0.00     0.01  -0.01   0.01
    55   6     0.04  -0.03   0.03    -0.05   0.06   0.03     0.00   0.00   0.01
    56   6    -0.01  -0.01  -0.01    -0.01   0.06  -0.08    -0.05  -0.03  -0.02
    57   6    -0.01   0.01  -0.01    -0.01  -0.06  -0.08     0.05  -0.03   0.02
    58   6    -0.05  -0.01   0.01    -0.04  -0.04  -0.02     0.05   0.00  -0.01
    59   6    -0.04  -0.09   0.07     0.02  -0.00  -0.00     0.13   0.09  -0.04
    60   6    -0.04   0.09   0.07     0.02   0.00  -0.00    -0.13   0.09   0.04
    61   6     0.15   0.01   0.15    -0.03   0.00  -0.04    -0.01   0.17  -0.01
    62   6     0.15  -0.01   0.15    -0.03  -0.00  -0.04     0.01   0.17   0.01
    63   6    -0.06  -0.03  -0.06     0.01   0.01   0.01     0.01  -0.10   0.01
    64   1     0.00  -0.08  -0.06    -0.00   0.01   0.00    -0.23  -0.02  -0.16
    65   1    -0.06  -0.08  -0.01     0.01   0.02   0.00    -0.12  -0.01  -0.23
    66   1    -0.13  -0.23  -0.17     0.03   0.04   0.03     0.11   0.18   0.12
    67   6    -0.06   0.03  -0.06     0.01  -0.01   0.01    -0.01  -0.10  -0.01
    68   1    -0.13   0.23  -0.17     0.03  -0.04   0.03    -0.11   0.18  -0.12
    69   1    -0.06   0.08  -0.01     0.01  -0.02   0.00     0.12  -0.01   0.23
    70   1     0.00   0.08  -0.06    -0.00  -0.01   0.00     0.23  -0.02   0.16
    71   6    -0.05  -0.04  -0.08     0.01   0.02   0.02    -0.04  -0.12   0.01
    72   1     0.24  -0.10  -0.02     0.05   0.02   0.03    -0.13   0.14   0.04
    73   1    -0.41  -0.05  -0.16    -0.08   0.01  -0.00    -0.08  -0.13  -0.29
    74   6    -0.05   0.04  -0.08     0.01  -0.01   0.02     0.04  -0.12  -0.01
    75   1    -0.41   0.05  -0.16    -0.08  -0.01  -0.00     0.08  -0.13   0.29
    76   1     0.24   0.10  -0.02     0.05  -0.02   0.03     0.13   0.14  -0.04
                    139                    140                    141
                      A                      A                      A
 Frequencies --   1232.1118              1232.7237              1233.9361
 Red. masses --     11.9573                 8.3312                11.6422
 Frc consts  --     10.6951                 7.4592                10.4441
 IR Inten    --      0.0000                 0.0000                 0.0000
  Atom  AN      X      Y      Z        X      Y      Z        X      Y      Z
     1   6     0.01   0.09   0.11     0.02  -0.04  -0.07    -0.00  -0.09  -0.12
     2   6    -0.08  -0.02  -0.06     0.04   0.07   0.08    -0.04  -0.06  -0.09
     3   6    -0.14  -0.09  -0.07     0.03   0.08   0.02    -0.07  -0.12  -0.04
     4   6     0.10   0.00   0.04    -0.11   0.00  -0.02     0.00   0.21   0.00
     5   6     0.11   0.00  -0.06    -0.08   0.00   0.07    -0.00   0.27   0.00
     6   6     0.03   0.08  -0.03     0.05  -0.06  -0.06     0.04  -0.14  -0.05
     7   6     0.10  -0.01  -0.03     0.07   0.07   0.11    -0.04   0.06   0.13
     8   6    -0.04  -0.07  -0.13    -0.05  -0.04  -0.08     0.02  -0.01  -0.02
     9   6    -0.02   0.10   0.17    -0.07  -0.03  -0.03     0.09   0.07   0.12
    10   6    -0.03   0.08   0.13    -0.05   0.03  -0.07     0.04   0.01   0.15
    11   6     0.09  -0.17   0.03     0.02  -0.06   0.00     0.01   0.01   0.01
    12   6    -0.14   0.09  -0.07     0.03  -0.08   0.02     0.07  -0.12   0.04
    13   6    -0.08   0.02  -0.06     0.04  -0.07   0.08     0.04  -0.06   0.09
    14   6     0.01  -0.09   0.11     0.02   0.04  -0.07     0.00  -0.09   0.12
    15   6     0.03  -0.08  -0.03     0.05   0.06  -0.06    -0.04  -0.14   0.05
    16   6    -0.05   0.11   0.05    -0.02   0.09   0.02    -0.01   0.02   0.00
    17   6    -0.05  -0.11   0.05    -0.02  -0.09   0.02     0.01   0.02  -0.00
    18   6    -0.05  -0.08   0.06    -0.03  -0.05  -0.02     0.01   0.02  -0.01
    19   6     0.06   0.08  -0.11     0.07   0.06   0.08     0.01  -0.01   0.16
    20   6    -0.02   0.06  -0.15    -0.03   0.04  -0.08     0.03  -0.01   0.00
    21   6    -0.03  -0.08   0.15    -0.07   0.03  -0.02    -0.09   0.06  -0.10
    22   6    -0.05  -0.08   0.10    -0.06  -0.04  -0.08    -0.05  -0.01  -0.15
    23   6     0.04   0.08  -0.02     0.04   0.04   0.03     0.01   0.02   0.01
    24   6    -0.01  -0.00  -0.06    -0.01   0.01  -0.02    -0.00   0.01   0.00
    25   6    -0.01   0.00  -0.06    -0.01  -0.01  -0.02     0.00   0.01  -0.00
    26   6    -0.05   0.08   0.06    -0.03   0.05  -0.02    -0.01   0.02   0.01
    27   6     0.06  -0.08  -0.11     0.07  -0.06   0.08    -0.02  -0.01  -0.16
    28   6     0.10   0.01  -0.03     0.07  -0.07   0.11     0.04   0.06  -0.13
    29   6     0.09   0.17   0.03     0.02   0.06   0.00    -0.01   0.01  -0.01
    30   6     0.10   0.00  -0.04     0.07   0.09   0.13    -0.03   0.06   0.15
    31   6     0.04   0.07  -0.07     0.07   0.07   0.10     0.03   0.01   0.14
    32   6    -0.06  -0.07   0.00    -0.05  -0.07  -0.02     0.00   0.01  -0.00
    33   6    -0.04  -0.12   0.03    -0.05  -0.13   0.04    -0.01   0.01   0.01
    34   6    -0.00   0.08   0.01     0.07  -0.10  -0.10     0.05  -0.12  -0.07
    35   6    -0.06  -0.03  -0.04     0.05   0.08   0.09    -0.04  -0.09  -0.11
    36   6    -0.03   0.08   0.15    -0.07  -0.03  -0.02     0.09   0.06   0.10
    37   6    -0.02  -0.06  -0.15    -0.03  -0.04  -0.08    -0.03  -0.01  -0.00
    38   6    -0.04   0.07  -0.13    -0.05   0.04  -0.08    -0.02  -0.01   0.02
    39   6    -0.02  -0.10   0.17    -0.07   0.03  -0.03    -0.09   0.07  -0.12
    40   6    -0.03  -0.08   0.13    -0.05  -0.03  -0.07    -0.04   0.01  -0.15
    41   6    -0.06   0.07   0.00    -0.05   0.07  -0.02    -0.00   0.01   0.00
    42   6    -0.04   0.12   0.03    -0.05   0.13   0.04     0.01   0.01  -0.01
    43   6    -0.00  -0.08   0.01     0.07   0.10  -0.10    -0.05  -0.12   0.07
    44   6     0.09   0.00  -0.06    -0.07   0.00   0.08     0.00   0.20   0.00
    45   6     0.10   0.00   0.03    -0.13   0.00  -0.01     0.00   0.28   0.00
    46   6    -0.11  -0.05  -0.05    -0.01   0.07  -0.00    -0.05  -0.14  -0.03
    47   6    -0.05   0.08   0.10    -0.06   0.04  -0.08     0.05  -0.01   0.15
    48   6     0.04  -0.08  -0.02     0.04  -0.04   0.03    -0.01   0.02  -0.01
    49   6     0.06  -0.12   0.02     0.04  -0.05   0.02    -0.01   0.03   0.00
    50   6     0.06   0.12   0.02     0.04   0.05   0.02     0.01   0.03  -0.00
    51   6    -0.11   0.05  -0.05    -0.01  -0.07  -0.00     0.05  -0.14   0.03
    52   6    -0.06   0.03  -0.04     0.05  -0.08   0.09     0.04  -0.09   0.11
    53   6     0.02  -0.07   0.08     0.03   0.03  -0.09     0.00  -0.06   0.10
    54   6     0.10  -0.00  -0.04     0.07  -0.09   0.13     0.03   0.06  -0.15
    55   6     0.04  -0.07  -0.07     0.07  -0.07   0.10    -0.03   0.01  -0.14
    56   6     0.04   0.09  -0.05     0.02   0.03  -0.00     0.00   0.00   0.01
    57   6     0.04  -0.09  -0.05     0.02  -0.03  -0.00    -0.00   0.00  -0.01
    58   6     0.02   0.07   0.08     0.03  -0.03  -0.09    -0.00  -0.06  -0.10
    59   6    -0.00  -0.02  -0.01     0.01  -0.01   0.01    -0.00   0.01   0.01
    60   6    -0.00   0.02  -0.01     0.01   0.01   0.01     0.00   0.01  -0.01
    61   6     0.01  -0.00   0.01    -0.07   0.00  -0.10    -0.01   0.03  -0.00
    62   6     0.01   0.00   0.01    -0.07  -0.00  -0.10     0.01   0.03   0.00
    63   6    -0.00  -0.00  -0.01     0.02   0.01   0.04     0.00  -0.02  -0.00
    64   1     0.00  -0.00   0.00    -0.01   0.03   0.02    -0.03   0.01  -0.01
    65   1    -0.01  -0.01  -0.00     0.04   0.06   0.01    -0.02  -0.00  -0.04
    66   1    -0.01  -0.01  -0.01     0.08   0.11   0.07     0.01   0.04   0.03
    67   6    -0.00   0.00  -0.01     0.02  -0.01   0.04    -0.00  -0.02   0.00
    68   1    -0.01   0.01  -0.01     0.08  -0.11   0.07    -0.01   0.04  -0.03
    69   1    -0.01   0.01  -0.00     0.04  -0.06   0.01     0.02  -0.00   0.04
    70   1     0.00   0.00   0.00    -0.01  -0.03   0.02     0.03   0.01   0.01
    71   6    -0.02  -0.00  -0.01     0.02   0.03   0.03    -0.00  -0.01  -0.00
    72   1     0.02  -0.02  -0.01     0.34   0.05   0.12     0.06   0.02   0.02
    73   1     0.03  -0.00   0.01    -0.08   0.03   0.01    -0.07  -0.02  -0.05
    74   6    -0.02   0.00  -0.01     0.02  -0.03   0.03     0.00  -0.01   0.00
    75   1     0.03   0.00   0.01    -0.08  -0.03   0.01     0.07  -0.02   0.05
    76   1     0.02   0.02  -0.01     0.34  -0.05   0.12    -0.06   0.02  -0.02
                    142                    143                    144
                      A                      A                      A
 Frequencies --   1243.7775              1248.9835              1253.3146
 Red. masses --      2.0950                 5.2132                 6.9676
 Frc consts  --      1.9095                 4.7914                 6.4485
 IR Inten    --      0.0000                 0.0000                 0.0000
  Atom  AN      X      Y      Z        X      Y      Z        X      Y      Z
     1   6    -0.03   0.01   0.03     0.02   0.04  -0.00     0.04   0.07   0.04
     2   6     0.00   0.00  -0.01     0.04  -0.07  -0.04     0.02  -0.01   0.02
     3   6     0.00  -0.02  -0.01     0.04  -0.01   0.04    -0.08   0.01  -0.00
     4   6     0.00  -0.00   0.01     0.00   0.10   0.00    -0.00   0.10   0.00
     5   6     0.02   0.00  -0.01     0.00  -0.12  -0.00     0.00  -0.08   0.00
     6   6    -0.00   0.01   0.01    -0.05  -0.00   0.02     0.05   0.02  -0.06
     7   6     0.01  -0.01  -0.02     0.06   0.04   0.09    -0.07  -0.05   0.03
     8   6    -0.02   0.00   0.01    -0.12  -0.01   0.05    -0.10   0.02  -0.03
     9   6     0.03  -0.00   0.01    -0.05   0.01  -0.05     0.06  -0.07  -0.12
    10   6     0.02  -0.02  -0.00     0.04   0.01   0.03     0.01   0.04   0.11
    11   6     0.00  -0.01   0.00    -0.08   0.05  -0.02     0.01  -0.05  -0.03
    12   6     0.00   0.02  -0.01    -0.04  -0.01  -0.04     0.08   0.01   0.00
    13   6     0.00  -0.00  -0.01    -0.04  -0.07   0.04    -0.02  -0.01  -0.02
    14   6    -0.03  -0.01   0.03    -0.02   0.04   0.00    -0.04   0.07  -0.04
    15   6    -0.00  -0.01   0.01     0.05  -0.00  -0.02    -0.05   0.02   0.06
    16   6     0.01  -0.01  -0.02     0.00   0.00  -0.01     0.08  -0.07  -0.06
    17   6     0.01   0.01  -0.02    -0.00   0.00   0.01    -0.08  -0.07   0.06
    18   6    -0.01  -0.01   0.01     0.04   0.06  -0.03     0.02   0.06   0.05
    19   6     0.01   0.01  -0.01    -0.01  -0.03  -0.09     0.06   0.01   0.01
    20   6    -0.02  -0.00   0.01     0.12  -0.01  -0.05     0.11   0.02   0.03
    21   6     0.02  -0.01   0.02     0.04   0.02   0.04    -0.04  -0.09   0.14
    22   6     0.02   0.03   0.00    -0.05  -0.00  -0.01     0.01   0.06  -0.12
    23   6    -0.04  -0.03  -0.02    -0.01  -0.06   0.04    -0.05  -0.02  -0.03
    24   6     0.01  -0.01   0.02    -0.00  -0.02   0.03     0.00   0.01  -0.02
    25   6     0.01   0.01   0.02     0.00  -0.02  -0.03    -0.00   0.01   0.02
    26   6    -0.01   0.01   0.01    -0.04   0.06   0.03    -0.02   0.06  -0.05
    27   6     0.01  -0.01  -0.01     0.01  -0.03   0.09    -0.06   0.01  -0.01
    28   6     0.01   0.01  -0.02    -0.06   0.04  -0.09     0.07  -0.05  -0.03
    29   6     0.00   0.01   0.00     0.08   0.05   0.02    -0.01  -0.05   0.03
    30   6     0.01  -0.01  -0.02     0.05   0.03   0.07    -0.06  -0.04   0.05
    31   6     0.01   0.01  -0.01     0.00  -0.02  -0.09     0.05   0.00   0.01
    32   6    -0.02  -0.00   0.00     0.03   0.04  -0.01     0.04   0.07   0.02
    33   6     0.02   0.03  -0.03    -0.00   0.00   0.01    -0.07  -0.05   0.07
    34   6    -0.01   0.01   0.02    -0.03  -0.00   0.00     0.01   0.01  -0.04
    35   6    -0.01  -0.01  -0.02     0.02  -0.06  -0.04     0.06  -0.01   0.03
    36   6     0.02   0.01   0.02    -0.04   0.02  -0.04     0.04  -0.09  -0.14
    37   6    -0.02   0.00   0.01    -0.12  -0.01   0.05    -0.11   0.02  -0.03
    38   6    -0.02  -0.00   0.01     0.12  -0.01  -0.05     0.10   0.02   0.03
    39   6     0.03   0.00   0.01     0.05   0.01   0.05    -0.06  -0.07   0.12
    40   6     0.02   0.02  -0.00    -0.04   0.01  -0.03    -0.01   0.04  -0.11
    41   6    -0.02   0.00   0.00    -0.03   0.04   0.01    -0.04   0.07  -0.02
    42   6     0.02  -0.03  -0.03     0.00   0.00  -0.01     0.07  -0.05  -0.07
    43   6    -0.01  -0.01   0.02     0.03  -0.00  -0.00    -0.01   0.01   0.04
    44   6     0.00   0.00  -0.00     0.00  -0.09  -0.00     0.00  -0.11  -0.00
    45   6     0.00  -0.00   0.00     0.00   0.08   0.00    -0.00   0.13   0.00
    46   6     0.02  -0.02  -0.00     0.06  -0.01   0.03    -0.12   0.01  -0.01
    47   6     0.02  -0.03   0.00     0.05  -0.00   0.01    -0.01   0.06   0.12
    48   6    -0.04   0.03  -0.02     0.01  -0.06  -0.04     0.05  -0.02   0.03
    49   6    -0.00   0.00   0.01    -0.08   0.06  -0.02     0.02  -0.05  -0.03
    50   6    -0.00  -0.00   0.01     0.08   0.06   0.02    -0.02  -0.05   0.03
    51   6     0.02   0.02  -0.00    -0.06  -0.01  -0.03     0.12   0.01   0.01
    52   6    -0.01   0.01  -0.02    -0.02  -0.06   0.04    -0.06  -0.01  -0.03
    53   6    -0.03   0.00   0.02    -0.00   0.03  -0.01    -0.05   0.07  -0.03
    54   6     0.01   0.01  -0.02    -0.05   0.03  -0.07     0.06  -0.04  -0.05
    55   6     0.01  -0.01  -0.01    -0.00  -0.02   0.09    -0.05   0.00  -0.01
    56   6    -0.03  -0.03  -0.00    -0.02  -0.08   0.04    -0.01   0.02  -0.00
    57   6    -0.03   0.03  -0.00     0.02  -0.08  -0.04     0.01   0.02   0.00
    58   6    -0.03  -0.00   0.02     0.00   0.03   0.01     0.05   0.07   0.03
    59   6     0.01  -0.05   0.05    -0.02  -0.01   0.04    -0.01  -0.01  -0.06
    60   6     0.01   0.05   0.05     0.02  -0.01  -0.04     0.01  -0.01   0.06
    61   6    -0.07   0.01  -0.11    -0.04   0.08  -0.00     0.03  -0.08   0.02
    62   6    -0.07  -0.01  -0.11     0.04   0.08   0.00    -0.03  -0.08  -0.02
    63   6     0.02   0.01   0.04     0.01  -0.04  -0.00    -0.01   0.04  -0.00
    64   1    -0.01   0.02   0.02    -0.10   0.03  -0.04     0.10  -0.01   0.05
    65   1     0.05   0.07   0.01    -0.06  -0.02  -0.11     0.05   0.00   0.10
    66   1     0.08   0.11   0.06     0.02   0.08   0.08    -0.04  -0.09  -0.07
    67   6     0.02  -0.01   0.04    -0.01  -0.04   0.00     0.01   0.04   0.00
    68   1     0.08  -0.11   0.06    -0.02   0.08  -0.08     0.04  -0.09   0.07
    69   1     0.05  -0.07   0.01     0.06  -0.02   0.11    -0.05   0.00  -0.10
    70   1    -0.01  -0.02   0.02     0.10   0.03   0.04    -0.10  -0.01  -0.05
    71   6     0.01   0.04   0.03    -0.04  -0.03  -0.02     0.02   0.04   0.03
    72   1     0.58   0.03   0.18     0.39   0.02   0.10    -0.24  -0.02  -0.05
    73   1    -0.22   0.03  -0.03    -0.28  -0.04  -0.16     0.32   0.04   0.15
    74   6     0.01  -0.04   0.03     0.04  -0.03   0.02    -0.02   0.04  -0.03
    75   1    -0.21  -0.03  -0.03     0.28  -0.04   0.16    -0.32   0.04  -0.15
    76   1     0.58  -0.03   0.18    -0.39   0.02  -0.10     0.24  -0.02   0.05
                    145                    146                    147
                      A                      A                      A
 Frequencies --   1255.1825              1259.5512              1268.8496
 Red. masses --     11.7191                 3.1201                 7.4793
 Frc consts  --     10.8782                 2.9164                 7.0947
 IR Inten    --      0.0000                 0.0000                 0.0000
  Atom  AN      X      Y      Z        X      Y      Z        X      Y      Z
     1   6     0.10  -0.07  -0.09     0.04  -0.02  -0.05     0.08   0.03  -0.05
     2   6    -0.09  -0.08  -0.04    -0.02  -0.02  -0.01     0.05  -0.00   0.01
     3   6     0.09   0.09   0.08    -0.01  -0.00   0.00    -0.08  -0.02  -0.02
     4   6     0.12   0.00  -0.04     0.00   0.03  -0.00     0.05   0.00   0.02
     5   6    -0.07  -0.00  -0.03    -0.00  -0.04  -0.00     0.05  -0.00  -0.02
     6   6    -0.10   0.11   0.15    -0.04  -0.00   0.02    -0.03  -0.04  -0.02
     7   6     0.06   0.03  -0.04     0.05   0.05   0.05    -0.00   0.04   0.09
     8   6    -0.05  -0.01   0.03     0.00  -0.01   0.03     0.01  -0.01   0.03
     9   6    -0.07   0.03  -0.04    -0.04   0.03   0.02    -0.05   0.01  -0.00
    10   6     0.03   0.06   0.10     0.01  -0.02  -0.04    -0.02   0.01  -0.05
    11   6    -0.11   0.06  -0.05    -0.01   0.01   0.00    -0.02   0.07  -0.02
    12   6     0.09  -0.09   0.08     0.01  -0.00  -0.00    -0.08   0.02  -0.02
    13   6    -0.09   0.08  -0.04     0.02  -0.02   0.01     0.05   0.00   0.01
    14   6     0.10   0.07  -0.09    -0.04  -0.02   0.05     0.08  -0.03  -0.05
    15   6    -0.10  -0.11   0.15     0.04  -0.00  -0.02    -0.03   0.04  -0.02
    16   6     0.07   0.02  -0.07    -0.00   0.04  -0.03    -0.05   0.07   0.10
    17   6     0.07  -0.02  -0.07     0.00   0.04   0.03    -0.05  -0.07   0.10
    18   6    -0.05  -0.09  -0.08    -0.00  -0.05   0.01     0.09   0.12  -0.12
    19   6     0.04   0.09   0.09    -0.04  -0.03  -0.04    -0.08  -0.10  -0.11
    20   6     0.07   0.00  -0.01    -0.00  -0.01  -0.04     0.05   0.00  -0.07
    21   6    -0.08  -0.02  -0.02     0.04   0.02  -0.01    -0.03   0.02  -0.00
    22   6    -0.02  -0.12   0.12    -0.00  -0.00   0.04    -0.06  -0.10   0.11
    23   6     0.04   0.12  -0.09    -0.01  -0.02   0.00     0.08   0.08   0.00
    24   6     0.01   0.01   0.06     0.00   0.04  -0.05    -0.01   0.06   0.06
    25   6     0.01  -0.01   0.06    -0.00   0.04   0.05    -0.01  -0.06   0.06
    26   6    -0.05   0.09  -0.08     0.00  -0.05  -0.01     0.09  -0.12  -0.12
    27   6     0.04  -0.09   0.09     0.04  -0.03   0.04    -0.08   0.10  -0.11
    28   6     0.06  -0.03  -0.04    -0.05   0.05  -0.05    -0.00  -0.04   0.09
    29   6    -0.11  -0.06  -0.05     0.01   0.01  -0.00    -0.02  -0.07  -0.02
    30   6     0.04   0.03  -0.06     0.05   0.05   0.04    -0.04  -0.02   0.01
    31   6     0.00   0.05   0.11    -0.06  -0.05  -0.04    -0.01  -0.03   0.03
    32   6    -0.07  -0.10  -0.01     0.01  -0.02   0.01     0.06   0.08  -0.05
    33   6     0.08   0.05  -0.08     0.01   0.04   0.02     0.01   0.01  -0.01
    34   6    -0.07   0.10   0.12    -0.05  -0.01   0.03    -0.07  -0.03   0.04
    35   6    -0.10  -0.07  -0.04     0.00  -0.03  -0.02     0.16  -0.01  -0.00
    36   6    -0.08   0.02  -0.02    -0.04   0.02   0.01    -0.03  -0.02  -0.00
    37   6     0.07  -0.00  -0.01     0.00  -0.01   0.04     0.05  -0.00  -0.07
    38   6    -0.05   0.01   0.03    -0.00  -0.01  -0.03     0.01   0.01   0.03
    39   6    -0.07  -0.03  -0.04     0.04   0.03  -0.02    -0.05  -0.01  -0.00
    40   6     0.03  -0.06   0.10    -0.01  -0.02   0.04    -0.02  -0.01  -0.05
    41   6    -0.07   0.10  -0.01    -0.01  -0.02  -0.01     0.06  -0.08  -0.05
    42   6     0.08  -0.05  -0.08    -0.01   0.04  -0.02     0.01  -0.01  -0.01
    43   6    -0.07  -0.10   0.12     0.05  -0.01  -0.03    -0.07   0.02   0.04
    44   6    -0.11  -0.00   0.00    -0.00  -0.06  -0.00     0.09   0.00  -0.04
    45   6     0.07   0.00  -0.05     0.00   0.07  -0.00     0.02   0.00   0.02
    46   6     0.14   0.12   0.10    -0.02  -0.01   0.00    -0.01  -0.02   0.01
    47   6    -0.02   0.12   0.12     0.00  -0.00  -0.04    -0.06   0.10   0.11
    48   6     0.04  -0.12  -0.09     0.01  -0.02  -0.00     0.08  -0.08   0.00
    49   6    -0.11  -0.01  -0.05    -0.01   0.01  -0.01    -0.08   0.01  -0.06
    50   6    -0.11   0.01  -0.05     0.01   0.01   0.01    -0.08  -0.01  -0.06
    51   6     0.14  -0.12   0.10     0.02  -0.01  -0.00    -0.01   0.02   0.01
    52   6    -0.10   0.07  -0.04    -0.00  -0.03   0.02     0.16   0.01  -0.00
    53   6     0.08   0.07  -0.08    -0.05  -0.00   0.04    -0.07  -0.02   0.03
    54   6     0.04  -0.03  -0.06    -0.05   0.05  -0.04    -0.04   0.02   0.01
    55   6     0.00  -0.05   0.11     0.06  -0.05   0.04    -0.01   0.03   0.03
    56   6     0.08   0.12  -0.03    -0.02  -0.02  -0.00     0.09   0.06   0.06
    57   6     0.08  -0.12  -0.03     0.02  -0.02   0.00     0.09  -0.06   0.06
    58   6     0.08  -0.07  -0.08     0.05  -0.00  -0.04    -0.07   0.02   0.03
    59   6    -0.01  -0.02  -0.01     0.04   0.06  -0.08    -0.07  -0.12   0.04
    60   6    -0.01   0.02  -0.01    -0.04   0.06   0.08    -0.07   0.12   0.04
    61   6    -0.01   0.00  -0.02     0.05  -0.06   0.01     0.01   0.00  -0.02
    62   6    -0.01  -0.00  -0.02    -0.05  -0.06  -0.01     0.01  -0.00  -0.02
    63   6     0.01   0.00   0.01    -0.02   0.03   0.00    -0.00  -0.00   0.00
    64   1    -0.00   0.00  -0.00     0.07  -0.04   0.01    -0.00  -0.01  -0.01
    65   1     0.01   0.01   0.00     0.04   0.01   0.08     0.00   0.01  -0.00
    66   1     0.02   0.02   0.01    -0.02  -0.07  -0.08     0.01  -0.00  -0.01
    67   6     0.01  -0.00   0.01     0.02   0.03  -0.00    -0.00   0.00   0.00
    68   1     0.02  -0.02   0.01     0.02  -0.07   0.08     0.01   0.00  -0.01
    69   1     0.01  -0.01   0.00    -0.04   0.01  -0.08     0.00  -0.01  -0.00
    70   1    -0.00  -0.00  -0.00    -0.07  -0.04  -0.01    -0.00   0.01  -0.01
    71   6     0.00   0.01   0.00     0.03   0.01   0.04    -0.02   0.01  -0.01
    72   1     0.10   0.00   0.03    -0.47   0.02  -0.09     0.42  -0.03   0.09
    73   1    -0.03   0.01  -0.00     0.36   0.02   0.11    -0.14   0.01  -0.04
    74   6     0.00  -0.01   0.00    -0.03   0.01  -0.04    -0.02  -0.01  -0.01
    75   1    -0.03  -0.01  -0.00    -0.36   0.02  -0.11    -0.14  -0.01  -0.04
    76   1     0.10  -0.00   0.03     0.47   0.02   0.09     0.42   0.03   0.09
                    148                    149                    150
                      A                      A                      A
 Frequencies --   1273.8056              1275.2027              1284.2123
 Red. masses --      8.7171                 9.5857                 7.4901
 Frc consts  --      8.3335                 9.1840                 7.2780
 IR Inten    --      0.0000                 0.0000                 0.0000
  Atom  AN      X      Y      Z        X      Y      Z        X      Y      Z
     1   6    -0.08   0.01   0.06    -0.10  -0.00   0.01    -0.01  -0.04  -0.01
     2   6    -0.04   0.02  -0.02     0.15   0.01   0.01    -0.08   0.04   0.01
     3   6     0.12  -0.07  -0.00     0.04  -0.04   0.00     0.14   0.01   0.02
     4   6    -0.00  -0.02   0.00    -0.07  -0.00   0.01    -0.00  -0.16  -0.00
     5   6     0.00   0.19   0.00     0.02  -0.00   0.01     0.00   0.11   0.00
     6   6     0.11  -0.07  -0.09    -0.03  -0.07  -0.01     0.12   0.02  -0.07
     7   6    -0.03  -0.04  -0.03     0.06   0.04   0.11    -0.06  -0.03  -0.01
     8   6    -0.05   0.02   0.08    -0.17  -0.03  -0.03     0.10  -0.00  -0.01
     9   6     0.03   0.02   0.01    -0.02  -0.01  -0.03    -0.08   0.06   0.06
    10   6     0.10  -0.11  -0.05     0.03  -0.03   0.00     0.04  -0.05  -0.07
    11   6    -0.06   0.03  -0.02    -0.07   0.12  -0.03    -0.03   0.03   0.01
    12   6    -0.12  -0.07   0.00     0.04   0.04   0.00    -0.14   0.01  -0.02
    13   6     0.04   0.02   0.02     0.15  -0.01   0.01     0.08   0.04  -0.01
    14   6     0.08   0.01  -0.06    -0.10   0.00   0.01     0.01  -0.04   0.01
    15   6    -0.11  -0.07   0.09    -0.03   0.07  -0.01    -0.12   0.02   0.07
    16   6     0.02  -0.06   0.05     0.01   0.09  -0.02     0.05  -0.02  -0.06
    17   6    -0.02  -0.06  -0.05     0.01  -0.09  -0.02    -0.05  -0.02   0.06
    18   6     0.02   0.11   0.01    -0.02  -0.01  -0.12    -0.04  -0.07   0.08
    19   6     0.02  -0.00  -0.06     0.09   0.08   0.00     0.04   0.04   0.01
    20   6     0.08  -0.03   0.02     0.14   0.03  -0.07     0.08   0.00  -0.04
    21   6     0.03   0.06  -0.05     0.01  -0.05   0.15    -0.07  -0.04   0.04
    22   6    -0.04   0.00  -0.01    -0.06  -0.01  -0.06     0.03   0.02  -0.02
    23   6    -0.05  -0.17  -0.02    -0.11  -0.06  -0.14    -0.05  -0.03  -0.06
    24   6     0.07   0.04   0.22     0.05  -0.03   0.19     0.03   0.08  -0.04
    25   6    -0.07   0.04  -0.22     0.05   0.03   0.19    -0.03   0.08   0.04
    26   6    -0.02   0.11  -0.01    -0.02   0.01  -0.12     0.04  -0.07  -0.08
    27   6    -0.02  -0.00   0.06     0.09  -0.08   0.00    -0.04   0.04  -0.01
    28   6     0.03  -0.04   0.03     0.06  -0.04   0.11     0.06  -0.03   0.01
    29   6     0.06   0.03   0.02    -0.07  -0.12  -0.03     0.03   0.03  -0.01
    30   6     0.07   0.02   0.01     0.02  -0.01  -0.05     0.08   0.05   0.01
    31   6     0.05   0.05  -0.03    -0.04  -0.03  -0.03    -0.08  -0.07  -0.05
    32   6    -0.03  -0.04   0.04    -0.04  -0.02   0.11     0.06   0.06  -0.04
    33   6    -0.05  -0.02   0.06     0.04   0.13  -0.04     0.04   0.02  -0.04
    34   6     0.06   0.06  -0.03     0.03  -0.04  -0.02    -0.13  -0.02   0.07
    35   6    -0.12  -0.04  -0.03     0.00   0.02  -0.03     0.04  -0.03  -0.01
    36   6    -0.03   0.06   0.05     0.01   0.05   0.15     0.07  -0.04  -0.04
    37   6    -0.08  -0.03  -0.02     0.14  -0.03  -0.07    -0.08   0.00   0.04
    38   6     0.05   0.02  -0.08    -0.17   0.03  -0.03    -0.10  -0.00   0.01
    39   6    -0.03   0.02  -0.01    -0.02   0.01  -0.03     0.08   0.06  -0.06
    40   6    -0.10  -0.11   0.05     0.03   0.03   0.00    -0.04  -0.05   0.07
    41   6     0.03  -0.04  -0.04    -0.04   0.02   0.11    -0.06   0.06   0.04
    42   6     0.05  -0.02  -0.06     0.04  -0.13  -0.04    -0.04   0.02   0.04
    43   6    -0.06   0.06   0.03     0.03   0.04  -0.02     0.13  -0.02  -0.07
    44   6     0.00  -0.04  -0.00     0.02   0.00   0.01    -0.00  -0.12  -0.00
    45   6    -0.00  -0.14  -0.00    -0.04   0.00   0.01     0.00   0.15   0.00
    46   6     0.07   0.06   0.03     0.02  -0.07  -0.04    -0.16  -0.01  -0.03
    47   6     0.04   0.00   0.01    -0.06   0.01  -0.06    -0.03   0.02   0.02
    48   6     0.05  -0.17   0.02    -0.11   0.06  -0.14     0.05  -0.03   0.06
    49   6     0.04   0.07   0.08     0.05  -0.14   0.04     0.07  -0.03   0.02
    50   6    -0.04   0.07  -0.08     0.05   0.14   0.04    -0.07  -0.03  -0.02
    51   6    -0.07   0.06  -0.03     0.02   0.07  -0.04     0.16  -0.01   0.03
    52   6     0.12  -0.04   0.03     0.00  -0.02  -0.03    -0.04  -0.03   0.01
    53   6    -0.05  -0.01   0.01    -0.11  -0.01   0.07    -0.06   0.04   0.01
    54   6    -0.07   0.02  -0.01     0.02   0.01  -0.05    -0.08   0.05  -0.01
    55   6    -0.05   0.05   0.03    -0.04   0.03  -0.03     0.08  -0.07   0.05
    56   6     0.07   0.07   0.00     0.04  -0.00   0.05     0.05   0.02   0.01
    57   6    -0.07   0.07  -0.00     0.04   0.00   0.05    -0.05   0.02  -0.01
    58   6     0.05  -0.01  -0.01    -0.11   0.01   0.07     0.06   0.04  -0.01
    59   6     0.01   0.02  -0.09     0.01   0.05  -0.08    -0.05  -0.06   0.07
    60   6    -0.01   0.02   0.09     0.01  -0.05  -0.08     0.05  -0.06  -0.07
    61   6     0.04  -0.04   0.03     0.01  -0.01   0.02    -0.01   0.03   0.02
    62   6    -0.04  -0.04  -0.03     0.01   0.01   0.02     0.01   0.03  -0.02
    63   6    -0.01   0.02  -0.01    -0.00  -0.00  -0.01     0.00  -0.01  -0.01
    64   1     0.05  -0.02   0.01     0.01  -0.00   0.00    -0.03   0.02  -0.01
    65   1     0.01  -0.01   0.05    -0.01  -0.02   0.00    -0.03  -0.02  -0.03
    66   1    -0.04  -0.08  -0.06    -0.01  -0.01  -0.00    -0.03  -0.01   0.02
    67   6     0.01   0.02   0.01    -0.00   0.00  -0.01    -0.00  -0.01   0.01
    68   1     0.04  -0.08   0.06    -0.01   0.01  -0.00     0.03  -0.01  -0.02
    69   1    -0.01  -0.01  -0.05    -0.01   0.02   0.00     0.03  -0.02   0.03
    70   1    -0.05  -0.02  -0.01     0.01   0.00   0.00     0.03   0.02   0.01
    71   6    -0.00   0.01   0.03    -0.01  -0.01   0.00    -0.03   0.01  -0.02
    72   1    -0.17   0.01  -0.02    -0.26   0.01  -0.06     0.40  -0.02   0.08
    73   1     0.31   0.01   0.06     0.19  -0.01   0.01    -0.18  -0.00  -0.06
    74   6     0.00   0.01  -0.03    -0.01   0.01   0.00     0.03   0.01   0.02
    75   1    -0.31   0.01  -0.06     0.19   0.01   0.01     0.18  -0.00   0.06
    76   1     0.17   0.01   0.02    -0.26  -0.01  -0.06    -0.40  -0.02  -0.08
                    151                    152                    153
                      A                      A                      A
 Frequencies --   1296.6760              1302.5763              1306.9332
 Red. masses --     10.0643                 2.0071                11.7922
 Frc consts  --      9.9701                 2.0065                11.8673
 IR Inten    --      0.0000                 0.0000                 0.0000
  Atom  AN      X      Y      Z        X      Y      Z        X      Y      Z
     1   6     0.05  -0.09  -0.11    -0.00   0.00  -0.00     0.09  -0.06  -0.11
     2   6    -0.11  -0.08  -0.08     0.02   0.01   0.01    -0.10   0.04   0.06
     3   6     0.06  -0.00   0.03    -0.01  -0.01  -0.00     0.13   0.13   0.06
     4   6     0.11  -0.00  -0.02     0.00   0.01  -0.00    -0.10   0.00  -0.05
     5   6    -0.06  -0.00  -0.00    -0.00   0.02   0.00    -0.19  -0.00   0.11
     6   6    -0.08   0.00   0.09     0.00  -0.01  -0.01     0.11  -0.07  -0.10
     7   6     0.05   0.07   0.05    -0.03  -0.01   0.00     0.00   0.07   0.18
     8   6     0.01  -0.01   0.00     0.03   0.00   0.00    -0.06   0.00   0.02
     9   6     0.01   0.08   0.10    -0.01  -0.00  -0.01    -0.01  -0.06  -0.14
    10   6     0.06  -0.03   0.05    -0.01   0.00  -0.02     0.06   0.01   0.07
    11   6    -0.06   0.11  -0.00    -0.00   0.00  -0.00    -0.01  -0.10  -0.01
    12   6     0.06   0.00   0.03     0.01  -0.01   0.00     0.13  -0.13   0.06
    13   6    -0.11   0.08  -0.08    -0.02   0.01  -0.01    -0.10  -0.04   0.06
    14   6     0.05   0.09  -0.11     0.00   0.00   0.00     0.09   0.06  -0.11
    15   6    -0.08  -0.00   0.09    -0.00  -0.01   0.01     0.11   0.07  -0.10
    16   6     0.08  -0.23  -0.06     0.00  -0.01   0.00    -0.04  -0.08   0.08
    17   6     0.08   0.23  -0.06    -0.00  -0.01  -0.00    -0.04   0.08   0.08
    18   6     0.00  -0.00   0.00     0.01   0.03  -0.01     0.05   0.04  -0.02
    19   6    -0.05  -0.04   0.10    -0.00  -0.01   0.02    -0.04  -0.07  -0.08
    20   6    -0.02  -0.01   0.00     0.02  -0.00   0.00     0.05  -0.00  -0.03
    21   6     0.02   0.08  -0.09    -0.01  -0.00   0.00     0.08  -0.06   0.15
    22   6    -0.08  -0.03  -0.06     0.01   0.02  -0.03    -0.01   0.06  -0.07
    23   6     0.01  -0.00   0.01    -0.00  -0.01   0.01    -0.04  -0.04   0.00
    24   6    -0.01  -0.12  -0.01    -0.00  -0.01   0.01    -0.00  -0.01   0.00
    25   6    -0.01   0.12  -0.01     0.00  -0.01  -0.01    -0.00   0.01   0.00
    26   6     0.00   0.00   0.00    -0.01   0.03   0.01     0.05  -0.04  -0.02
    27   6    -0.05   0.04   0.10     0.00  -0.01  -0.02    -0.04   0.07  -0.08
    28   6     0.05  -0.07   0.05     0.03  -0.01  -0.00     0.00  -0.07   0.18
    29   6    -0.06  -0.11  -0.00     0.00   0.00   0.00    -0.01   0.10  -0.01
    30   6    -0.03  -0.07  -0.08     0.03   0.01  -0.01    -0.04  -0.07  -0.15
    31   6     0.04   0.03  -0.08    -0.00   0.01  -0.01     0.00   0.04   0.11
    32   6    -0.01   0.02   0.01    -0.01  -0.02  -0.01    -0.02  -0.02  -0.05
    33   6    -0.05  -0.11   0.03     0.01   0.01  -0.01     0.01  -0.10  -0.03
    34   6     0.04  -0.01  -0.06    -0.02   0.01   0.02    -0.09   0.14   0.12
    35   6     0.11   0.09   0.08     0.00  -0.02  -0.01    -0.09  -0.05  -0.06
    36   6     0.02  -0.08  -0.09     0.01  -0.00  -0.00     0.08   0.06   0.15
    37   6    -0.02   0.01   0.00    -0.02  -0.00  -0.00     0.05   0.00  -0.03
    38   6     0.01   0.01   0.00    -0.03   0.00  -0.00    -0.06  -0.00   0.02
    39   6     0.01  -0.08   0.10     0.01  -0.00   0.01    -0.01   0.06  -0.14
    40   6     0.06   0.03   0.05     0.01   0.00   0.02     0.06  -0.01   0.07
    41   6    -0.01  -0.02   0.01     0.01  -0.02   0.01    -0.02   0.02  -0.05
    42   6    -0.05   0.11   0.03    -0.01   0.01   0.01     0.01   0.10  -0.03
    43   6     0.04   0.01  -0.06     0.02   0.01  -0.02    -0.09  -0.14   0.12
    44   6     0.10   0.00  -0.03     0.00  -0.05  -0.00     0.09   0.00  -0.09
    45   6    -0.07   0.00   0.03     0.00   0.01   0.00     0.19  -0.00   0.02
    46   6    -0.11   0.00  -0.04    -0.00   0.01   0.01    -0.14  -0.07  -0.05
    47   6    -0.08   0.03  -0.06    -0.01   0.02   0.03    -0.01  -0.06  -0.07
    48   6     0.01   0.00   0.01     0.00  -0.01  -0.01    -0.04   0.04   0.00
    49   6     0.09  -0.22   0.01    -0.00  -0.00  -0.00     0.07   0.05   0.05
    50   6     0.09   0.22   0.01     0.00  -0.00   0.00     0.07  -0.05   0.05
    51   6    -0.11  -0.00  -0.04     0.00   0.01  -0.01    -0.14   0.07  -0.05
    52   6     0.11  -0.09   0.08    -0.00  -0.02   0.01    -0.09   0.05  -0.06
    53   6    -0.07  -0.07   0.11     0.00   0.00  -0.01     0.08  -0.04   0.03
    54   6    -0.03   0.07  -0.08    -0.03   0.01   0.01    -0.04   0.07  -0.15
    55   6     0.04  -0.03  -0.08     0.00   0.01   0.01     0.00  -0.04   0.11
    56   6    -0.01   0.01  -0.02     0.00   0.00   0.00    -0.04  -0.00  -0.05
    57   6    -0.01  -0.01  -0.02    -0.00   0.00  -0.00    -0.04   0.01  -0.05
    58   6    -0.07   0.07   0.11    -0.00   0.00   0.01     0.08   0.04   0.03
    59   6    -0.01  -0.03   0.03    -0.02  -0.02  -0.02     0.01  -0.00   0.03
    60   6    -0.01   0.03   0.03     0.02  -0.02   0.02     0.01   0.00   0.03
    61   6     0.01  -0.01  -0.01    -0.08  -0.00  -0.14    -0.01   0.00  -0.01
    62   6     0.01   0.01  -0.01     0.08  -0.00   0.14    -0.01  -0.00  -0.01
    63   6    -0.00  -0.00  -0.00     0.02  -0.01   0.04     0.00   0.00   0.00
    64   1     0.01  -0.00   0.02    -0.01   0.03   0.05    -0.01   0.00  -0.00
    65   1     0.01   0.01   0.01     0.07   0.09   0.00     0.00   0.01  -0.00
    66   1     0.01   0.02   0.00     0.14   0.20   0.10     0.00   0.00   0.00
    67   6    -0.00   0.00  -0.00    -0.02  -0.01  -0.04     0.00  -0.00   0.00
    68   1     0.01  -0.02   0.00    -0.14   0.20  -0.10     0.00  -0.00   0.00
    69   1     0.01  -0.01   0.01    -0.07   0.09  -0.00     0.00  -0.01  -0.00
    70   1     0.01   0.00   0.02     0.01   0.03  -0.05    -0.01  -0.00  -0.00
    71   6    -0.04   0.00  -0.01     0.06   0.01  -0.02     0.02   0.01   0.00
    72   1     0.25  -0.02   0.06    -0.46  -0.04  -0.16     0.00   0.00   0.00
    73   1     0.14   0.00   0.02    -0.36   0.02   0.03    -0.10   0.01  -0.00
    74   6    -0.04  -0.00  -0.01    -0.06   0.01   0.02     0.02  -0.01   0.00
    75   1     0.14  -0.00   0.02     0.36   0.02  -0.03    -0.10  -0.01  -0.00
    76   1     0.25   0.02   0.05     0.46  -0.04   0.16    -0.00  -0.00   0.00
                    154                    155                    156
                      A                      A                      A
 Frequencies --   1310.9936              1314.8514              1315.9057
 Red. masses --      8.3284                 9.2010                 9.6799
 Frc consts  --      8.4336                 9.3722                 9.8757
 IR Inten    --      0.0000                 0.0000                 0.0000
  Atom  AN      X      Y      Z        X      Y      Z        X      Y      Z
     1   6    -0.01   0.04   0.06    -0.09  -0.09  -0.04    -0.07  -0.02   0.01
     2   6    -0.12  -0.05  -0.06    -0.01   0.01  -0.01     0.15  -0.03   0.00
     3   6     0.02  -0.03  -0.00     0.15   0.03   0.05    -0.02   0.06   0.03
     4   6     0.00   0.10   0.00    -0.00  -0.13  -0.00    -0.02   0.00   0.00
     5   6     0.00  -0.09  -0.00     0.00   0.07  -0.00     0.08  -0.00  -0.04
     6   6     0.04   0.02  -0.04     0.03   0.01   0.01    -0.06   0.02   0.06
     7   6     0.11   0.02  -0.03     0.09   0.06   0.07    -0.02  -0.01  -0.01
     8   6    -0.12   0.00   0.06    -0.10  -0.04  -0.05     0.02  -0.01  -0.10
     9   6     0.13   0.00   0.01    -0.06   0.05   0.04    -0.03  -0.03  -0.04
    10   6     0.05  -0.04   0.08     0.06  -0.01   0.03    -0.07   0.13   0.15
    11   6     0.03  -0.03   0.01    -0.13   0.05  -0.05    -0.07  -0.01  -0.06
    12   6    -0.02  -0.03   0.00    -0.15   0.03  -0.05    -0.02  -0.06   0.03
    13   6     0.12  -0.05   0.06     0.01   0.01   0.01     0.15   0.03   0.00
    14   6     0.01   0.04  -0.06     0.09  -0.09   0.04    -0.07   0.02   0.01
    15   6    -0.04   0.02   0.04    -0.03   0.01  -0.01    -0.06  -0.02   0.06
    16   6     0.02   0.03  -0.04    -0.03   0.06  -0.00     0.03   0.00  -0.05
    17   6    -0.02   0.03   0.04     0.03   0.06   0.00     0.03  -0.00  -0.05
    18   6    -0.04  -0.09   0.07    -0.07  -0.15  -0.01    -0.02  -0.03  -0.01
    19   6    -0.02   0.00  -0.13     0.09   0.10  -0.02     0.03   0.03   0.11
    20   6    -0.12  -0.00   0.00     0.08   0.04  -0.10     0.03  -0.01   0.09
    21   6     0.12   0.02  -0.02    -0.07  -0.06   0.11     0.00  -0.02   0.03
    22   6     0.03  -0.00   0.13    -0.09  -0.10   0.01    -0.00   0.06  -0.13
    23   6    -0.06  -0.09  -0.05     0.06   0.16  -0.03    -0.02  -0.04   0.03
    24   6     0.04   0.10  -0.03    -0.01  -0.00  -0.03    -0.00  -0.01  -0.01
    25   6    -0.04   0.10   0.03     0.01  -0.00   0.03    -0.00   0.01  -0.01
    26   6     0.04  -0.09  -0.07     0.07  -0.15   0.01    -0.02   0.03  -0.01
    27   6     0.02   0.00   0.13    -0.09   0.10   0.02     0.03  -0.03   0.11
    28   6    -0.11   0.02   0.03    -0.09   0.06  -0.07    -0.02   0.01  -0.01
    29   6    -0.03  -0.03  -0.01     0.13   0.05   0.05    -0.07   0.01  -0.06
    30   6    -0.10   0.01   0.07    -0.05  -0.05  -0.01    -0.01   0.02   0.04
    31   6    -0.00  -0.03   0.09     0.04   0.01  -0.07    -0.11  -0.12  -0.10
    32   6     0.07   0.09  -0.04     0.03   0.07   0.05     0.13   0.16  -0.08
    33   6    -0.01  -0.02   0.02    -0.09  -0.04   0.10    -0.04  -0.00   0.08
    34   6    -0.02  -0.04   0.01     0.11  -0.03  -0.10    -0.05  -0.04  -0.00
    35   6     0.05   0.05   0.06    -0.06   0.09   0.07    -0.07   0.01   0.01
    36   6    -0.12   0.02   0.02     0.07  -0.06  -0.11     0.00   0.02   0.03
    37   6     0.12  -0.00  -0.00    -0.08   0.04   0.10     0.03   0.01   0.09
    38   6     0.12   0.00  -0.06     0.10  -0.04   0.05     0.02   0.01  -0.10
    39   6    -0.13   0.00  -0.01     0.06   0.05  -0.04    -0.03   0.03  -0.04
    40   6    -0.05  -0.04  -0.08    -0.06  -0.01  -0.03    -0.07  -0.13   0.15
    41   6    -0.07   0.09   0.04    -0.03   0.07  -0.05     0.13  -0.16  -0.08
    42   6     0.01  -0.02  -0.02     0.09  -0.04  -0.10    -0.04   0.00   0.08
    43   6     0.02  -0.04  -0.01    -0.11  -0.03   0.10    -0.05   0.04  -0.00
    44   6     0.00   0.12   0.00    -0.00   0.12   0.00    -0.00  -0.00  -0.01
    45   6    -0.00  -0.07  -0.00     0.00  -0.05  -0.00     0.12   0.00   0.01
    46   6    -0.04  -0.00  -0.02     0.02  -0.02  -0.03    -0.10  -0.04  -0.04
    47   6    -0.03  -0.00  -0.13     0.09  -0.10  -0.01    -0.00  -0.06  -0.13
    48   6     0.06  -0.09   0.05    -0.06   0.16   0.03    -0.02   0.04   0.03
    49   6     0.02   0.03   0.01     0.02  -0.06  -0.02     0.06   0.03   0.04
    50   6    -0.02   0.03  -0.01    -0.02  -0.06   0.02     0.06  -0.03   0.04
    51   6     0.04  -0.00   0.02    -0.02  -0.02   0.03    -0.10   0.04  -0.04
    52   6    -0.05   0.05  -0.06     0.06   0.09  -0.07    -0.07  -0.01   0.01
    53   6    -0.06  -0.05   0.10     0.01   0.00  -0.02     0.14  -0.03  -0.06
    54   6     0.10   0.01  -0.07     0.05  -0.05   0.01    -0.01  -0.02   0.04
    55   6     0.00  -0.03  -0.09    -0.04   0.01   0.07    -0.11   0.12  -0.10
    56   6     0.08   0.10   0.00    -0.01  -0.07   0.05     0.14   0.16  -0.01
    57   6    -0.08   0.10  -0.00     0.01  -0.07  -0.05     0.14  -0.16  -0.01
    58   6     0.06  -0.05  -0.10    -0.01   0.00   0.02     0.14   0.03  -0.06
    59   6    -0.08  -0.09   0.02    -0.02  -0.00  -0.09    -0.08  -0.14   0.04
    60   6     0.08  -0.09  -0.02     0.02  -0.00   0.09    -0.08   0.14   0.04
    61   6    -0.07  -0.00  -0.08    -0.04  -0.02  -0.07     0.01   0.00   0.00
    62   6     0.07  -0.00   0.08     0.04  -0.02   0.07     0.01  -0.00   0.00
    63   6     0.02  -0.01   0.02     0.01  -0.00   0.02    -0.00  -0.00  -0.00
    64   1    -0.00   0.04   0.05     0.01   0.02   0.04    -0.00  -0.01  -0.01
    65   1     0.05   0.05   0.01     0.05   0.05   0.02    -0.01  -0.00  -0.01
    66   1     0.07   0.13   0.08     0.07   0.09   0.04     0.00  -0.02  -0.02
    67   6    -0.02  -0.01  -0.02    -0.01  -0.00  -0.02    -0.00   0.00  -0.00
    68   1    -0.07   0.13  -0.08    -0.07   0.09  -0.04     0.00   0.02  -0.02
    69   1    -0.05   0.05  -0.01    -0.05   0.05  -0.02    -0.01   0.00  -0.01
    70   1     0.00   0.04  -0.05    -0.01   0.02  -0.04    -0.00   0.01  -0.01
    71   6     0.02   0.03  -0.03     0.02   0.01   0.00    -0.02   0.01  -0.01
    72   1    -0.05  -0.05  -0.06    -0.31  -0.01  -0.09     0.29  -0.05   0.05
    73   1    -0.34   0.03   0.02    -0.02   0.01   0.03    -0.12   0.01  -0.03
    74   6    -0.02   0.03   0.03    -0.02   0.00  -0.00    -0.02  -0.01  -0.01
    75   1     0.34   0.03  -0.02     0.02   0.01  -0.03    -0.12  -0.01  -0.03
    76   1     0.05  -0.05   0.06     0.31  -0.01   0.09     0.29   0.05   0.05
                    157                    158                    159
                      A                      A                      A
 Frequencies --   1325.3916              1335.6826              1336.6475
 Red. masses --     11.9153                11.8469                 3.0145
 Frc consts  --     12.3323                12.4526                 3.1732
 IR Inten    --      0.0000                 0.0000                 0.0000
  Atom  AN      X      Y      Z        X      Y      Z        X      Y      Z
     1   6    -0.09   0.04   0.04     0.03   0.09   0.04    -0.02   0.01   0.02
     2   6     0.15  -0.07  -0.08     0.03   0.07   0.05     0.01  -0.02  -0.02
     3   6    -0.06  -0.12  -0.03    -0.07  -0.14  -0.07     0.07  -0.02   0.01
     4   6     0.00   0.22   0.00     0.00   0.14   0.00    -0.05   0.00  -0.00
     5   6    -0.00   0.03   0.00     0.00   0.10  -0.00    -0.03   0.00   0.02
     6   6    -0.09  -0.10   0.04    -0.01  -0.15  -0.08     0.04   0.02  -0.02
     7   6     0.07   0.05   0.05    -0.02  -0.01   0.01    -0.06  -0.03   0.00
     8   6     0.03  -0.05  -0.12     0.04   0.01   0.12     0.06  -0.00  -0.01
     9   6    -0.03   0.07   0.15    -0.02  -0.01  -0.01    -0.07   0.04   0.03
    10   6    -0.09   0.07  -0.00    -0.04  -0.04  -0.17     0.02  -0.01  -0.01
    11   6    -0.02   0.07   0.02     0.06  -0.00   0.03    -0.04   0.07  -0.01
    12   6     0.06  -0.12   0.03     0.07  -0.14   0.07     0.07   0.02   0.01
    13   6    -0.15  -0.07   0.08    -0.03   0.07  -0.05     0.01   0.02  -0.02
    14   6     0.09   0.04  -0.04    -0.03   0.09  -0.04    -0.02  -0.01   0.02
    15   6     0.09  -0.10  -0.04     0.01  -0.15   0.08     0.04  -0.02  -0.02
    16   6    -0.10   0.05   0.13     0.05  -0.03  -0.04    -0.01   0.04  -0.00
    17   6     0.10   0.05  -0.13    -0.05  -0.03   0.04    -0.01  -0.04  -0.00
    18   6    -0.02  -0.01  -0.03     0.08   0.19   0.04    -0.01  -0.00   0.02
    19   6    -0.03  -0.02   0.00    -0.06  -0.08  -0.16     0.03   0.02  -0.00
    20   6    -0.09   0.05  -0.09    -0.03   0.01  -0.13     0.04  -0.00  -0.01
    21   6    -0.03  -0.06   0.09    -0.03  -0.01  -0.00    -0.05  -0.03   0.03
    22   6     0.04   0.03  -0.00     0.02  -0.07   0.17     0.03   0.03  -0.02
    23   6    -0.01  -0.01  -0.05     0.05   0.18  -0.07    -0.00  -0.00   0.01
    24   6     0.04   0.01   0.18    -0.04  -0.14   0.02     0.00   0.04  -0.01
    25   6    -0.04   0.01  -0.18     0.04  -0.14  -0.02     0.00  -0.04  -0.01
    26   6     0.02  -0.01   0.03    -0.08   0.19  -0.04    -0.01   0.00   0.02
    27   6     0.03  -0.02  -0.00     0.06  -0.08   0.16     0.03  -0.02  -0.00
    28   6    -0.07   0.05  -0.05     0.02  -0.01  -0.01    -0.06   0.03   0.00
    29   6     0.02   0.07  -0.02    -0.06  -0.00  -0.03    -0.04  -0.07  -0.01
    30   6    -0.11  -0.07  -0.11     0.00  -0.02  -0.02    -0.07  -0.04  -0.01
    31   6    -0.07  -0.07   0.08    -0.05  -0.05  -0.16     0.04   0.03   0.01
    32   6     0.06   0.10  -0.02     0.04   0.09   0.06    -0.00   0.01  -0.01
    33   6    -0.02  -0.07  -0.01    -0.04  -0.01   0.04    -0.02  -0.07   0.01
    34   6    -0.05   0.12   0.06     0.02  -0.13  -0.08     0.04   0.03  -0.02
    35   6    -0.07  -0.03   0.02    -0.01   0.09   0.05    -0.01  -0.01  -0.02
    36   6     0.03  -0.06  -0.09     0.03  -0.01   0.00    -0.05   0.03   0.03
    37   6     0.09   0.05   0.09     0.02   0.01   0.13     0.04   0.00  -0.01
    38   6    -0.03  -0.05   0.12    -0.04   0.01  -0.12     0.06   0.00  -0.01
    39   6     0.03   0.07  -0.15     0.02  -0.01   0.01    -0.07  -0.04   0.03
    40   6     0.09   0.07   0.00     0.04  -0.04   0.17     0.02   0.01  -0.01
    41   6    -0.06   0.10   0.02    -0.04   0.09  -0.06    -0.00  -0.01  -0.01
    42   6     0.02  -0.07   0.01     0.04  -0.01  -0.04    -0.02   0.07   0.01
    43   6     0.05   0.12  -0.06    -0.02  -0.13   0.08     0.04  -0.03  -0.02
    44   6    -0.00  -0.19  -0.00     0.00   0.11  -0.00    -0.02   0.00   0.01
    45   6    -0.00  -0.06  -0.00     0.00   0.11   0.00    -0.03   0.00   0.00
    46   6    -0.11   0.12   0.00    -0.04  -0.14  -0.08     0.04  -0.03  -0.00
    47   6    -0.04   0.03   0.00    -0.02  -0.07  -0.17     0.03  -0.03  -0.02
    48   6     0.01  -0.01   0.05    -0.05   0.18   0.07    -0.00   0.00   0.01
    49   6     0.15  -0.05   0.08     0.07  -0.03   0.03    -0.02   0.06   0.00
    50   6    -0.15  -0.05  -0.08    -0.07  -0.03  -0.03    -0.02  -0.06   0.00
    51   6     0.11   0.12  -0.00     0.04  -0.14   0.08     0.04   0.03  -0.00
    52   6     0.07  -0.03  -0.02     0.01   0.09  -0.05    -0.01   0.01  -0.02
    53   6    -0.16   0.04   0.02    -0.00   0.07  -0.06     0.00  -0.02   0.02
    54   6     0.11  -0.07   0.11    -0.00  -0.02   0.02    -0.07   0.04  -0.01
    55   6     0.07  -0.07  -0.08     0.05  -0.05   0.16     0.04  -0.03   0.01
    56   6    -0.05  -0.10   0.02    -0.00   0.08  -0.08     0.02   0.02  -0.00
    57   6     0.05  -0.10  -0.02     0.00   0.08   0.08     0.02  -0.02  -0.00
    58   6     0.16   0.04  -0.02     0.00   0.07   0.06     0.00   0.02   0.02
    59   6    -0.01  -0.00   0.01     0.00  -0.05   0.01    -0.01   0.03   0.03
    60   6     0.01  -0.00  -0.01    -0.00  -0.05  -0.01    -0.01  -0.03   0.03
    61   6     0.01   0.00   0.01    -0.01  -0.00  -0.01     0.03  -0.02   0.01
    62   6    -0.01   0.00  -0.01     0.01  -0.00   0.01     0.03   0.02   0.01
    63   6    -0.00  -0.00  -0.00     0.00   0.00   0.00    -0.01  -0.01  -0.01
    64   1    -0.00  -0.00  -0.00    -0.00   0.01   0.01     0.04  -0.02   0.03
    65   1    -0.00  -0.01   0.00     0.01   0.00   0.00     0.03  -0.00   0.03
    66   1    -0.01  -0.01  -0.00    -0.00   0.00   0.01     0.03   0.05  -0.00
    67   6     0.00  -0.00   0.00    -0.00   0.00  -0.00    -0.01   0.01  -0.01
    68   1     0.01  -0.01   0.00     0.00   0.00  -0.01     0.03  -0.05  -0.00
    69   1     0.00  -0.01  -0.00    -0.01   0.00  -0.00     0.02   0.00   0.03
    70   1     0.00  -0.00   0.00     0.00   0.01  -0.01     0.04   0.02   0.03
    71   6    -0.00  -0.00   0.00    -0.01   0.01  -0.01    -0.10  -0.02  -0.04
    72   1     0.06   0.00   0.02     0.07  -0.03   0.01     0.36  -0.01   0.08
    73   1     0.00  -0.00  -0.00    -0.02   0.01   0.01     0.51  -0.02   0.07
    74   6     0.00  -0.00  -0.00     0.01   0.01   0.01    -0.10   0.02  -0.04
    75   1    -0.00  -0.00   0.00     0.02   0.01  -0.01     0.51   0.02   0.07
    76   1    -0.06   0.00  -0.02    -0.07  -0.03  -0.01     0.36   0.01   0.08
                    160                    161                    162
                      A                      A                      A
 Frequencies --   1339.6254              1345.8207              1349.9476
 Red. masses --     11.1959                11.3767                 2.5440
 Frc consts  --     11.8380                12.1406                 2.7315
 IR Inten    --      0.0000                 0.0000                 0.0000
  Atom  AN      X      Y      Z        X      Y      Z        X      Y      Z
     1   6     0.17  -0.00  -0.10    -0.03  -0.03  -0.05     0.01  -0.00  -0.01
     2   6    -0.11  -0.01  -0.01     0.03   0.10   0.07    -0.00   0.01   0.02
     3   6    -0.11  -0.01  -0.03    -0.06  -0.11  -0.07    -0.04   0.04   0.00
     4   6     0.22   0.00  -0.00    -0.00   0.04   0.00     0.01   0.00  -0.00
     5   6    -0.05   0.00  -0.01     0.00   0.21   0.00     0.01   0.00  -0.00
     6   6    -0.08   0.00   0.05     0.05  -0.16  -0.10    -0.01  -0.02   0.00
     7   6    -0.07   0.03   0.11     0.02   0.06   0.18     0.04   0.02   0.00
     8   6     0.06  -0.02  -0.09    -0.06  -0.03  -0.07    -0.04   0.00   0.00
     9   6     0.07   0.02   0.10     0.03  -0.01   0.03     0.05  -0.04  -0.04
    10   6    -0.04  -0.00  -0.03     0.01  -0.05  -0.06    -0.03   0.04   0.04
    11   6     0.07  -0.00   0.05     0.07  -0.01   0.03     0.04  -0.06   0.01
    12   6    -0.11   0.01  -0.03     0.06  -0.11   0.07    -0.04  -0.04   0.00
    13   6    -0.11   0.01  -0.01    -0.03   0.10  -0.07    -0.00  -0.01   0.02
    14   6     0.17   0.00  -0.10     0.03  -0.03   0.05     0.01   0.00  -0.01
    15   6    -0.08  -0.00   0.05    -0.05  -0.16   0.10    -0.01   0.02   0.00
    16   6    -0.02   0.02   0.08     0.07   0.06  -0.16     0.00  -0.02   0.00
    17   6    -0.02  -0.02   0.08    -0.07   0.06   0.16     0.00   0.02   0.00
    18   6     0.06   0.05  -0.21     0.02  -0.01   0.04     0.00   0.00  -0.00
    19   6    -0.08  -0.08   0.04     0.01  -0.03  -0.11    -0.02  -0.01  -0.01
    20   6    -0.09   0.02  -0.04     0.03   0.03  -0.10    -0.04   0.00   0.02
    21   6     0.09  -0.03   0.07     0.06  -0.06   0.17     0.03   0.02  -0.01
    22   6     0.09   0.09  -0.01    -0.05   0.03  -0.09    -0.02  -0.01   0.01
    23   6    -0.14  -0.04  -0.15    -0.00   0.01   0.05     0.01   0.00   0.01
    24   6     0.03   0.01   0.15    -0.04  -0.00  -0.17    -0.00  -0.02  -0.01
    25   6     0.03  -0.01   0.15     0.04  -0.00   0.17    -0.00   0.02  -0.01
    26   6     0.06  -0.05  -0.21    -0.02  -0.01  -0.04     0.00  -0.00  -0.00
    27   6    -0.08   0.08   0.04    -0.01  -0.03   0.11    -0.02   0.01  -0.01
    28   6    -0.07  -0.03   0.11    -0.02   0.06  -0.18     0.04  -0.02   0.00
    29   6     0.07   0.00   0.05    -0.07  -0.01  -0.03     0.04   0.06   0.01
    30   6    -0.01   0.02   0.12     0.02   0.01  -0.04     0.06   0.04   0.00
    31   6     0.02  -0.01  -0.07     0.03   0.05   0.05    -0.03  -0.03  -0.01
    32   6     0.03   0.01  -0.03    -0.04  -0.07  -0.05    -0.01  -0.01   0.03
    33   6    -0.04  -0.01   0.07     0.05   0.01  -0.05     0.04   0.07  -0.03
    34   6     0.09  -0.02  -0.08    -0.02   0.11   0.08    -0.04  -0.03   0.02
    35   6    -0.18  -0.00  -0.02    -0.01   0.03   0.05     0.02  -0.00   0.00
    36   6     0.09   0.03   0.07    -0.06  -0.06  -0.17     0.03  -0.02  -0.01
    37   6    -0.09  -0.02  -0.04    -0.03   0.03   0.10    -0.04  -0.00   0.02
    38   6     0.06   0.02  -0.09     0.06  -0.03   0.07    -0.04  -0.00   0.00
    39   6     0.07  -0.02   0.10    -0.03  -0.01  -0.03     0.05   0.04  -0.04
    40   6    -0.04   0.00  -0.03    -0.01  -0.05   0.06    -0.03  -0.04   0.04
    41   6     0.03  -0.01  -0.03     0.04  -0.07   0.05    -0.01   0.01   0.03
    42   6    -0.04   0.01   0.07    -0.05   0.01   0.05     0.04  -0.07  -0.03
    43   6     0.09   0.02  -0.08     0.02   0.11  -0.08    -0.04   0.03   0.02
    44   6    -0.19   0.00   0.09    -0.00  -0.04   0.00     0.02   0.00  -0.01
    45   6     0.02   0.00  -0.03     0.00  -0.21  -0.00    -0.00  -0.00   0.00
    46   6     0.11  -0.01   0.01     0.09   0.15   0.07    -0.01   0.01   0.00
    47   6     0.09  -0.09  -0.01     0.05   0.03   0.09    -0.02   0.01   0.01
    48   6    -0.14   0.04  -0.15     0.00   0.01  -0.05     0.01  -0.00   0.01
    49   6     0.04   0.01   0.06    -0.13  -0.06  -0.11    -0.01  -0.01  -0.01
    50   6     0.04  -0.01   0.06     0.13  -0.06   0.11    -0.01   0.01  -0.01
    51   6     0.11   0.01   0.01    -0.09   0.15  -0.07    -0.01  -0.01   0.00
    52   6    -0.18   0.00  -0.02     0.01   0.03  -0.05     0.02   0.00   0.00
    53   6     0.08   0.00  -0.04     0.00  -0.10   0.07    -0.02   0.02  -0.01
    54   6    -0.01  -0.02   0.12    -0.02   0.01   0.04     0.06  -0.04   0.00
    55   6     0.02   0.01  -0.07    -0.03   0.05  -0.05    -0.03   0.03  -0.01
    56   6    -0.04  -0.01  -0.03     0.01   0.08  -0.06    -0.01   0.00  -0.03
    57   6    -0.04   0.01  -0.03    -0.01   0.08   0.06    -0.01  -0.00  -0.03
    58   6     0.08  -0.00  -0.04    -0.00  -0.10  -0.07    -0.02  -0.02  -0.01
    59   6     0.01   0.01   0.03     0.01  -0.01   0.07     0.02   0.07   0.02
    60   6     0.01  -0.01   0.03    -0.01  -0.01  -0.07     0.02  -0.07   0.02
    61   6     0.01  -0.01   0.00     0.02   0.01   0.03     0.03  -0.02   0.01
    62   6     0.01   0.01   0.00    -0.03   0.01  -0.03     0.03   0.02   0.01
    63   6    -0.01  -0.00  -0.00    -0.00  -0.00  -0.01    -0.02  -0.00  -0.01
    64   1     0.01  -0.01   0.01    -0.01  -0.02  -0.03     0.04  -0.03   0.03
    65   1     0.01  -0.00   0.01    -0.03  -0.02  -0.01     0.02  -0.00   0.04
    66   1     0.01   0.01  -0.00    -0.02  -0.04  -0.02     0.03   0.05  -0.00
    67   6    -0.01   0.00  -0.00     0.00  -0.00   0.01    -0.02   0.00  -0.01
    68   1     0.01  -0.01  -0.00     0.02  -0.04   0.02     0.03  -0.05  -0.00
    69   1     0.01   0.00   0.01     0.03  -0.02   0.01     0.02   0.01   0.04
    70   1     0.01   0.01   0.01     0.01  -0.02   0.03     0.04   0.03   0.03
    71   6    -0.03  -0.01  -0.01     0.01   0.00  -0.00    -0.11  -0.02  -0.04
    72   1     0.11   0.00   0.03     0.10   0.01   0.03     0.31  -0.00   0.07
    73   1     0.15  -0.01   0.03    -0.11   0.00  -0.01     0.56  -0.02   0.07
    74   6    -0.03   0.01  -0.01    -0.01   0.00   0.00    -0.11   0.02  -0.04
    75   1     0.15   0.01   0.03     0.11   0.00   0.01     0.56   0.02   0.07
    76   1     0.11  -0.00   0.03    -0.10   0.01  -0.03     0.31   0.00   0.07
                    163                    164                    165
                      A                      A                      A
 Frequencies --   1352.1326              1352.9099              1359.8260
 Red. masses --     10.6448                11.2230                10.6308
 Frc consts  --     11.4664                12.1031                11.5819
 IR Inten    --      0.0000                 0.0000                 0.0000
  Atom  AN      X      Y      Z        X      Y      Z        X      Y      Z
     1   6    -0.14   0.01   0.05    -0.01   0.12   0.13     0.02   0.02   0.04
     2   6     0.18   0.03   0.02     0.03  -0.13  -0.12    -0.10   0.03   0.01
     3   6    -0.02  -0.07  -0.03     0.06  -0.06   0.03     0.00  -0.03  -0.02
     4   6    -0.09  -0.00   0.03    -0.00   0.18   0.00     0.01   0.00   0.00
     5   6     0.13   0.00  -0.03     0.00  -0.14  -0.00    -0.03  -0.00   0.01
     6   6    -0.04  -0.12  -0.01     0.05   0.04  -0.06     0.05   0.06  -0.02
     7   6     0.12   0.05  -0.02    -0.09  -0.08  -0.04    -0.01  -0.06  -0.08
     8   6     0.03  -0.01   0.08     0.07  -0.00  -0.02    -0.15   0.02   0.10
     9   6    -0.08   0.01   0.00    -0.09   0.08   0.07     0.09  -0.02  -0.04
    10   6    -0.06   0.00  -0.13     0.04   0.03   0.09     0.12  -0.13  -0.05
    11   6    -0.03   0.07  -0.02    -0.10   0.08  -0.01     0.06  -0.05   0.03
    12   6    -0.02   0.07  -0.03    -0.06  -0.06  -0.03     0.00   0.03  -0.02
    13   6     0.18  -0.03   0.02    -0.03  -0.13   0.12    -0.10  -0.03   0.01
    14   6    -0.14  -0.01   0.05     0.01   0.12  -0.13     0.02  -0.02   0.04
    15   6    -0.04   0.12  -0.01    -0.05   0.04   0.06     0.05  -0.06  -0.02
    16   6     0.04  -0.18  -0.03     0.05  -0.07  -0.02    -0.03   0.12   0.01
    17   6     0.04   0.18  -0.03    -0.05  -0.07   0.02    -0.03  -0.12   0.01
    18   6    -0.00   0.01   0.10     0.02   0.08   0.06    -0.02  -0.02  -0.03
    19   6    -0.08  -0.06  -0.12     0.03   0.00  -0.06     0.10   0.10  -0.01
    20   6    -0.07   0.00  -0.09     0.07  -0.01   0.00     0.18  -0.03   0.01
    21   6     0.13   0.03  -0.01    -0.06  -0.07   0.07     0.00   0.06  -0.08
    22   6     0.02  -0.02   0.13     0.04   0.00   0.04    -0.09  -0.11   0.07
    23   6    -0.06  -0.00  -0.09    -0.00   0.08  -0.05    -0.01   0.03  -0.06
    24   6     0.00  -0.12  -0.00    -0.02  -0.06  -0.01     0.01  -0.01   0.05
    25   6     0.00   0.12  -0.00     0.02  -0.06   0.01     0.01   0.01   0.05
    26   6    -0.00  -0.01   0.10    -0.02   0.08  -0.06    -0.02   0.02  -0.03
    27   6    -0.08   0.06  -0.12    -0.03   0.00   0.06     0.10  -0.10  -0.01
    28   6     0.12  -0.05  -0.02     0.09  -0.08   0.04    -0.01   0.06  -0.08
    29   6    -0.03  -0.07  -0.02     0.10   0.08   0.01     0.06   0.05   0.03
    30   6    -0.04   0.00   0.04     0.11   0.09   0.04    -0.14  -0.03   0.02
    31   6     0.05   0.04   0.14     0.01   0.03   0.09    -0.12  -0.13   0.03
    32   6     0.01  -0.02  -0.08    -0.07  -0.14  -0.04     0.12   0.14  -0.10
    33   6    -0.01  -0.06   0.01     0.07   0.09  -0.04    -0.05  -0.08   0.07
    34   6    -0.00   0.08   0.04    -0.03  -0.07   0.04    -0.01  -0.01  -0.02
    35   6    -0.16  -0.02  -0.00     0.06   0.13   0.11    -0.04   0.02   0.04
    36   6     0.13  -0.03  -0.01     0.06  -0.07  -0.07     0.00  -0.06  -0.08
    37   6    -0.07  -0.00  -0.09    -0.07  -0.01  -0.00     0.18   0.03   0.01
    38   6     0.03   0.01   0.08    -0.07  -0.00   0.02    -0.15  -0.02   0.10
    39   6    -0.08  -0.01   0.00     0.08   0.08  -0.07     0.09   0.02  -0.04
    40   6    -0.06  -0.00  -0.13    -0.04   0.03  -0.09     0.12   0.13  -0.05
    41   6     0.01   0.02  -0.08     0.07  -0.14   0.04     0.12  -0.14  -0.10
    42   6    -0.01   0.06   0.01    -0.07   0.09   0.04    -0.05   0.08   0.07
    43   6    -0.00  -0.08   0.04     0.03  -0.07  -0.04    -0.01   0.01  -0.02
    44   6    -0.10  -0.00   0.02    -0.00   0.20   0.00    -0.05   0.00   0.01
    45   6     0.12   0.00  -0.03     0.00  -0.16  -0.00     0.07  -0.00  -0.01
    46   6    -0.02   0.10   0.03    -0.05   0.04  -0.02    -0.05   0.08   0.01
    47   6     0.02   0.02   0.13    -0.04   0.00  -0.04    -0.09   0.11   0.07
    48   6    -0.06   0.00  -0.09     0.00   0.08   0.05    -0.01  -0.03  -0.06
    49   6     0.04  -0.14   0.02     0.03  -0.06  -0.01     0.04  -0.15   0.01
    50   6     0.04   0.14   0.02    -0.03  -0.06   0.01     0.04   0.15   0.01
    51   6    -0.02  -0.10   0.03     0.05   0.04   0.02    -0.05  -0.08   0.01
    52   6    -0.16   0.02  -0.00    -0.06   0.13  -0.11    -0.04  -0.02   0.04
    53   6     0.13   0.04  -0.08     0.08  -0.14   0.11     0.14  -0.03  -0.05
    54   6    -0.04  -0.00   0.04    -0.11   0.09  -0.04    -0.14   0.03   0.02
    55   6     0.05  -0.04   0.14    -0.01   0.03  -0.09    -0.12   0.13   0.03
    56   6     0.07   0.02   0.07    -0.03  -0.13   0.07    -0.11  -0.12  -0.01
    57   6     0.07  -0.02   0.07     0.03  -0.13  -0.07    -0.11   0.12  -0.01
    58   6     0.13  -0.04  -0.08    -0.08  -0.14  -0.11     0.14   0.03  -0.05
    59   6    -0.02   0.02   0.01     0.03   0.09  -0.03    -0.00   0.00   0.07
    60   6    -0.02  -0.02   0.01    -0.03   0.09   0.03    -0.00  -0.00   0.07
    61   6     0.01  -0.01   0.01     0.04   0.01   0.04     0.01  -0.01   0.00
    62   6     0.01   0.01   0.01    -0.04   0.01  -0.04     0.01   0.01   0.00
    63   6    -0.01  -0.00  -0.00    -0.01  -0.00  -0.00    -0.00  -0.00  -0.00
    64   1     0.01  -0.01   0.00     0.00  -0.04  -0.04     0.01  -0.01  -0.00
    65   1     0.00  -0.00   0.01    -0.04  -0.02  -0.02     0.00  -0.00   0.01
    66   1     0.01   0.01  -0.01    -0.01  -0.04  -0.05     0.01   0.01  -0.01
    67   6    -0.01   0.00  -0.00     0.01  -0.00   0.00    -0.01   0.00  -0.00
    68   1     0.01  -0.01  -0.01     0.01  -0.04   0.05     0.01  -0.01  -0.01
    69   1     0.00   0.00   0.01     0.04  -0.02   0.02     0.00   0.00   0.01
    70   1     0.01   0.01   0.00    -0.00  -0.04   0.04     0.01   0.01  -0.00
    71   6    -0.04  -0.01  -0.02     0.03  -0.02   0.02    -0.04  -0.01  -0.01
    72   1     0.13   0.00   0.03    -0.14   0.06  -0.00     0.19  -0.01   0.05
    73   1     0.20  -0.01   0.03    -0.02  -0.02  -0.03     0.15  -0.01   0.02
    74   6    -0.04   0.01  -0.02    -0.03  -0.02  -0.02    -0.04   0.01  -0.01
    75   1     0.20   0.01   0.03     0.01  -0.02   0.03     0.15   0.01   0.02
    76   1     0.13  -0.00   0.03     0.14   0.06   0.00     0.19   0.01   0.05
                    166                    167                    168
                      A                      A                      A
 Frequencies --   1376.3773              1382.2367              1382.8264
 Red. masses --      2.4022                11.8205                 7.8995
 Frc consts  --      2.6812                13.3061                 8.8998
 IR Inten    --      0.0000                 0.0000                 0.0000
  Atom  AN      X      Y      Z        X      Y      Z        X      Y      Z
     1   6     0.02  -0.01  -0.02    -0.18  -0.03   0.04    -0.08   0.04   0.07
     2   6    -0.01   0.01   0.01     0.23   0.10   0.10     0.04  -0.03  -0.04
     3   6    -0.02   0.02   0.00    -0.10  -0.06  -0.04     0.06  -0.05   0.01
     4   6    -0.00  -0.02  -0.00     0.00   0.04   0.00    -0.00   0.03  -0.00
     5   6    -0.00  -0.01   0.00     0.00   0.15   0.00    -0.00   0.06   0.00
     6   6    -0.02   0.01   0.02    -0.02  -0.10   0.00     0.08  -0.04  -0.08
     7   6     0.01   0.00   0.00     0.10   0.02  -0.03    -0.01  -0.02  -0.02
     8   6    -0.02   0.00   0.02    -0.10   0.01   0.05     0.10  -0.01  -0.05
     9   6     0.01  -0.01  -0.02    -0.03  -0.08  -0.14    -0.03   0.04   0.07
    10   6     0.01  -0.01  -0.00    -0.03   0.03  -0.01    -0.06   0.05  -0.01
    11   6     0.02  -0.01   0.01    -0.00  -0.02  -0.03    -0.07   0.06  -0.01
    12   6     0.02   0.02  -0.00     0.10  -0.06   0.04    -0.06  -0.05  -0.01
    13   6     0.01   0.01  -0.01    -0.23   0.10  -0.10    -0.04  -0.03   0.04
    14   6    -0.02  -0.01   0.02     0.18  -0.03  -0.04     0.08   0.04  -0.07
    15   6     0.02   0.01  -0.02     0.02  -0.10  -0.00    -0.08  -0.04   0.08
    16   6    -0.01   0.00   0.02    -0.09   0.08   0.09     0.05   0.00  -0.07
    17   6     0.01   0.00  -0.02     0.09   0.08  -0.09    -0.05   0.00   0.07
    18   6     0.00   0.00  -0.02    -0.09  -0.17   0.03    -0.01  -0.02   0.07
    19   6     0.00   0.01   0.01     0.05   0.08  -0.03    -0.02  -0.02  -0.03
    20   6     0.03  -0.00  -0.00     0.08  -0.01   0.02    -0.13   0.01  -0.00
    21   6    -0.02  -0.00  -0.00     0.04  -0.01   0.03     0.08   0.02  -0.02
    22   6    -0.01  -0.02   0.00     0.02   0.01   0.05     0.04   0.07  -0.02
    23   6     0.01   0.03  -0.01    -0.08  -0.10  -0.07    -0.06  -0.12   0.04
    24   6     0.00  -0.01   0.03     0.07   0.12   0.09     0.00   0.06  -0.11
    25   6    -0.00  -0.01  -0.03    -0.07   0.12  -0.09    -0.00   0.06   0.11
    26   6    -0.00   0.00   0.02     0.09  -0.17  -0.03     0.01  -0.02  -0.07
    27   6    -0.00   0.01  -0.01    -0.05   0.08   0.03     0.02  -0.02   0.03
    28   6    -0.01   0.00  -0.00    -0.10   0.02   0.03     0.01  -0.02   0.02
    29   6    -0.02  -0.01  -0.01     0.00  -0.02   0.03     0.07   0.06   0.01
    30   6     0.01   0.01   0.02     0.06   0.03   0.03    -0.05  -0.07  -0.11
    31   6     0.00   0.00  -0.01     0.06   0.06  -0.04    -0.01  -0.01  -0.02
    32   6     0.01  -0.00  -0.01    -0.08  -0.12  -0.00     0.00   0.04   0.06
    33   6    -0.01   0.01   0.02     0.07   0.08  -0.06    -0.04  -0.04   0.02
    34   6    -0.01   0.01   0.01    -0.04  -0.09   0.01     0.08  -0.02  -0.08
    35   6    -0.02   0.00   0.00     0.19   0.04   0.03     0.09  -0.04  -0.04
    36   6     0.02  -0.00   0.00    -0.04  -0.01  -0.03    -0.08   0.02   0.02
    37   6    -0.03  -0.00   0.00    -0.08  -0.01  -0.02     0.13   0.01   0.00
    38   6     0.02   0.00  -0.02     0.10   0.01  -0.05    -0.10  -0.01   0.05
    39   6    -0.01  -0.01   0.02     0.03  -0.08   0.14     0.03   0.04  -0.07
    40   6    -0.01  -0.01   0.00     0.03   0.03   0.01     0.06   0.05   0.01
    41   6    -0.01  -0.00   0.01     0.08  -0.12   0.00    -0.00   0.04  -0.06
    42   6     0.01   0.01  -0.02    -0.07   0.08   0.06     0.04  -0.04  -0.02
    43   6     0.01   0.01  -0.01     0.04  -0.09  -0.01    -0.08  -0.02   0.08
    44   6    -0.00  -0.01   0.00     0.00   0.08  -0.00    -0.00   0.02   0.00
    45   6    -0.00  -0.01  -0.00     0.00   0.10   0.00    -0.00   0.08   0.00
    46   6    -0.01   0.01  -0.00    -0.12  -0.08  -0.05     0.06  -0.06   0.01
    47   6     0.01  -0.02  -0.00    -0.02   0.01  -0.05    -0.04   0.07   0.02
    48   6    -0.01   0.03   0.01     0.08  -0.10   0.07     0.06  -0.12  -0.04
    49   6     0.03  -0.01   0.01     0.04   0.03   0.03    -0.11   0.06  -0.05
    50   6    -0.03  -0.01  -0.01    -0.04   0.03  -0.03     0.11   0.06   0.05
    51   6     0.01   0.01   0.00     0.12  -0.08   0.05    -0.06  -0.06  -0.01
    52   6     0.02   0.00  -0.00    -0.19   0.04  -0.03    -0.09  -0.04   0.04
    53   6    -0.02  -0.01   0.02     0.13  -0.01  -0.03     0.09   0.09  -0.14
    54   6    -0.01   0.01  -0.02    -0.06   0.03  -0.03     0.05  -0.07   0.11
    55   6    -0.00   0.00   0.01    -0.06   0.06   0.04     0.01  -0.01   0.02
    56   6     0.01   0.03   0.00    -0.07  -0.01  -0.05    -0.03  -0.09   0.05
    57   6    -0.01   0.03  -0.00     0.07  -0.01   0.05     0.03  -0.09  -0.05
    58   6     0.02  -0.01  -0.02    -0.13  -0.01   0.03    -0.09   0.09   0.14
    59   6    -0.02  -0.04  -0.01     0.04   0.04   0.03    -0.01  -0.01  -0.07
    60   6     0.02  -0.04   0.01    -0.04   0.04  -0.03     0.01  -0.01   0.07
    61   6     0.12   0.02   0.12     0.01   0.01   0.01     0.08   0.01   0.08
    62   6    -0.12   0.02  -0.12    -0.01   0.01  -0.01    -0.08   0.01  -0.08
    63   6    -0.03  -0.00  -0.02    -0.00   0.00   0.00    -0.02   0.00  -0.01
    64   1     0.03  -0.08  -0.05    -0.01  -0.03  -0.04     0.03  -0.06  -0.03
    65   1    -0.07  -0.07  -0.00    -0.04  -0.02  -0.02    -0.05  -0.04  -0.00
    66   1    -0.03  -0.08  -0.09    -0.00  -0.04  -0.03    -0.01  -0.05  -0.07
    67   6     0.03  -0.00   0.02     0.00   0.00  -0.00     0.02   0.00   0.01
    68   1     0.04  -0.08   0.09     0.00  -0.04   0.03     0.01  -0.05   0.07
    69   1     0.07  -0.07   0.00     0.04  -0.02   0.02     0.05  -0.04   0.00
    70   1    -0.03  -0.08   0.05     0.01  -0.02   0.04    -0.03  -0.06   0.03
    71   6     0.12   0.01   0.06     0.01  -0.01   0.00     0.09   0.00   0.05
    72   1    -0.16   0.11   0.02    -0.03   0.03   0.00    -0.19   0.08  -0.00
    73   1    -0.60   0.01  -0.06    -0.01  -0.01  -0.00    -0.36   0.00  -0.05
    74   6    -0.12   0.01  -0.06    -0.01  -0.01  -0.00    -0.09   0.00  -0.05
    75   1     0.60   0.01   0.06     0.01  -0.01   0.00     0.36   0.00   0.05
    76   1     0.16   0.11  -0.02     0.03   0.03  -0.00     0.19   0.08   0.00
                    169                    170                    171
                      A                      A                      A
 Frequencies --   1385.9073              1386.9170              1386.9255
 Red. masses --     11.7707                11.6402                11.9931
 Frc consts  --     13.3205                13.1920                13.5921
 IR Inten    --      0.0000                 0.0000                 0.0000
  Atom  AN      X      Y      Z        X      Y      Z        X      Y      Z
     1   6    -0.06   0.00   0.03    -0.02   0.02   0.04     0.12  -0.09  -0.16
     2   6    -0.12  -0.06  -0.09     0.03  -0.01   0.02    -0.09   0.02   0.03
     3   6     0.23  -0.04   0.04     0.05   0.11   0.05     0.05   0.11   0.04
     4   6    -0.09  -0.00  -0.02    -0.12  -0.00  -0.01     0.00  -0.22   0.00
     5   6    -0.17   0.00   0.09    -0.00   0.00   0.02     0.00   0.10  -0.00
     6   6     0.12  -0.05  -0.10     0.07  -0.02  -0.06    -0.05  -0.01   0.05
     7   6     0.09   0.06   0.09     0.03  -0.00  -0.04    -0.03   0.08   0.18
     8   6    -0.10  -0.04  -0.08    -0.03   0.03   0.08     0.06  -0.02  -0.07
     9   6     0.07   0.07   0.13     0.01  -0.09  -0.17    -0.01  -0.00   0.01
    10   6     0.07  -0.04   0.08    -0.02   0.11   0.21    -0.01   0.02   0.02
    11   6    -0.09   0.15  -0.00    -0.03  -0.09  -0.04    -0.01  -0.01  -0.01
    12   6     0.23   0.04   0.04     0.05  -0.11   0.05    -0.05   0.12  -0.04
    13   6    -0.12   0.06  -0.09     0.03   0.01   0.02     0.09   0.02  -0.03
    14   6    -0.06  -0.00   0.03    -0.03  -0.03   0.04    -0.12  -0.09   0.16
    15   6     0.12   0.05  -0.10     0.07   0.02  -0.06     0.05  -0.01  -0.05
    16   6    -0.01  -0.11   0.02    -0.04   0.06   0.04    -0.01  -0.02   0.02
    17   6    -0.01   0.11   0.02    -0.04  -0.06   0.04     0.01  -0.02  -0.02
    18   6    -0.01  -0.01   0.10     0.03   0.06  -0.01     0.08   0.14  -0.10
    19   6    -0.02  -0.03  -0.16    -0.05  -0.05  -0.10    -0.11  -0.13  -0.01
    20   6    -0.05   0.03  -0.08    -0.07  -0.03   0.10    -0.08   0.02  -0.04
    21   6     0.03  -0.01   0.04     0.05   0.06  -0.11     0.09  -0.08   0.15
    22   6    -0.01  -0.04   0.09     0.05  -0.03   0.17     0.09   0.13  -0.06
    23   6     0.04   0.06   0.01    -0.04  -0.00  -0.09    -0.11  -0.14  -0.06
    24   6    -0.01   0.01  -0.07     0.02   0.01   0.05     0.05  -0.00   0.22
    25   6    -0.01  -0.01  -0.07     0.02  -0.01   0.05    -0.05  -0.00  -0.22
    26   6    -0.01   0.01   0.10     0.03  -0.06  -0.01    -0.08   0.14   0.10
    27   6    -0.02   0.03  -0.16    -0.05   0.04  -0.10     0.11  -0.13   0.02
    28   6     0.09  -0.06   0.09     0.03   0.00  -0.04     0.03   0.08  -0.18
    29   6    -0.09  -0.15  -0.00    -0.03   0.09  -0.04     0.01  -0.01   0.01
    30   6     0.08   0.10   0.17     0.03  -0.05  -0.12    -0.01   0.00   0.01
    31   6    -0.11  -0.11  -0.16     0.02   0.02  -0.13    -0.03  -0.03  -0.02
    32   6     0.05   0.05  -0.01     0.00   0.05   0.05     0.02   0.03   0.02
    33   6     0.00   0.12   0.05    -0.08  -0.13   0.05    -0.01   0.01   0.02
    34   6    -0.01  -0.12  -0.04     0.19   0.02  -0.14     0.03  -0.11  -0.05
    35   6    -0.02  -0.02  -0.02    -0.07  -0.00  -0.01     0.17   0.09   0.10
    36   6     0.03   0.01   0.04     0.05  -0.06  -0.11    -0.09  -0.08  -0.15
    37   6    -0.05  -0.03  -0.08    -0.07   0.03   0.10     0.08   0.02   0.04
    38   6    -0.10   0.04  -0.08    -0.03  -0.03   0.08    -0.06  -0.02   0.07
    39   6     0.07  -0.07   0.13     0.01   0.09  -0.17     0.01  -0.00  -0.01
    40   6     0.07   0.04   0.08    -0.02  -0.11   0.21     0.01   0.03  -0.02
    41   6     0.05  -0.05  -0.01     0.00  -0.05   0.05    -0.02   0.03  -0.02
    42   6     0.00  -0.12   0.05    -0.08   0.13   0.05     0.01   0.01  -0.02
    43   6    -0.01   0.12  -0.04     0.19  -0.02  -0.14    -0.03  -0.11   0.05
    44   6    -0.10   0.00   0.05    -0.08   0.00   0.06     0.00   0.23  -0.00
    45   6     0.03  -0.00  -0.01    -0.18  -0.00  -0.02     0.00  -0.11   0.00
    46   6     0.06   0.01   0.02     0.16   0.05   0.04    -0.07   0.02  -0.02
    47   6    -0.01   0.04   0.09     0.04   0.03   0.17    -0.09   0.13   0.06
    48   6     0.04  -0.06   0.01    -0.04   0.00  -0.09     0.11  -0.14   0.06
    49   6    -0.05   0.08  -0.02    -0.03  -0.09  -0.02     0.02   0.02   0.01
    50   6    -0.05  -0.08  -0.02    -0.03   0.09  -0.02    -0.02   0.01  -0.01
    51   6     0.06  -0.01   0.02     0.16  -0.05   0.04     0.07   0.02   0.02
    52   6    -0.02   0.02  -0.02    -0.07   0.00  -0.01    -0.17   0.09  -0.10
    53   6     0.03  -0.00  -0.05    -0.07  -0.06   0.13     0.09  -0.03   0.00
    54   6     0.08  -0.10   0.17     0.03   0.06  -0.12     0.01   0.00  -0.01
    55   6    -0.11   0.11  -0.16     0.02  -0.02  -0.13     0.03  -0.03   0.02
    56   6    -0.03   0.04  -0.05     0.05   0.06  -0.02    -0.00  -0.03   0.02
    57   6    -0.03  -0.04  -0.05     0.05  -0.07  -0.02     0.00  -0.03  -0.02
    58   6     0.03   0.00  -0.05    -0.07   0.06   0.13    -0.09  -0.03  -0.00
    59   6    -0.01  -0.04   0.02    -0.01  -0.05  -0.01    -0.00  -0.00  -0.01
    60   6    -0.01   0.04   0.02    -0.01   0.05  -0.01     0.00  -0.00   0.01
    61   6    -0.00   0.00  -0.00    -0.00   0.00  -0.00    -0.00  -0.00  -0.00
    62   6    -0.00  -0.00  -0.00    -0.00  -0.00  -0.00     0.00  -0.00   0.00
    63   6     0.00   0.00   0.00     0.00  -0.00  -0.00    -0.00   0.00  -0.00
    64   1    -0.01  -0.00  -0.01    -0.01   0.02   0.02     0.01  -0.00   0.01
    65   1    -0.01  -0.00  -0.01     0.01   0.01  -0.00     0.00   0.00   0.00
    66   1    -0.00  -0.02  -0.01    -0.01   0.00   0.01     0.00   0.00  -0.00
    67   6     0.00  -0.00   0.00     0.00   0.00  -0.00     0.00   0.00   0.00
    68   1    -0.00   0.02  -0.01    -0.01  -0.00   0.01    -0.00   0.00   0.00
    69   1    -0.01   0.00  -0.01     0.01  -0.01  -0.00    -0.00   0.00  -0.00
    70   1    -0.01   0.00  -0.01    -0.01  -0.02   0.02    -0.01  -0.00  -0.01
    71   6     0.01   0.01   0.01     0.01   0.01   0.01     0.00  -0.00   0.00
    72   1     0.00  -0.01   0.00    -0.03  -0.02  -0.01    -0.01   0.01   0.00
    73   1    -0.09   0.01  -0.02    -0.11   0.01  -0.02     0.00   0.00   0.00
    74   6     0.01  -0.01   0.01     0.01  -0.01   0.01    -0.00  -0.00  -0.00
    75   1    -0.09  -0.01  -0.02    -0.12  -0.01  -0.02    -0.00   0.00  -0.00
    76   1     0.00   0.01   0.00    -0.03   0.02  -0.01     0.01   0.01  -0.00
                    172                    173                    174
                      A                      A                      A
 Frequencies --   1389.7934              1392.9199              1401.0044
 Red. masses --     11.9931                11.8428                11.8763
 Frc consts  --     13.6484                13.5380                13.7344
 IR Inten    --      0.0000                 0.0000                 0.0000
  Atom  AN      X      Y      Z        X      Y      Z        X      Y      Z
     1   6    -0.01  -0.07  -0.09     0.03   0.04   0.03     0.10   0.02  -0.02
     2   6     0.05   0.05   0.06     0.01  -0.01  -0.02    -0.17  -0.06  -0.08
     3   6    -0.15   0.01  -0.04    -0.10  -0.11  -0.06     0.01  -0.05  -0.02
     4   6     0.09   0.00   0.02    -0.00   0.22   0.00    -0.00   0.11   0.00
     5   6     0.10  -0.00  -0.05    -0.00  -0.18  -0.00    -0.00  -0.16  -0.00
     6   6    -0.13  -0.05   0.09    -0.08   0.06   0.08    -0.06   0.06   0.06
     7   6     0.11   0.08   0.09    -0.07  -0.06  -0.07     0.03   0.02   0.04
     8   6    -0.17  -0.01   0.01     0.07   0.00  -0.01    -0.12  -0.03  -0.06
     9   6     0.04  -0.04  -0.05    -0.06   0.06   0.08     0.12   0.08   0.18
    10   6     0.03  -0.04  -0.02     0.01  -0.09  -0.18     0.08  -0.14  -0.10
    11   6     0.07  -0.09   0.02     0.08  -0.02   0.04     0.07   0.01   0.06
    12   6    -0.15  -0.01  -0.04     0.10  -0.11   0.06    -0.01  -0.05   0.02
    13   6     0.05  -0.05   0.06    -0.01  -0.01   0.02     0.17  -0.06   0.08
    14   6    -0.01   0.07  -0.09    -0.03   0.04  -0.03    -0.10   0.02   0.02
    15   6    -0.13   0.05   0.09     0.08   0.06  -0.08     0.06   0.06  -0.06
    16   6     0.08  -0.21  -0.07    -0.06   0.02   0.08    -0.02   0.01   0.02
    17   6     0.08   0.21  -0.07     0.06   0.02  -0.08     0.02   0.01  -0.02
    18   6    -0.04  -0.08   0.09    -0.06  -0.12  -0.01    -0.01  -0.03  -0.04
    19   6     0.00   0.01  -0.03     0.08   0.08   0.15     0.02   0.02  -0.00
    20   6     0.16   0.01  -0.07     0.07   0.00  -0.03     0.08   0.03  -0.10
    21   6    -0.07  -0.08   0.13    -0.04  -0.06   0.09    -0.00  -0.02   0.05
    22   6    -0.02  -0.01  -0.02     0.01   0.08  -0.16    -0.01  -0.02   0.01
    23   6     0.08   0.08   0.06    -0.05  -0.12   0.04    -0.01   0.02  -0.04
    24   6    -0.02   0.00  -0.09     0.03   0.08  -0.01     0.01   0.00   0.06
    25   6    -0.02  -0.00  -0.09    -0.03   0.08   0.01    -0.01   0.00  -0.06
    26   6    -0.04   0.08   0.09     0.06  -0.12   0.01     0.01  -0.03   0.04
    27   6     0.00  -0.01  -0.03    -0.08   0.08  -0.15    -0.02   0.02   0.00
    28   6     0.11  -0.08   0.09     0.07  -0.06   0.07    -0.03   0.02  -0.04
    29   6     0.07   0.09   0.02    -0.08  -0.02  -0.04    -0.07   0.01  -0.06
    30   6    -0.07  -0.04  -0.03     0.08   0.06   0.05     0.05  -0.08  -0.22
    31   6    -0.03  -0.04  -0.01    -0.09  -0.09  -0.16     0.12   0.14   0.06
    32   6     0.04   0.07   0.00     0.06   0.11   0.04    -0.11  -0.12   0.05
    33   6    -0.06  -0.09   0.05    -0.06  -0.01   0.07     0.05  -0.00  -0.09
    34   6     0.12   0.01  -0.10     0.06  -0.10  -0.09     0.02   0.04   0.01
    35   6    -0.03  -0.07  -0.08    -0.02   0.03   0.03     0.12  -0.02  -0.02
    36   6    -0.07   0.08   0.13     0.04  -0.06  -0.09     0.00  -0.02  -0.05
    37   6     0.16  -0.01  -0.07    -0.07   0.00   0.03    -0.08   0.03   0.10
    38   6    -0.17   0.01   0.01    -0.07   0.00   0.01     0.12  -0.03   0.06
    39   6     0.04   0.04  -0.05     0.06   0.06  -0.08    -0.12   0.08  -0.18
    40   6     0.03   0.04  -0.02    -0.01  -0.09   0.18    -0.08  -0.14   0.10
    41   6     0.04  -0.07   0.00    -0.06   0.11  -0.04     0.11  -0.12  -0.05
    42   6    -0.06   0.09   0.05     0.06  -0.01  -0.07    -0.05  -0.01   0.09
    43   6     0.12  -0.01  -0.10    -0.06  -0.10   0.09    -0.02   0.04  -0.01
    44   6    -0.08   0.00   0.05     0.00   0.21   0.00    -0.00  -0.10   0.00
    45   6    -0.11  -0.00  -0.01    -0.00  -0.18  -0.00     0.00   0.17   0.00
    46   6     0.16  -0.05   0.03     0.09   0.06   0.04    -0.08  -0.07  -0.03
    47   6    -0.02   0.01  -0.02    -0.01   0.08   0.16     0.01  -0.02  -0.01
    48   6     0.08  -0.08   0.06     0.05  -0.12  -0.04     0.01   0.02   0.04
    49   6    -0.10   0.21  -0.03    -0.09   0.02  -0.05     0.02  -0.00   0.01
    50   6    -0.10  -0.21  -0.03     0.09   0.02   0.05    -0.02  -0.00  -0.01
    51   6     0.16   0.05   0.03    -0.09   0.06  -0.04     0.08  -0.07   0.03
    52   6    -0.03   0.07  -0.08     0.02   0.03  -0.03    -0.12  -0.02   0.02
    53   6    -0.02  -0.05   0.07     0.02  -0.02   0.01     0.14   0.07  -0.16
    54   6    -0.07   0.05  -0.03    -0.08   0.06  -0.05    -0.05  -0.08   0.22
    55   6    -0.03   0.04  -0.01     0.09  -0.09   0.16    -0.12   0.14  -0.06
    56   6    -0.03  -0.07   0.02     0.03   0.11  -0.07     0.10   0.10  -0.00
    57   6    -0.03   0.07   0.02    -0.03   0.11   0.07    -0.10   0.10   0.00
    58   6    -0.02   0.05   0.07    -0.02  -0.02  -0.01    -0.14   0.07   0.16
    59   6    -0.00  -0.01   0.00    -0.00  -0.05   0.01     0.00   0.01  -0.02
    60   6    -0.00   0.01   0.00     0.00  -0.05  -0.01    -0.00   0.01   0.02
    61   6     0.00   0.00   0.00    -0.01  -0.00  -0.00     0.00  -0.00  -0.00
    62   6     0.00  -0.00   0.00     0.01  -0.00   0.00    -0.00  -0.00   0.00
    63   6    -0.00  -0.00  -0.00     0.00  -0.00  -0.00     0.00   0.00   0.00
    64   1    -0.00   0.00   0.00     0.00   0.02   0.02    -0.00  -0.01  -0.02
    65   1     0.00   0.00   0.00     0.02   0.01   0.01    -0.02  -0.00  -0.01
    66   1    -0.00  -0.00   0.00    -0.00   0.01   0.02    -0.00  -0.02  -0.01
    67   6    -0.00   0.00  -0.00    -0.00  -0.00   0.00    -0.00   0.00  -0.00
    68   1    -0.00   0.00   0.00     0.00   0.01  -0.02     0.00  -0.02   0.01
    69   1     0.00  -0.00   0.00    -0.02   0.01  -0.01     0.02  -0.00   0.01
    70   1    -0.00  -0.00   0.00    -0.00   0.02  -0.02     0.00  -0.01   0.02
    71   6     0.00   0.00   0.00    -0.02   0.01  -0.00     0.00   0.00   0.00
    72   1     0.00  -0.01  -0.00     0.06  -0.03   0.01    -0.04  -0.03  -0.02
    73   1    -0.01  -0.00  -0.01    -0.01   0.01  -0.00     0.01  -0.00  -0.03
    74   6     0.00  -0.00   0.00     0.02   0.01   0.00    -0.00   0.00  -0.00
    75   1    -0.01   0.00  -0.01     0.01   0.01   0.00    -0.01  -0.00   0.03
    76   1     0.00   0.01  -0.00    -0.06  -0.03  -0.01     0.04  -0.03   0.02
                    175                    176                    177
                      A                      A                      A
 Frequencies --   1436.0706              1438.7661              1460.1537
 Red. masses --      1.2553                 1.3404                11.8446
 Frc consts  --      1.5252                 1.6348                14.8788
 IR Inten    --      0.0000                 0.0000                 0.0000
  Atom  AN      X      Y      Z        X      Y      Z        X      Y      Z
     1   6     0.00   0.00   0.00     0.00   0.00   0.00    -0.16  -0.10  -0.02
     2   6    -0.00   0.00  -0.00    -0.00  -0.00  -0.00     0.13  -0.13  -0.10
     3   6     0.00  -0.00  -0.00     0.00   0.00   0.00    -0.11   0.14   0.04
     4   6     0.00   0.00  -0.00     0.00  -0.00  -0.00     0.00  -0.05  -0.00
     5   6    -0.00   0.00   0.00    -0.00  -0.00   0.00    -0.00   0.01   0.00
     6   6    -0.00  -0.00   0.00     0.00   0.00   0.00     0.11   0.10  -0.02
     7   6    -0.00  -0.00   0.00    -0.00  -0.00  -0.00    -0.07  -0.01   0.05
     8   6    -0.00   0.00   0.00     0.00   0.00   0.00    -0.03   0.02   0.05
     9   6     0.00  -0.00   0.00     0.00   0.00   0.00     0.17  -0.03   0.04
    10   6    -0.00  -0.00  -0.00    -0.00   0.00  -0.00    -0.12   0.05  -0.05
    11   6    -0.00   0.00  -0.00    -0.00  -0.00  -0.00     0.11   0.02   0.09
    12   6     0.00   0.00  -0.00    -0.00   0.00  -0.00     0.11   0.14  -0.04
    13   6    -0.00  -0.00  -0.00     0.00  -0.00   0.00    -0.13  -0.13   0.10
    14   6     0.00  -0.00   0.00    -0.00   0.00  -0.00     0.16  -0.10   0.02
    15   6    -0.00   0.00   0.00    -0.00   0.00  -0.00    -0.11   0.10   0.02
    16   6     0.00  -0.00  -0.00     0.00  -0.00   0.00     0.04   0.00  -0.08
    17   6     0.00   0.00  -0.00    -0.00  -0.00  -0.00    -0.04   0.00   0.08
    18   6    -0.00  -0.00   0.00     0.00   0.00   0.00     0.01  -0.00  -0.08
    19   6     0.00   0.00  -0.00    -0.00  -0.00   0.00     0.06   0.03  -0.03
    20   6     0.00   0.00  -0.00    -0.00   0.00  -0.00     0.04  -0.02   0.01
    21   6    -0.00  -0.00   0.00     0.00   0.00   0.00     0.10   0.01   0.04
    22   6     0.00   0.00  -0.00    -0.00  -0.00  -0.00    -0.08  -0.03  -0.03
    23   6    -0.00  -0.00   0.00    -0.00  -0.00   0.00    -0.05   0.01  -0.08
    24   6    -0.00   0.00  -0.00     0.00   0.00  -0.00     0.02   0.00   0.09
    25   6    -0.00  -0.00  -0.00    -0.00   0.00   0.00    -0.02   0.00  -0.09
    26   6    -0.00   0.00   0.00    -0.00   0.00  -0.00    -0.01  -0.00   0.08
    27   6     0.00  -0.00  -0.00     0.00  -0.00  -0.00    -0.06   0.03   0.03
    28   6    -0.00   0.00   0.00     0.00  -0.00   0.00     0.07  -0.01  -0.05
    29   6    -0.00  -0.00  -0.00     0.00  -0.00   0.00    -0.11   0.02  -0.09
    30   6    -0.00   0.00   0.00    -0.00  -0.00   0.00     0.11   0.02  -0.08
    31   6    -0.00  -0.00  -0.00     0.00   0.00  -0.00    -0.07  -0.03   0.05
    32   6     0.00   0.00  -0.00     0.00   0.00  -0.00    -0.03   0.02   0.09
    33   6     0.00   0.00   0.00    -0.00  -0.00   0.00     0.06  -0.01  -0.12
    34   6    -0.00   0.00   0.00     0.00   0.00  -0.00    -0.12  -0.13   0.02
    35   6     0.00  -0.00   0.00    -0.00   0.00   0.00    -0.14   0.12   0.09
    36   6    -0.00   0.00   0.00    -0.00   0.00  -0.00    -0.10   0.01  -0.04
    37   6     0.00  -0.00  -0.00     0.00   0.00   0.00    -0.04  -0.02  -0.01
    38   6    -0.00  -0.00   0.00    -0.00   0.00  -0.00     0.03   0.02  -0.04
    39   6     0.00   0.00   0.00    -0.00   0.00  -0.00    -0.16  -0.03  -0.04
    40   6    -0.00   0.00  -0.00     0.00   0.00   0.00     0.12   0.05   0.05
    41   6     0.00  -0.00  -0.00    -0.00   0.00   0.00     0.03   0.02  -0.09
    42   6     0.00  -0.00   0.00     0.00  -0.00  -0.00    -0.06  -0.01   0.12
    43   6    -0.00  -0.00   0.00    -0.00   0.00   0.00     0.12  -0.14  -0.02
    44   6     0.00   0.00  -0.00     0.00  -0.00  -0.00     0.00   0.03  -0.00
    45   6     0.00   0.00   0.00     0.00  -0.00   0.00    -0.00   0.00   0.00
    46   6    -0.00   0.00  -0.00     0.00  -0.00   0.00     0.11  -0.11  -0.03
    47   6     0.00  -0.00  -0.00     0.00  -0.00   0.00     0.08  -0.03   0.03
    48   6    -0.00   0.00   0.00     0.00  -0.00  -0.00     0.05   0.01   0.08
    49   6     0.00  -0.00   0.00    -0.00  -0.00  -0.00    -0.08  -0.01  -0.06
    50   6     0.00   0.00   0.00     0.00  -0.00   0.00     0.08  -0.00   0.06
    51   6    -0.00  -0.00  -0.00    -0.00  -0.00  -0.00    -0.11  -0.11   0.03
    52   6     0.00   0.00   0.00     0.00   0.00  -0.00     0.14   0.12  -0.09
    53   6    -0.00   0.00  -0.00    -0.00  -0.00   0.00    -0.16   0.12  -0.02
    54   6    -0.00  -0.00   0.00     0.00  -0.00  -0.00    -0.10   0.02   0.08
    55   6    -0.00   0.00  -0.00    -0.00   0.00   0.00     0.07  -0.03  -0.05
    56   6     0.00   0.00   0.00     0.00   0.00   0.00     0.06  -0.03   0.08
    57   6     0.00  -0.00   0.00    -0.00   0.00  -0.00    -0.06  -0.03  -0.08
    58   6    -0.00  -0.00  -0.00     0.00  -0.00  -0.00     0.16   0.12   0.02
    59   6    -0.00  -0.00  -0.00    -0.01  -0.00  -0.00    -0.01   0.00  -0.05
    60   6    -0.00   0.01  -0.00     0.01  -0.00   0.00     0.01   0.00   0.05
    61   6     0.01   0.01   0.02    -0.03  -0.01  -0.03    -0.00  -0.00  -0.00
    62   6     0.01  -0.01   0.01     0.03  -0.01   0.03     0.00  -0.00   0.00
    63   6    -0.06  -0.06  -0.06     0.06   0.06   0.07     0.00   0.00   0.00
    64   1     0.09   0.18   0.38    -0.15  -0.12  -0.37    -0.00  -0.00  -0.01
    65   1     0.36   0.22   0.13    -0.32  -0.14  -0.17    -0.00  -0.00   0.00
    66   1     0.10   0.32   0.12    -0.11  -0.34  -0.10    -0.00  -0.00  -0.00
    67   6    -0.05   0.06  -0.06    -0.07   0.06  -0.07    -0.00   0.00  -0.00
    68   1     0.09  -0.30   0.11     0.12  -0.36   0.11     0.00  -0.00   0.00
    69   1     0.35  -0.21   0.13     0.34  -0.15   0.18     0.00  -0.00  -0.00
    70   1     0.08  -0.18   0.36     0.15  -0.12   0.39    -0.00  -0.00   0.01
    71   6     0.01  -0.00  -0.00     0.00   0.00  -0.00     0.00   0.00   0.01
    72   1    -0.04   0.02  -0.01    -0.04  -0.02  -0.02    -0.02  -0.05  -0.01
    73   1    -0.07   0.00   0.00    -0.03   0.01  -0.01     0.04  -0.01  -0.05
    74   6     0.01   0.00  -0.00    -0.00   0.00   0.00    -0.00   0.00  -0.01
    75   1    -0.07  -0.00   0.00     0.03   0.01   0.01    -0.04  -0.01   0.05
    76   1    -0.04  -0.02  -0.01     0.04  -0.02   0.02     0.02  -0.05   0.01
                    178                    179                    180
                      A                      A                      A
 Frequencies --   1460.2771              1465.2364              1466.1531
 Red. masses --     11.7240                11.9788                11.9277
 Frc consts  --     14.7298                15.1523                15.1066
 IR Inten    --      0.0000                 0.0000                 0.0000
  Atom  AN      X      Y      Z        X      Y      Z        X      Y      Z
     1   6    -0.05  -0.09  -0.04    -0.10  -0.11  -0.03    -0.00  -0.07  -0.06
     2   6     0.04  -0.07  -0.04     0.04   0.01  -0.00    -0.01  -0.08  -0.06
     3   6    -0.04   0.12   0.03    -0.01  -0.01  -0.01    -0.00   0.09   0.03
     4   6    -0.23  -0.00   0.02    -0.08   0.00   0.02    -0.12  -0.00   0.00
     5   6     0.24   0.00  -0.09     0.13  -0.00  -0.06     0.12   0.00  -0.04
     6   6     0.04   0.14   0.02     0.09   0.16  -0.00    -0.03   0.06   0.07
     7   6     0.10   0.06   0.01    -0.10  -0.04   0.04    -0.05   0.01   0.05
     8   6    -0.04  -0.03  -0.18     0.09   0.01  -0.04     0.03   0.02   0.13
     9   6    -0.12   0.06   0.02    -0.08   0.04   0.01     0.11  -0.00   0.05
    10   6     0.12  -0.09   0.01     0.06  -0.05   0.01    -0.08   0.03  -0.07
    11   6     0.04  -0.06   0.00    -0.02  -0.06  -0.04     0.01   0.01   0.01
    12   6    -0.04  -0.12   0.03    -0.01   0.01  -0.01    -0.00  -0.09   0.03
    13   6     0.03   0.06  -0.04     0.04  -0.01  -0.00    -0.01   0.08  -0.06
    14   6    -0.05   0.09  -0.04    -0.10   0.11  -0.03    -0.00   0.07  -0.07
    15   6     0.04  -0.14   0.02     0.09  -0.16  -0.00    -0.03  -0.06   0.07
    16   6    -0.03   0.03   0.03    -0.07  -0.19   0.20     0.05   0.04  -0.13
    17   6    -0.03  -0.03   0.03    -0.07   0.19   0.20     0.05  -0.04  -0.13
    18   6     0.03   0.05  -0.00    -0.01  -0.15  -0.20    -0.02   0.02   0.18
    19   6    -0.08  -0.07   0.01     0.10   0.08  -0.03     0.01  -0.02  -0.03
    20   6     0.03  -0.03   0.18    -0.08  -0.01   0.06    -0.06   0.01  -0.12
    21   6     0.09   0.06  -0.05     0.13   0.03   0.01    -0.01   0.03  -0.02
    22   6    -0.08  -0.07   0.02    -0.09  -0.07   0.01    -0.03  -0.05   0.03
    23   6     0.03   0.05  -0.02    -0.03   0.12  -0.09    -0.12   0.08  -0.23
    24   6    -0.00   0.03   0.00    -0.01  -0.08   0.02     0.05   0.34  -0.01
    25   6    -0.00  -0.03  -0.00    -0.01   0.08   0.02     0.05  -0.34  -0.01
    26   6     0.03  -0.05  -0.00    -0.01   0.15  -0.20    -0.02  -0.02   0.18
    27   6    -0.08   0.07   0.01     0.10  -0.08  -0.03     0.01   0.02  -0.03
    28   6     0.10  -0.06   0.01    -0.10   0.04   0.04    -0.05  -0.01   0.05
    29   6     0.04   0.06  -0.00    -0.02   0.06  -0.04     0.01  -0.01   0.01
    30   6    -0.10  -0.06   0.01     0.04   0.03   0.03     0.09   0.02  -0.08
    31   6     0.10   0.08  -0.05    -0.03  -0.03  -0.02    -0.06  -0.04   0.09
    32   6    -0.06  -0.08   0.00     0.01   0.05   0.05     0.01   0.03   0.02
    33   6     0.04   0.05  -0.03    -0.00  -0.04  -0.03     0.00  -0.03  -0.02
    34   6    -0.05  -0.13  -0.01     0.01   0.03   0.01    -0.01  -0.07  -0.03
    35   6    -0.03   0.09   0.06     0.06  -0.13  -0.09     0.06   0.00   0.02
    36   6     0.09  -0.06  -0.05     0.13  -0.03   0.01    -0.01  -0.03  -0.02
    37   6     0.03   0.03   0.18    -0.08   0.01   0.06    -0.06  -0.01  -0.12
    38   6    -0.04   0.03  -0.18     0.09  -0.01  -0.04     0.03  -0.02   0.13
    39   6    -0.12  -0.06   0.02    -0.08  -0.04   0.01     0.11   0.00   0.05
    40   6     0.12   0.09   0.01     0.06   0.05   0.01    -0.08  -0.03  -0.07
    41   6    -0.06   0.08   0.00     0.01  -0.05   0.05     0.01  -0.03   0.03
    42   6     0.04  -0.05  -0.03    -0.00   0.04  -0.03     0.00   0.03  -0.02
    43   6    -0.05   0.13  -0.01     0.01  -0.03   0.01    -0.01   0.07  -0.03
    44   6    -0.23   0.00   0.08     0.13   0.00  -0.04    -0.05  -0.00   0.03
    45   6     0.27   0.00  -0.02    -0.19  -0.00   0.00     0.04   0.00  -0.01
    46   6     0.03  -0.14  -0.04    -0.05   0.17   0.05    -0.10   0.03  -0.02
    47   6    -0.08   0.07   0.03    -0.09   0.07   0.01    -0.03   0.05   0.03
    48   6     0.03  -0.05  -0.02    -0.03  -0.12  -0.09    -0.12  -0.08  -0.23
    49   6    -0.04   0.04  -0.01     0.09   0.15   0.09     0.16   0.12   0.16
    50   6    -0.04  -0.04  -0.01     0.09  -0.15   0.09     0.16  -0.12   0.16
    51   6     0.02   0.14  -0.04    -0.05  -0.17   0.05    -0.10  -0.03  -0.02
    52   6    -0.03  -0.09   0.06     0.06   0.13  -0.09     0.06  -0.00   0.02
    53   6     0.05  -0.08   0.03    -0.04   0.03  -0.02    -0.01  -0.06   0.06
    54   6    -0.10   0.06   0.01     0.04  -0.03   0.03     0.09  -0.02  -0.08
    55   6     0.10  -0.09  -0.05    -0.03   0.03  -0.02    -0.06   0.04   0.09
    56   6    -0.04  -0.09   0.04     0.02  -0.05   0.06    -0.00   0.01  -0.01
    57   6    -0.04   0.09   0.04     0.02   0.05   0.06    -0.00  -0.01  -0.01
    58   6     0.05   0.08   0.03    -0.04  -0.03  -0.02    -0.01   0.06   0.06
    59   6     0.02   0.03  -0.01    -0.01  -0.00  -0.01     0.01   0.01  -0.00
    60   6     0.02  -0.03  -0.01    -0.01   0.00  -0.01     0.01  -0.01  -0.00
    61   6    -0.00  -0.00  -0.00     0.00  -0.00   0.00     0.00   0.00   0.00
    62   6    -0.00   0.00  -0.00     0.00   0.00   0.00     0.00  -0.00   0.00
    63   6    -0.00   0.00  -0.00    -0.00  -0.00   0.00     0.00  -0.00   0.00
    64   1     0.02  -0.01   0.02     0.01   0.00   0.01    -0.01   0.01   0.00
    65   1     0.02  -0.01   0.02    -0.00   0.00  -0.00     0.00   0.01  -0.01
    66   1     0.01   0.03   0.01     0.01   0.00  -0.01    -0.00  -0.01  -0.00
    67   6    -0.00  -0.00  -0.00    -0.00   0.00   0.00     0.00   0.00   0.00
    68   1     0.01  -0.03   0.01     0.01  -0.00  -0.01    -0.00   0.01  -0.00
    69   1     0.02   0.01   0.02    -0.00  -0.00  -0.00     0.00  -0.01  -0.01
    70   1     0.02   0.01   0.02     0.01  -0.00   0.01    -0.01  -0.01   0.00
    71   6     0.00  -0.01  -0.00    -0.00   0.00   0.00    -0.00   0.00   0.00
    72   1    -0.03   0.07   0.01     0.00  -0.02  -0.00    -0.00  -0.04  -0.01
    73   1     0.02   0.00   0.06     0.02  -0.00  -0.01    -0.00  -0.00  -0.04
    74   6     0.00   0.01  -0.00    -0.00  -0.00   0.00    -0.00  -0.00   0.00
    75   1     0.02  -0.00   0.06     0.02   0.00  -0.01    -0.00   0.00  -0.04
    76   1    -0.03  -0.07   0.01     0.00   0.02  -0.00    -0.00   0.04  -0.01
                    181                    182                    183
                      A                      A                      A
 Frequencies --   1466.5468              1473.2059              1475.0423
 Red. masses --     11.7485                10.8477                11.8908
 Frc consts  --     14.8875                13.8712                15.2430
 IR Inten    --      0.0000                 0.0000                 0.0000
  Atom  AN      X      Y      Z        X      Y      Z        X      Y      Z
     1   6     0.06   0.12   0.08    -0.05  -0.03  -0.02     0.04   0.07   0.04
     2   6    -0.06  -0.04  -0.03     0.02  -0.09  -0.09    -0.02   0.16   0.12
     3   6     0.05   0.05   0.02    -0.01   0.08   0.04     0.04  -0.21  -0.07
     4   6     0.00  -0.10  -0.00     0.00  -0.05  -0.00     0.25   0.00  -0.01
     5   6    -0.00   0.10   0.00    -0.00   0.01   0.00    -0.20  -0.00   0.07
     6   6    -0.05  -0.13  -0.03     0.02   0.03   0.01    -0.03  -0.11  -0.03
     7   6     0.14   0.02  -0.18    -0.11  -0.03   0.05    -0.03  -0.04  -0.05
     8   6    -0.02  -0.01  -0.04     0.04   0.03   0.21     0.08  -0.00   0.01
     9   6     0.08   0.00   0.07     0.20  -0.03   0.06    -0.14  -0.01  -0.07
    10   6    -0.09   0.03  -0.11    -0.17   0.07  -0.13     0.06  -0.01   0.04
    11   6     0.01   0.03   0.03     0.04   0.04   0.05    -0.08  -0.06  -0.07
    12   6    -0.05   0.05  -0.02     0.01   0.08  -0.04     0.04   0.21  -0.07
    13   6     0.06  -0.04   0.03    -0.02  -0.09   0.09    -0.02  -0.16   0.12
    14   6    -0.06   0.12  -0.08     0.05  -0.03   0.02     0.04  -0.07   0.04
    15   6     0.05  -0.13   0.03    -0.02   0.03  -0.01    -0.03   0.11  -0.03
    16   6    -0.03  -0.04   0.11    -0.00   0.01  -0.01     0.02  -0.09   0.03
    17   6     0.03  -0.04  -0.10     0.00   0.01   0.01     0.02   0.09   0.03
    18   6     0.00   0.06   0.13    -0.02  -0.03  -0.02    -0.03  -0.08  -0.03
    19   6    -0.11  -0.08   0.22     0.07   0.05  -0.06     0.04   0.05   0.01
    20   6     0.00  -0.01   0.04    -0.03   0.03  -0.21    -0.08   0.01   0.01
    21   6     0.18   0.01   0.10    -0.14  -0.03  -0.00    -0.01   0.04  -0.06
    22   6    -0.18  -0.07  -0.15     0.10   0.05   0.02    -0.02  -0.04   0.03
    23   6    -0.04   0.06  -0.10     0.00  -0.03   0.04    -0.00   0.07  -0.05
    24   6     0.02   0.04  -0.02    -0.01  -0.00  -0.01     0.00   0.01  -0.01
    25   6    -0.02   0.04   0.02     0.01  -0.00   0.01     0.00  -0.01  -0.01
    26   6    -0.00   0.06  -0.13     0.02  -0.03   0.02    -0.03   0.08  -0.03
    27   6     0.11  -0.08  -0.22    -0.07   0.05   0.06     0.04  -0.05   0.01
    28   6    -0.14   0.02   0.18     0.11  -0.03  -0.05    -0.03   0.04  -0.05
    29   6    -0.01   0.03  -0.03    -0.04   0.04  -0.05    -0.08   0.06  -0.07
    30   6    -0.04   0.00   0.11    -0.14  -0.03   0.14     0.11  -0.00  -0.12
    31   6     0.05   0.04  -0.14     0.10   0.07  -0.18    -0.05  -0.02   0.06
    32   6    -0.00  -0.05  -0.06    -0.02  -0.07  -0.08    -0.03   0.04   0.10
    33   6    -0.00   0.03   0.04    -0.01   0.04   0.07     0.04  -0.05  -0.10
    34   6    -0.02   0.07   0.04     0.04   0.08   0.02    -0.06  -0.21  -0.04
    35   6    -0.00   0.10   0.09     0.05  -0.05  -0.05    -0.01   0.07   0.06
    36   6    -0.18   0.01  -0.10     0.14  -0.03   0.00    -0.01  -0.04  -0.06
    37   6    -0.00  -0.01  -0.04     0.03   0.03   0.21    -0.08  -0.01   0.01
    38   6     0.02  -0.01   0.04    -0.04   0.03  -0.21     0.08   0.00   0.01
    39   6    -0.08   0.00  -0.07    -0.20  -0.03  -0.06    -0.14   0.01  -0.07
    40   6     0.09   0.03   0.11     0.17   0.07   0.13     0.06   0.01   0.04
    41   6     0.00  -0.05   0.06     0.02  -0.07   0.08    -0.03  -0.04   0.10
    42   6     0.00   0.03  -0.04     0.01   0.04  -0.07     0.04   0.05  -0.10
    43   6     0.02   0.07  -0.04    -0.04   0.09  -0.02    -0.06   0.21  -0.04
    44   6     0.00  -0.10  -0.00    -0.00  -0.04   0.00    -0.21  -0.00   0.09
    45   6    -0.00   0.09   0.00     0.00  -0.00  -0.00     0.19   0.00  -0.02
    46   6     0.01  -0.10  -0.04    -0.03   0.05   0.02     0.00  -0.09  -0.03
    47   6     0.18  -0.07   0.15    -0.10   0.05  -0.02    -0.02   0.04   0.03
    48   6     0.04   0.06   0.10    -0.00  -0.03  -0.04    -0.00  -0.07  -0.05
    49   6    -0.05  -0.04  -0.07     0.02   0.01   0.02     0.01   0.09   0.04
    50   6     0.05  -0.04   0.07    -0.02   0.01  -0.02     0.01  -0.09   0.04
    51   6    -0.01  -0.10   0.04     0.03   0.05  -0.02     0.00   0.09  -0.03
    52   6     0.00   0.10  -0.09    -0.05  -0.05   0.05    -0.01  -0.07   0.06
    53   6    -0.01  -0.06   0.06     0.08  -0.10   0.07     0.07  -0.16   0.10
    54   6     0.04   0.00  -0.11     0.14  -0.03  -0.14     0.11   0.00  -0.12
    55   6    -0.05   0.04   0.14    -0.10   0.07   0.18    -0.05   0.02   0.06
    56   6     0.02  -0.04   0.05     0.02  -0.06   0.08     0.07  -0.03   0.07
    57   6    -0.02  -0.04  -0.05    -0.02  -0.06  -0.08     0.07   0.03   0.07
    58   6     0.01  -0.06  -0.06    -0.08  -0.10  -0.07     0.07   0.16   0.10
    59   6    -0.01  -0.01   0.00    -0.01  -0.01   0.00    -0.01   0.00  -0.03
    60   6     0.01  -0.01  -0.00     0.01  -0.01  -0.00    -0.01  -0.00  -0.03
    61   6    -0.00  -0.00   0.00    -0.01  -0.00   0.00     0.00  -0.00   0.00
    62   6     0.00  -0.00  -0.00     0.01  -0.00  -0.00     0.00   0.00   0.00
    63   6    -0.00  -0.00  -0.00    -0.00  -0.00  -0.00    -0.00  -0.00  -0.00
    64   1     0.01   0.01   0.02    -0.01   0.03   0.02     0.02  -0.00   0.02
    65   1     0.02   0.01   0.01     0.03   0.02   0.01     0.01   0.01   0.00
    66   1     0.00   0.02   0.01    -0.01   0.00   0.01     0.02   0.02  -0.01
    67   6     0.00  -0.00   0.00     0.00  -0.00   0.00    -0.00   0.00  -0.00
    68   1    -0.00   0.02  -0.01     0.01   0.00  -0.01     0.02  -0.02  -0.01
    69   1    -0.02   0.01  -0.01    -0.03   0.02  -0.01     0.01  -0.01   0.00
    70   1    -0.01   0.01  -0.02     0.01   0.03  -0.02     0.02   0.00   0.02
    71   6    -0.01  -0.00  -0.01    -0.01  -0.01  -0.02    -0.00   0.00   0.00
    72   1     0.03   0.06   0.02     0.04   0.14   0.03     0.01  -0.02  -0.00
    73   1     0.02   0.01   0.07     0.06   0.01   0.15     0.04  -0.00  -0.02
    74   6     0.01  -0.00   0.01     0.01  -0.01   0.02    -0.00  -0.00   0.00
    75   1    -0.02   0.01  -0.07    -0.06   0.01  -0.15     0.04   0.00  -0.02
    76   1    -0.03   0.06  -0.02    -0.04   0.14  -0.03     0.01   0.02  -0.00
                    184                    185                    186
                      A                      A                      A
 Frequencies --   1485.5471              1486.3160              1496.1183
 Red. masses --     11.7505                10.0473                10.9139
 Frc consts  --     15.2785                13.0775                14.3933
 IR Inten    --      0.0000                 0.0000                 0.0000
  Atom  AN      X      Y      Z        X      Y      Z        X      Y      Z
     1   6     0.02   0.12   0.11     0.05   0.09   0.04    -0.08   0.02   0.06
     2   6    -0.02  -0.04  -0.04    -0.02  -0.05  -0.03     0.07  -0.05  -0.04
     3   6     0.03   0.02   0.01     0.00   0.10   0.03    -0.04   0.06   0.02
     4   6     0.01  -0.00  -0.01     0.00  -0.14  -0.00     0.06   0.00  -0.02
     5   6    -0.09   0.00   0.05    -0.00   0.13   0.00    -0.11  -0.00   0.04
     6   6     0.01  -0.10  -0.06    -0.05  -0.14  -0.03     0.07  -0.01  -0.06
     7   6     0.14   0.01  -0.19     0.12   0.04  -0.06    -0.06  -0.05  -0.03
     8   6    -0.02  -0.02  -0.10    -0.14  -0.00   0.02    -0.03   0.03   0.10
     9   6     0.04   0.01   0.08     0.12  -0.04  -0.00     0.18  -0.07  -0.01
    10   6    -0.07   0.02  -0.10    -0.07   0.04  -0.00    -0.18   0.12  -0.04
    11   6     0.01   0.07   0.03     0.05   0.03   0.06     0.06   0.13   0.09
    12   6     0.03  -0.02   0.01    -0.00   0.10  -0.03    -0.04  -0.06   0.02
    13   6    -0.02   0.04  -0.04     0.02  -0.05   0.03     0.07   0.05  -0.04
    14   6     0.02  -0.12   0.11    -0.05   0.09  -0.04    -0.08  -0.02   0.06
    15   6     0.01   0.10  -0.06     0.05  -0.14   0.03     0.07   0.01  -0.06
    16   6    -0.02   0.10  -0.02    -0.03  -0.02   0.09    -0.04  -0.13   0.13
    17   6    -0.02  -0.10  -0.02     0.03  -0.02  -0.09    -0.04   0.13   0.13
    18   6     0.03   0.08   0.02    -0.01   0.02   0.14    -0.02  -0.12  -0.12
    19   6    -0.12  -0.08   0.21    -0.07  -0.05   0.03     0.08   0.08  -0.00
    20   6     0.02  -0.02   0.10     0.14   0.00  -0.03     0.05  -0.01  -0.01
    21   6     0.21   0.02   0.11    -0.14  -0.04  -0.00    -0.01   0.03  -0.04
    22   6    -0.20  -0.09  -0.15     0.08   0.05   0.01    -0.05  -0.05   0.02
    23   6     0.02   0.09  -0.04     0.07  -0.02   0.12     0.02   0.09  -0.02
    24   6    -0.00  -0.06   0.00    -0.03  -0.00  -0.14    -0.01  -0.08  -0.00
    25   6    -0.00   0.06   0.00     0.03  -0.00   0.14    -0.01   0.08  -0.00
    26   6     0.03  -0.08   0.02     0.01   0.02  -0.14    -0.02   0.12  -0.12
    27   6    -0.12   0.08   0.21     0.07  -0.05  -0.04     0.08  -0.08  -0.00
    28   6     0.14  -0.01  -0.19    -0.12   0.04   0.06    -0.06   0.05  -0.03
    29   6     0.01  -0.07   0.03    -0.05   0.03  -0.06     0.06  -0.13   0.09
    30   6     0.00  -0.02  -0.09     0.12   0.04  -0.06    -0.09  -0.07  -0.04
    31   6    -0.02  -0.02   0.12    -0.07  -0.05   0.05     0.10   0.09   0.02
    32   6     0.01   0.05   0.05    -0.01   0.05   0.10    -0.01  -0.11  -0.11
    33   6    -0.01  -0.07  -0.04     0.02  -0.03  -0.08    -0.02   0.09   0.09
    34   6     0.02  -0.03  -0.03    -0.01  -0.12  -0.04     0.03  -0.01  -0.03
    35   6    -0.02  -0.12  -0.10     0.02  -0.08  -0.06     0.05   0.06   0.04
    36   6     0.21  -0.02   0.11     0.14  -0.04   0.00    -0.01  -0.03  -0.04
    37   6     0.02   0.02   0.10    -0.14   0.00   0.03     0.05   0.01  -0.01
    38   6    -0.02   0.02  -0.10     0.14  -0.00  -0.02    -0.03  -0.03   0.10
    39   6     0.04  -0.01   0.08    -0.12  -0.04   0.00     0.18   0.07  -0.01
    40   6    -0.07  -0.02  -0.10     0.07   0.04   0.00    -0.18  -0.12  -0.04
    41   6     0.01  -0.05   0.05     0.01   0.05  -0.10    -0.01   0.11  -0.11
    42   6    -0.01   0.07  -0.04    -0.02  -0.03   0.08    -0.02  -0.09   0.09
    43   6     0.02   0.03  -0.03     0.01  -0.12   0.04     0.03   0.01  -0.03
    44   6     0.01   0.00   0.01    -0.00   0.15   0.00    -0.17  -0.00   0.05
    45   6    -0.09  -0.00  -0.01     0.00  -0.14  -0.00     0.21   0.00  -0.01
    46   6     0.03   0.09   0.05    -0.03   0.14   0.05    -0.03  -0.09  -0.04
    47   6    -0.20   0.09  -0.15    -0.08   0.05  -0.01    -0.05   0.05   0.02
    48   6     0.02  -0.09  -0.04    -0.07  -0.02  -0.12     0.02  -0.09  -0.02
    49   6    -0.01   0.11   0.02     0.07   0.02   0.07     0.01   0.09   0.03
    50   6    -0.01  -0.11   0.02    -0.07   0.02  -0.07     0.01  -0.09   0.03
    51   6     0.03  -0.09   0.05     0.03   0.14  -0.05    -0.03   0.09  -0.04
    52   6    -0.02   0.12  -0.10    -0.02  -0.08   0.06     0.05  -0.06   0.04
    53   6    -0.00  -0.05   0.05    -0.00   0.06  -0.04    -0.04  -0.03   0.05
    54   6     0.00   0.02  -0.09    -0.12   0.04   0.06    -0.09   0.07  -0.04
    55   6    -0.02   0.02   0.12     0.07  -0.05  -0.05     0.10  -0.09   0.02
    56   6    -0.01   0.04  -0.05     0.05  -0.04   0.07    -0.04   0.13  -0.12
    57   6    -0.01  -0.04  -0.05    -0.05  -0.04  -0.07    -0.04  -0.13  -0.12
    58   6    -0.00   0.05   0.05     0.00   0.06   0.04    -0.04   0.03   0.05
    59   6     0.00  -0.01   0.00    -0.01   0.00  -0.05     0.01   0.00   0.03
    60   6     0.00   0.01   0.00     0.01   0.00   0.05     0.01  -0.00   0.03
    61   6    -0.00   0.00  -0.00     0.00  -0.00  -0.00     0.00   0.00  -0.00
    62   6    -0.00  -0.00  -0.00    -0.00  -0.00   0.00     0.00  -0.00  -0.00
    63   6    -0.00  -0.00   0.00    -0.00   0.01   0.00     0.01  -0.00  -0.00
    64   1    -0.01   0.02   0.02     0.03  -0.04  -0.01    -0.10   0.04  -0.06
    65   1     0.01   0.03  -0.02    -0.03  -0.04   0.01     0.06   0.00   0.05
    66   1     0.01  -0.01  -0.01     0.02   0.01  -0.01    -0.11  -0.04   0.08
    67   6    -0.00   0.00   0.00     0.00   0.01  -0.00     0.01   0.00  -0.00
    68   1     0.01   0.01  -0.01    -0.02   0.01   0.01    -0.11   0.04   0.08
    69   1     0.01  -0.03  -0.02     0.03  -0.04  -0.01     0.06  -0.00   0.05
    70   1    -0.01  -0.02   0.02    -0.04  -0.04   0.01    -0.10  -0.04  -0.06
    71   6     0.01   0.01   0.01     0.01   0.02   0.02     0.00  -0.00  -0.01
    72   1    -0.01  -0.07  -0.02    -0.04  -0.19  -0.04    -0.01   0.06   0.01
    73   1    -0.01  -0.00  -0.06     0.04  -0.01  -0.20    -0.04   0.01   0.06
    74   6     0.01  -0.01   0.01    -0.01   0.02  -0.02     0.00   0.00  -0.01
    75   1    -0.01   0.00  -0.06    -0.04  -0.01   0.20    -0.04  -0.01   0.06
    76   1    -0.01   0.07  -0.02     0.04  -0.19   0.04    -0.01  -0.06   0.01
                    187                    188                    189
                      A                      A                      A
 Frequencies --   1497.6117              1497.8098              1498.2427
 Red. masses --      3.8979                 1.2864                 9.1068
 Frc consts  --      5.1509                 1.7003                12.0443
 IR Inten    --      0.0000                 0.0000                 0.0000
  Atom  AN      X      Y      Z        X      Y      Z        X      Y      Z
     1   6    -0.08  -0.04   0.01     0.02   0.02  -0.00    -0.03  -0.05  -0.03
     2   6     0.08  -0.06  -0.04    -0.02   0.01   0.01    -0.02  -0.08  -0.08
     3   6    -0.07   0.06   0.01     0.02  -0.01  -0.00     0.02   0.08   0.03
     4   6     0.00  -0.00  -0.00     0.00  -0.00  -0.00    -0.16  -0.00   0.01
     5   6    -0.00   0.01   0.00    -0.00   0.00   0.00     0.14   0.00  -0.05
     6   6     0.07   0.05  -0.02    -0.02  -0.02   0.00     0.04   0.09   0.01
     7   6     0.05   0.02  -0.00    -0.01  -0.00  -0.00    -0.04  -0.01   0.02
     8   6    -0.02  -0.01  -0.09    -0.00   0.00   0.02     0.04   0.01   0.08
     9   6    -0.02   0.03   0.04     0.00  -0.01  -0.01     0.09   0.02   0.08
    10   6     0.01  -0.03  -0.05     0.00   0.01   0.02    -0.07   0.00  -0.10
    11   6     0.05  -0.01   0.03    -0.01   0.00  -0.01    -0.01  -0.01  -0.01
    12   6     0.07   0.06  -0.01    -0.02  -0.01   0.00     0.02  -0.08   0.03
    13   6    -0.08  -0.06   0.04     0.02   0.01  -0.01    -0.02   0.09  -0.08
    14   6     0.08  -0.04  -0.01    -0.02   0.01   0.00    -0.03   0.05  -0.03
    15   6    -0.07   0.05   0.02     0.02  -0.02  -0.00     0.04  -0.09   0.01
    16   6     0.03  -0.01  -0.05    -0.01   0.00   0.02    -0.04   0.01   0.07
    17   6    -0.03  -0.01   0.05     0.01   0.00  -0.02    -0.04  -0.01   0.07
    18   6     0.02   0.03  -0.02    -0.01  -0.01   0.01     0.02   0.01  -0.09
    19   6    -0.04  -0.03  -0.01     0.01   0.01   0.00     0.01   0.01   0.00
    20   6     0.03  -0.01   0.09    -0.00   0.00  -0.02    -0.04   0.03  -0.11
    21   6     0.04   0.02  -0.02    -0.01  -0.01   0.00    -0.05  -0.03   0.04
    22   6    -0.03  -0.03   0.02     0.01   0.01  -0.01     0.05   0.06  -0.02
    23   6     0.03   0.03   0.01    -0.01  -0.01   0.00     0.06  -0.06   0.13
    24   6    -0.01  -0.02  -0.00     0.00   0.01  -0.00    -0.03  -0.16   0.01
    25   6     0.01  -0.02   0.00    -0.00   0.00   0.00    -0.03   0.16   0.01
    26   6    -0.02   0.03   0.02     0.01  -0.01  -0.01     0.02  -0.01  -0.09
    27   6     0.04  -0.03   0.01    -0.01   0.01  -0.00     0.01  -0.01   0.00
    28   6    -0.05   0.02   0.00     0.01  -0.00   0.00    -0.04   0.01   0.02
    29   6    -0.05  -0.01  -0.03     0.01   0.00   0.01    -0.01   0.01  -0.01
    30   6     0.05   0.03   0.02    -0.00  -0.01  -0.01     0.14   0.03  -0.13
    31   6    -0.04  -0.03  -0.04     0.00   0.01   0.02    -0.11  -0.08   0.15
    32   6     0.02   0.02  -0.02    -0.01  -0.01   0.01     0.01   0.08   0.07
    33   6    -0.03  -0.01   0.05     0.01   0.00  -0.01     0.01  -0.08  -0.06
    34   6     0.06   0.05  -0.02    -0.02  -0.02   0.00    -0.03  -0.10  -0.03
    35   6     0.08  -0.05  -0.03    -0.02   0.01   0.01    -0.07   0.02   0.01
    36   6    -0.04   0.02   0.02     0.01  -0.01  -0.00    -0.05   0.03   0.04
    37   6    -0.03  -0.01  -0.09     0.00   0.00   0.02    -0.04  -0.03  -0.11
    38   6     0.02  -0.01   0.09     0.00   0.00  -0.02     0.04  -0.01   0.08
    39   6     0.02   0.03  -0.04    -0.01  -0.01   0.01     0.09  -0.02   0.08
    40   6    -0.01  -0.03   0.05     0.00   0.01  -0.02    -0.07  -0.00  -0.10
    41   6    -0.02   0.02   0.02     0.01  -0.01  -0.01     0.01  -0.08   0.07
    42   6     0.03  -0.01  -0.05    -0.01   0.00   0.02     0.01   0.08  -0.06
    43   6    -0.06   0.05   0.02     0.02  -0.02  -0.00    -0.03   0.10  -0.03
    44   6     0.00   0.01  -0.00     0.00   0.01  -0.00    -0.07   0.00   0.03
    45   6    -0.00  -0.00   0.00    -0.00  -0.01   0.00     0.03  -0.00  -0.00
    46   6    -0.07   0.05   0.01     0.02  -0.01  -0.00     0.08  -0.05   0.00
    47   6     0.03  -0.03  -0.02    -0.01   0.01   0.01     0.05  -0.05  -0.02
    48   6    -0.03   0.03  -0.01     0.01  -0.01  -0.00     0.06   0.06   0.13
    49   6     0.05  -0.01   0.03    -0.01   0.00  -0.01    -0.10  -0.07  -0.09
    50   6    -0.05  -0.01  -0.03     0.01   0.00   0.01    -0.10   0.07  -0.09
    51   6     0.07   0.05  -0.01    -0.02  -0.01   0.00     0.08   0.05   0.00
    52   6    -0.08  -0.05   0.03     0.02   0.01  -0.01    -0.07  -0.02   0.01
    53   6     0.08  -0.05   0.00    -0.03   0.02  -0.01     0.07  -0.10   0.06
    54   6    -0.05   0.03  -0.02     0.00  -0.01   0.01     0.14  -0.03  -0.13
    55   6     0.04  -0.03   0.03    -0.00   0.01  -0.02    -0.11   0.08   0.15
    56   6     0.03   0.02   0.01    -0.01  -0.01  -0.00     0.01  -0.01   0.02
    57   6    -0.03   0.02  -0.01     0.01  -0.01   0.00     0.01   0.01   0.02
    58   6    -0.08  -0.05  -0.00     0.02   0.02   0.01     0.07   0.10   0.06
    59   6    -0.00  -0.02  -0.00     0.00   0.00  -0.01     0.00   0.01  -0.01
    60   6     0.00  -0.02   0.00    -0.00   0.00   0.01     0.00  -0.01  -0.01
    61   6     0.01  -0.01   0.00     0.01  -0.01   0.00     0.00   0.01   0.00
    62   6    -0.01  -0.01   0.00    -0.01  -0.01  -0.00    -0.00  -0.02   0.00
    63   6     0.02  -0.01  -0.01     0.02  -0.02  -0.01     0.01  -0.01   0.01
    64   1    -0.29   0.22  -0.07    -0.30   0.24  -0.05    -0.11   0.12   0.03
    65   1     0.20   0.14   0.05     0.20   0.18   0.01     0.04   0.14  -0.10
    66   1    -0.27  -0.13   0.17    -0.25  -0.15   0.13    -0.02  -0.08  -0.04
    67   6    -0.02  -0.01   0.01    -0.02  -0.02   0.01     0.00   0.01   0.01
    68   1     0.28  -0.13  -0.17     0.26  -0.16  -0.14     0.01   0.07  -0.05
    69   1    -0.21   0.15  -0.05    -0.20   0.19  -0.01     0.02  -0.12  -0.10
    70   1     0.30   0.22   0.08     0.31   0.25   0.05    -0.08  -0.10   0.04
    71   6    -0.00  -0.01  -0.01     0.01  -0.02  -0.02    -0.00   0.01   0.02
    72   1     0.00   0.13   0.02    -0.02   0.27   0.04     0.00  -0.18  -0.03
    73   1    -0.03   0.02   0.15    -0.06   0.02   0.27     0.05  -0.01  -0.17
    74   6     0.00  -0.01   0.01    -0.01  -0.02   0.02    -0.00  -0.02   0.02
    75   1     0.03   0.02  -0.14     0.06   0.02  -0.27     0.05   0.01  -0.19
    76   1    -0.00   0.13  -0.02     0.02   0.27  -0.04     0.00   0.20  -0.04
                    190                    191                    192
                      A                      A                      A
 Frequencies --   1500.1702              1502.0271              1505.8462
 Red. masses --      1.0605                 1.0988                 1.0969
 Frc consts  --      1.4062                 1.4606                 1.4655
 IR Inten    --      0.0000                 0.0000                 0.0000
  Atom  AN      X      Y      Z        X      Y      Z        X      Y      Z
     1   6    -0.00  -0.00   0.00    -0.00  -0.00   0.00     0.00  -0.00  -0.00
     2   6     0.00  -0.00  -0.00     0.00  -0.00  -0.00    -0.00  -0.00  -0.00
     3   6    -0.00   0.00   0.00    -0.01   0.01   0.00     0.00   0.00   0.00
     4   6    -0.00   0.00  -0.00     0.00  -0.00  -0.00    -0.01  -0.00   0.00
     5   6     0.00  -0.00  -0.00    -0.00   0.00   0.00     0.01   0.00  -0.00
     6   6     0.00   0.00  -0.00     0.00   0.00  -0.00     0.00   0.00   0.00
     7   6    -0.00  -0.00  -0.00     0.01   0.00  -0.00    -0.00  -0.00  -0.00
     8   6     0.00   0.00   0.01    -0.01  -0.00  -0.01     0.00   0.00   0.00
     9   6     0.01  -0.00   0.00    -0.00   0.00   0.00     0.00   0.00   0.01
    10   6    -0.01   0.00  -0.00     0.00  -0.00  -0.00    -0.00  -0.00  -0.01
    11   6     0.00   0.00   0.00     0.01  -0.00   0.00    -0.00  -0.00  -0.00
    12   6    -0.00  -0.00   0.00     0.01   0.01  -0.00     0.00  -0.00   0.00
    13   6     0.00   0.00  -0.00    -0.00  -0.00   0.00    -0.00   0.00  -0.00
    14   6    -0.00   0.00   0.00     0.00  -0.00  -0.00     0.00   0.00  -0.00
    15   6     0.00  -0.00  -0.00    -0.00   0.00   0.00     0.00  -0.00   0.00
    16   6    -0.00  -0.00   0.00     0.00  -0.00  -0.00    -0.00   0.00   0.00
    17   6    -0.00   0.00   0.00    -0.00  -0.00   0.00    -0.00  -0.00   0.00
    18   6    -0.00  -0.00  -0.00     0.00   0.00   0.00     0.00   0.00  -0.00
    19   6     0.00   0.00   0.00    -0.00  -0.00   0.00    -0.00  -0.00   0.00
    20   6     0.00   0.00  -0.00     0.01  -0.00   0.01    -0.00   0.00  -0.01
    21   6    -0.00  -0.00   0.00     0.00   0.00  -0.00    -0.00  -0.00   0.00
    22   6    -0.00   0.00  -0.00    -0.00  -0.00   0.00     0.00   0.00  -0.00
    23   6     0.00   0.00   0.00     0.00   0.00   0.00     0.00  -0.00   0.01
    24   6    -0.00  -0.01   0.00    -0.00  -0.00  -0.00    -0.00  -0.01   0.00
    25   6    -0.00   0.01   0.00     0.00  -0.00   0.00    -0.00   0.01   0.00
    26   6    -0.00   0.00  -0.00    -0.00   0.00  -0.00     0.00  -0.00  -0.00
    27   6     0.00  -0.00   0.00     0.00  -0.00  -0.00    -0.00   0.00   0.00
    28   6    -0.00   0.00  -0.00    -0.01   0.00   0.00    -0.00   0.00  -0.00
    29   6     0.00  -0.00   0.00    -0.01  -0.00  -0.00    -0.00   0.00  -0.00
    30   6     0.00  -0.00  -0.00     0.01   0.00  -0.01     0.01   0.00  -0.01
    31   6    -0.00   0.00   0.00    -0.01  -0.00   0.00    -0.01  -0.01   0.01
    32   6     0.00  -0.00  -0.00     0.00   0.00   0.00     0.00   0.00   0.00
    33   6    -0.00   0.00   0.00    -0.00  -0.00   0.00    -0.00  -0.00  -0.00
    34   6     0.00  -0.00  -0.00     0.00  -0.00  -0.00    -0.00  -0.00  -0.00
    35   6    -0.00   0.00   0.00     0.00  -0.00  -0.00    -0.00  -0.00  -0.00
    36   6    -0.00   0.00   0.00    -0.00   0.00   0.00    -0.00   0.00   0.00
    37   6     0.00  -0.00  -0.00    -0.01  -0.00  -0.01    -0.00  -0.00  -0.01
    38   6     0.00  -0.00   0.00     0.01  -0.00   0.01     0.00  -0.00   0.00
    39   6     0.01   0.00   0.00     0.00   0.00  -0.00     0.00  -0.00   0.01
    40   6    -0.01  -0.00  -0.00    -0.00  -0.00   0.00    -0.00   0.00  -0.01
    41   6     0.00   0.00  -0.00    -0.00   0.00  -0.00     0.00  -0.00   0.00
    42   6    -0.00  -0.00   0.00     0.00  -0.00  -0.00    -0.00   0.00  -0.00
    43   6     0.00   0.00  -0.00    -0.00  -0.00   0.00    -0.00   0.00  -0.00
    44   6    -0.00  -0.00   0.00     0.00   0.01  -0.00     0.00   0.00   0.00
    45   6     0.00   0.00  -0.00     0.00  -0.00  -0.00    -0.00  -0.00  -0.00
    46   6     0.00  -0.00  -0.00    -0.00   0.01   0.00     0.00   0.00   0.00
    47   6    -0.00  -0.00  -0.00     0.00  -0.00  -0.00     0.00  -0.00  -0.00
    48   6     0.00  -0.00   0.00    -0.00   0.00  -0.00     0.00   0.00   0.01
    49   6    -0.00   0.00  -0.00     0.01   0.00   0.00    -0.00  -0.00  -0.00
    50   6    -0.00  -0.00  -0.00    -0.01   0.00  -0.00    -0.00   0.00  -0.00
    51   6     0.00   0.00  -0.00     0.00   0.01  -0.00     0.00  -0.00   0.00
    52   6    -0.00  -0.00   0.00    -0.00  -0.00   0.00    -0.00   0.00  -0.00
    53   6     0.00  -0.00   0.00     0.00   0.00  -0.00     0.00  -0.01   0.00
    54   6     0.00   0.00  -0.00    -0.01   0.00   0.01     0.01  -0.00  -0.01
    55   6    -0.00  -0.00   0.00     0.01  -0.00  -0.00    -0.01   0.01   0.01
    56   6    -0.00   0.00  -0.00     0.01   0.00  -0.00     0.00  -0.00   0.00
    57   6    -0.00  -0.00  -0.00    -0.01   0.00   0.00     0.00   0.00   0.00
    58   6    -0.00   0.00   0.00    -0.00   0.00   0.00     0.00   0.01   0.00
    59   6     0.00  -0.00  -0.00     0.00  -0.00  -0.00     0.00  -0.00  -0.00
    60   6     0.00   0.00  -0.00    -0.00  -0.00   0.00     0.00   0.00  -0.00
    61   6    -0.01  -0.01   0.01    -0.02  -0.00   0.01     0.00  -0.03  -0.01
    62   6    -0.01   0.02   0.01     0.02  -0.00  -0.01     0.00   0.03  -0.01
    63   6    -0.04   0.01   0.01    -0.01  -0.00   0.02    -0.00   0.03  -0.03
    64   1     0.38  -0.24   0.15     0.15  -0.03   0.15     0.10  -0.20  -0.17
    65   1    -0.23  -0.14  -0.08    -0.16   0.06  -0.22     0.05  -0.31   0.37
    66   1     0.36   0.17  -0.22     0.25  -0.02  -0.24    -0.15   0.19   0.26
    67   6    -0.03  -0.01   0.01     0.01  -0.00  -0.02    -0.00  -0.02  -0.03
    68   1     0.35  -0.17  -0.21    -0.25  -0.02   0.24    -0.15  -0.18   0.26
    69   1    -0.22   0.13  -0.08     0.16   0.06   0.22     0.06   0.30   0.37
    70   1     0.37   0.23   0.15    -0.15  -0.03  -0.15     0.09   0.20  -0.17
    71   6     0.01  -0.00  -0.00    -0.01  -0.03  -0.03     0.00  -0.02  -0.01
    72   1    -0.02   0.03  -0.00     0.03   0.35   0.07    -0.00   0.17   0.03
    73   1    -0.05   0.00   0.01    -0.03   0.02   0.35    -0.08   0.01   0.14
    74   6     0.01   0.00  -0.00     0.01  -0.03   0.03     0.00   0.01  -0.01
    75   1    -0.05  -0.00   0.02     0.03   0.02  -0.35    -0.08  -0.01   0.14
    76   1    -0.02  -0.03   0.00    -0.03   0.35  -0.07    -0.00  -0.17   0.03
                    193                    194                    195
                      A                      A                      A
 Frequencies --   1508.0488              1523.5307              1553.3547
 Red. masses --      1.0673                 1.1029                11.2932
 Frc consts  --      1.4302                 1.5083                16.0549
 IR Inten    --      0.0000                 0.0000                 0.0000
  Atom  AN      X      Y      Z        X      Y      Z        X      Y      Z
     1   6     0.00  -0.00  -0.00     0.00   0.00  -0.00     0.08   0.02  -0.02
     2   6    -0.00   0.00   0.00    -0.00  -0.00  -0.00    -0.12   0.05   0.03
     3   6     0.00  -0.00  -0.00     0.00  -0.00   0.00     0.11  -0.07  -0.00
     4   6    -0.00   0.00   0.00    -0.01   0.00   0.00    -0.17  -0.00   0.02
     5   6     0.00  -0.00  -0.00     0.01   0.00  -0.00     0.17   0.00  -0.06
     6   6    -0.00   0.00   0.00    -0.00   0.00   0.00    -0.04  -0.00   0.02
     7   6    -0.00  -0.00   0.00    -0.00  -0.00  -0.00     0.01  -0.01  -0.07
     8   6     0.00   0.00   0.00     0.00   0.00   0.00     0.04   0.02   0.16
     9   6     0.00  -0.00  -0.00     0.00   0.00   0.00     0.00  -0.00  -0.02
    10   6    -0.00   0.00  -0.00    -0.00   0.00  -0.00     0.03  -0.00   0.07
    11   6    -0.00   0.00  -0.00    -0.01  -0.00  -0.01    -0.10  -0.13  -0.12
    12   6    -0.00  -0.00   0.00     0.00   0.00   0.00     0.11   0.07  -0.00
    13   6     0.00   0.00  -0.00    -0.00   0.00  -0.00    -0.12  -0.05   0.03
    14   6    -0.00  -0.00   0.00     0.00  -0.00  -0.00     0.08  -0.02  -0.02
    15   6     0.00   0.00  -0.00    -0.00  -0.00   0.00    -0.04   0.00   0.02
    16   6    -0.00   0.00  -0.00    -0.00   0.00  -0.00    -0.01   0.08  -0.02
    17   6     0.00   0.00   0.00    -0.00  -0.00  -0.00    -0.01  -0.08  -0.02
    18   6    -0.00  -0.00  -0.00     0.00   0.00  -0.00     0.01   0.05   0.00
    19   6     0.00   0.00  -0.00    -0.00  -0.00   0.00    -0.02  -0.01   0.10
    20   6    -0.00   0.00  -0.00    -0.00   0.00  -0.01    -0.04   0.02  -0.16
    21   6     0.00   0.00   0.00     0.00  -0.00   0.00     0.05  -0.01   0.06
    22   6    -0.00  -0.00  -0.00    -0.00   0.00  -0.00    -0.07  -0.01  -0.09
    23   6    -0.00   0.00  -0.00     0.00  -0.00   0.00     0.01   0.04  -0.00
    24   6     0.00   0.00   0.00    -0.00  -0.00   0.00    -0.02  -0.15   0.00
    25   6    -0.00   0.00  -0.00    -0.00   0.00   0.00    -0.02   0.15   0.00
    26   6     0.00  -0.00   0.00     0.00  -0.00  -0.00     0.01  -0.05   0.00
    27   6    -0.00   0.00   0.00    -0.00   0.00   0.00    -0.02   0.01   0.10
    28   6     0.00  -0.00  -0.00    -0.00   0.00  -0.00     0.01   0.01  -0.07
    29   6     0.00   0.00  -0.00    -0.01   0.00  -0.01    -0.10   0.13  -0.12
    30   6    -0.00  -0.00   0.00     0.01   0.00  -0.01     0.03   0.01   0.00
    31   6     0.00   0.00  -0.00    -0.01  -0.01   0.01    -0.01  -0.00  -0.05
    32   6     0.00  -0.00  -0.00     0.00   0.00   0.00     0.02  -0.10  -0.18
    33   6     0.00   0.00   0.00    -0.00   0.00   0.00    -0.05   0.13   0.17
    34   6     0.00   0.00   0.00     0.00  -0.00  -0.00     0.11   0.07  -0.05
    35   6     0.00   0.00   0.00    -0.00  -0.00  -0.00     0.09  -0.03  -0.03
    36   6    -0.00   0.00  -0.00     0.00   0.00   0.00     0.05   0.01   0.06
    37   6     0.00   0.00   0.00    -0.00  -0.00  -0.01    -0.04  -0.02  -0.16
    38   6    -0.00   0.00  -0.00     0.00  -0.00   0.00     0.04  -0.02   0.16
    39   6    -0.00  -0.00   0.00     0.00  -0.00   0.00     0.00   0.00  -0.02
    40   6     0.00   0.00  -0.00    -0.00  -0.00  -0.00     0.03   0.00   0.07
    41   6    -0.00  -0.00   0.00     0.00  -0.00   0.00     0.02   0.10  -0.18
    42   6    -0.00   0.00  -0.00    -0.00  -0.00   0.00    -0.05  -0.13   0.17
    43   6    -0.00   0.00  -0.00     0.00   0.00  -0.00     0.11  -0.07  -0.05
    44   6     0.00  -0.00   0.00    -0.00   0.00   0.00    -0.18  -0.00   0.06
    45   6    -0.00   0.00  -0.00    -0.00  -0.00  -0.00     0.19   0.00  -0.02
    46   6    -0.00  -0.00  -0.00     0.00   0.00   0.00    -0.05   0.01   0.00
    47   6     0.00  -0.00   0.00    -0.00  -0.00  -0.00    -0.07   0.01  -0.09
    48   6     0.00   0.00   0.00     0.00   0.00   0.00     0.01  -0.04  -0.00
    49   6    -0.00  -0.00  -0.00    -0.00  -0.00  -0.00    -0.00   0.07   0.01
    50   6     0.00  -0.00   0.00    -0.00   0.00  -0.00    -0.00  -0.07   0.01
    51   6     0.00  -0.00   0.00     0.00  -0.00   0.00    -0.05  -0.01   0.00
    52   6    -0.00   0.00  -0.00    -0.00   0.00  -0.00     0.09   0.03  -0.03
    53   6     0.00  -0.00   0.00    -0.00  -0.00   0.00    -0.13   0.05   0.03
    54   6     0.00  -0.00  -0.00     0.01  -0.00  -0.01     0.03  -0.01   0.00
    55   6    -0.00   0.00   0.00    -0.01   0.01   0.01    -0.01   0.00  -0.05
    56   6    -0.00  -0.00   0.00     0.01  -0.00   0.01     0.08  -0.08   0.14
    57   6     0.00  -0.00  -0.00     0.01   0.00   0.01     0.08   0.08   0.14
    58   6    -0.00  -0.00  -0.00    -0.00   0.00   0.00    -0.13  -0.05   0.03
    59   6    -0.00  -0.00   0.00     0.00  -0.00  -0.00    -0.01   0.02   0.01
    60   6     0.00  -0.00  -0.00     0.00   0.00  -0.00    -0.01  -0.02   0.01
    61   6     0.01  -0.01   0.01     0.01   0.00   0.00     0.00   0.00   0.00
    62   6    -0.01  -0.01  -0.01     0.01  -0.00   0.00     0.00  -0.00   0.00
    63   6     0.00  -0.02   0.02     0.01  -0.01   0.01     0.00  -0.00   0.00
    64   1    -0.12   0.24   0.19    -0.06   0.09   0.05    -0.00  -0.00  -0.01
    65   1     0.02   0.33  -0.30    -0.02   0.11  -0.14    -0.00  -0.01   0.00
    66   1     0.09  -0.19  -0.21     0.02  -0.11  -0.10    -0.00   0.00   0.01
    67   6    -0.00  -0.02  -0.02     0.01   0.01   0.01     0.00   0.00   0.00
    68   1    -0.10  -0.19   0.22     0.02   0.11  -0.10    -0.00  -0.00   0.01
    69   1    -0.02   0.33   0.31    -0.02  -0.12  -0.14    -0.00   0.01   0.00
    70   1     0.12   0.25  -0.19    -0.06  -0.09   0.05    -0.00   0.00  -0.01
    71   6     0.01   0.02   0.02    -0.00  -0.03  -0.04    -0.02   0.00   0.01
    72   1    -0.01  -0.20  -0.04     0.00   0.45   0.08     0.04  -0.11  -0.01
    73   1     0.02  -0.01  -0.21    -0.09   0.03   0.46     0.09  -0.01  -0.10
    74   6    -0.01   0.02  -0.02    -0.00   0.03  -0.04    -0.02  -0.00   0.01
    75   1    -0.02  -0.01   0.22    -0.09  -0.03   0.46     0.09   0.01  -0.10
    76   1     0.01  -0.21   0.04     0.00  -0.45   0.08     0.04   0.11  -0.01
                    196                    197                    198
                      A                      A                      A
 Frequencies --   1563.9533              1566.8436              1572.6369
 Red. masses --     11.9269                11.9203                11.9917
 Frc consts  --     17.1880                17.2420                17.4738
 IR Inten    --      0.0000                 0.0000                 0.0000
  Atom  AN      X      Y      Z        X      Y      Z        X      Y      Z
     1   6     0.10   0.09   0.03     0.07   0.06   0.00    -0.06  -0.14  -0.09
     2   6    -0.09   0.10   0.07     0.09  -0.11  -0.06     0.03   0.09   0.07
     3   6     0.10  -0.10  -0.02    -0.10   0.16   0.04    -0.03  -0.09  -0.04
     4   6    -0.00  -0.01   0.00     0.00  -0.12  -0.00     0.13   0.00  -0.01
     5   6     0.00  -0.02  -0.00    -0.00   0.11   0.00    -0.09  -0.00   0.02
     6   6    -0.09  -0.09   0.01    -0.08  -0.11   0.01     0.03   0.14   0.06
     7   6    -0.13  -0.07   0.02    -0.06  -0.00   0.10    -0.15  -0.03   0.15
     8   6    -0.01   0.01   0.03    -0.01   0.00   0.01     0.08   0.01  -0.02
     9   6     0.15  -0.08  -0.04    -0.11   0.02  -0.05    -0.02  -0.02  -0.04
    10   6    -0.15   0.11   0.01     0.11  -0.06   0.05    -0.01   0.02   0.02
    11   6     0.01   0.07   0.04     0.09  -0.02   0.06     0.04   0.07   0.06
    12   6    -0.10  -0.10   0.02     0.10   0.16  -0.04    -0.03   0.09  -0.04
    13   6     0.09   0.10  -0.07    -0.09  -0.11   0.06     0.03  -0.09   0.07
    14   6    -0.10   0.09  -0.03    -0.07   0.06  -0.00    -0.06   0.14  -0.09
    15   6     0.09  -0.09  -0.01     0.08  -0.11  -0.01     0.03  -0.14   0.06
    16   6     0.01   0.08  -0.08    -0.07  -0.03   0.16     0.04   0.09  -0.13
    17   6    -0.01   0.08   0.08     0.07  -0.03  -0.16     0.04  -0.09  -0.13
    18   6    -0.01  -0.08  -0.12    -0.04   0.00   0.17     0.01   0.09   0.12
    19   6     0.12   0.09  -0.04     0.07   0.04  -0.10     0.10   0.05  -0.14
    20   6     0.02  -0.02   0.03    -0.01   0.00  -0.01    -0.07  -0.01   0.04
    21   6     0.11   0.07  -0.04    -0.11  -0.01  -0.06     0.20   0.03   0.07
    22   6    -0.11  -0.09   0.02     0.11   0.05   0.06    -0.14  -0.05  -0.08
    23   6    -0.04   0.08  -0.12    -0.10  -0.00  -0.13     0.04  -0.10   0.11
    24   6     0.02   0.00   0.10     0.01   0.03  -0.01     0.00   0.01   0.01
    25   6    -0.02   0.00  -0.10    -0.01   0.03   0.01     0.00  -0.01   0.01
    26   6     0.01  -0.08   0.12     0.04   0.00  -0.17     0.01  -0.09   0.12
    27   6    -0.12   0.09   0.04    -0.07   0.04   0.10     0.10  -0.05  -0.14
    28   6     0.13  -0.07  -0.02     0.06  -0.00  -0.10    -0.15   0.03   0.15
    29   6    -0.01   0.07  -0.04    -0.09  -0.02  -0.06     0.04  -0.07   0.06
    30   6     0.15   0.08  -0.03     0.08   0.02  -0.10     0.00  -0.02  -0.05
    31   6    -0.14  -0.12   0.06    -0.08  -0.06   0.10     0.02   0.03   0.03
    32   6     0.03   0.09   0.07     0.05   0.02  -0.08    -0.01  -0.07  -0.07
    33   6    -0.02  -0.07  -0.03    -0.06  -0.01   0.11    -0.02   0.06   0.07
    34   6     0.10   0.09  -0.02     0.10   0.15  -0.00     0.00  -0.09  -0.05
    35   6     0.07  -0.09  -0.06    -0.07   0.07   0.03     0.01  -0.14  -0.11
    36   6    -0.11   0.07   0.04     0.11  -0.01   0.06     0.20  -0.03   0.07
    37   6    -0.02  -0.02  -0.03     0.01   0.00   0.01    -0.07   0.01   0.04
    38   6     0.01   0.01  -0.03     0.01   0.00  -0.01     0.08  -0.01  -0.02
    39   6    -0.15  -0.08   0.04     0.11   0.02   0.05    -0.02   0.02  -0.04
    40   6     0.15   0.11  -0.01    -0.11  -0.06  -0.05    -0.01  -0.02   0.02
    41   6    -0.03   0.09  -0.07    -0.05   0.02   0.08    -0.01   0.07  -0.07
    42   6     0.02  -0.07   0.03     0.06  -0.01  -0.11    -0.02  -0.06   0.07
    43   6    -0.10   0.09   0.02    -0.10   0.15   0.00     0.00   0.09  -0.05
    44   6    -0.00   0.01   0.00     0.00  -0.12  -0.00    -0.10   0.00   0.04
    45   6     0.00   0.02   0.00    -0.00   0.11   0.00     0.07  -0.00  -0.02
    46   6    -0.08   0.08   0.02     0.08  -0.12  -0.03     0.01   0.14   0.07
    47   6     0.11  -0.09  -0.02    -0.11   0.05  -0.06    -0.14   0.05  -0.08
    48   6     0.04   0.08   0.12     0.10  -0.00   0.13     0.04   0.10   0.11
    49   6    -0.04  -0.08  -0.07    -0.13  -0.02  -0.11    -0.09  -0.11  -0.10
    50   6     0.04  -0.08   0.07     0.13  -0.02   0.11    -0.09   0.11  -0.10
    51   6     0.08   0.08  -0.02    -0.08  -0.12   0.03     0.01  -0.14   0.07
    52   6    -0.07  -0.09   0.06     0.07   0.07  -0.03     0.01   0.14  -0.11
    53   6     0.11  -0.10   0.02     0.10  -0.10   0.02     0.01  -0.09   0.07
    54   6    -0.15   0.08   0.03    -0.08   0.02   0.10     0.00   0.02  -0.05
    55   6     0.14  -0.12  -0.06     0.08  -0.06  -0.10     0.02  -0.03   0.03
    56   6     0.02  -0.09   0.08     0.07   0.03   0.04    -0.03   0.07  -0.07
    57   6    -0.02  -0.09  -0.08    -0.07   0.03  -0.04    -0.03  -0.07  -0.07
    58   6    -0.11  -0.10  -0.02    -0.10  -0.10  -0.02     0.01   0.09   0.07
    59   6    -0.01   0.00  -0.04    -0.01  -0.01   0.00     0.00   0.00   0.01
    60   6     0.01   0.00   0.04     0.01  -0.01  -0.00     0.00  -0.00   0.01
    61   6    -0.00  -0.00  -0.00    -0.01  -0.00  -0.01    -0.00   0.00  -0.00
    62   6     0.00  -0.00   0.00     0.01  -0.00   0.01    -0.00  -0.00  -0.00
    63   6     0.00   0.00   0.00     0.00   0.00   0.00    -0.00  -0.00  -0.00
    64   1    -0.00   0.00  -0.01     0.01  -0.01   0.00    -0.01   0.01   0.00
    65   1    -0.00  -0.00  -0.00    -0.01  -0.01  -0.01     0.01   0.01   0.00
    66   1    -0.01  -0.01   0.00     0.01   0.00  -0.01    -0.00   0.00   0.00
    67   6    -0.00   0.00  -0.00    -0.00   0.00  -0.00    -0.00   0.00  -0.00
    68   1     0.01  -0.01  -0.00    -0.01   0.00   0.01    -0.00  -0.00   0.00
    69   1     0.00  -0.00  -0.00     0.01  -0.01   0.01     0.01  -0.01   0.00
    70   1     0.00  -0.00   0.01    -0.01  -0.01  -0.00    -0.01  -0.01   0.00
    71   6    -0.00  -0.00  -0.00    -0.01   0.00  -0.00     0.00   0.00   0.00
    72   1    -0.01   0.04   0.01     0.03  -0.01   0.00    -0.01  -0.01  -0.00
    73   1     0.01   0.00   0.04     0.05   0.00   0.00    -0.00   0.00   0.00
    74   6     0.00  -0.00   0.00     0.01   0.00   0.00     0.00  -0.00   0.00
    75   1    -0.01   0.00  -0.04    -0.05   0.00  -0.00    -0.00  -0.00   0.00
    76   1     0.01   0.04  -0.01    -0.03  -0.01  -0.00    -0.01   0.01  -0.00
                    199                    200                    201
                      A                      A                      A
 Frequencies --   1583.5769              1598.2032              1601.4425
 Red. masses --     11.7909                11.9657                11.9342
 Frc consts  --     17.4211                18.0074                18.0330
 IR Inten    --      0.0000                 0.0000                 0.0000
  Atom  AN      X      Y      Z        X      Y      Z        X      Y      Z
     1   6    -0.10  -0.10  -0.02    -0.08  -0.10  -0.04     0.00  -0.09  -0.07
     2   6    -0.04   0.08   0.05     0.04  -0.05  -0.03    -0.13   0.19   0.13
     3   6     0.06  -0.12  -0.03    -0.04   0.04   0.01     0.11  -0.21  -0.07
     4   6     0.09  -0.00   0.00     0.00   0.03   0.00    -0.18  -0.00   0.02
     5   6    -0.07   0.00   0.01    -0.00  -0.02   0.00     0.19   0.00  -0.07
     6   6     0.09   0.12  -0.00     0.07   0.11   0.01    -0.00   0.11   0.05
     7   6     0.06   0.03  -0.03     0.05   0.02  -0.07    -0.00   0.00  -0.01
     8   6    -0.02  -0.02  -0.13     0.07   0.03   0.27    -0.00   0.01   0.07
     9   6     0.10  -0.00   0.07    -0.06   0.01  -0.04     0.11  -0.07  -0.04
    10   6    -0.10   0.03  -0.09     0.07  -0.03   0.07    -0.11   0.09   0.02
    11   6    -0.09  -0.05  -0.08    -0.06  -0.07  -0.08     0.02   0.10   0.06
    12   6     0.06   0.12  -0.03     0.04   0.04  -0.01     0.11   0.21  -0.07
    13   6    -0.04  -0.08   0.05    -0.04  -0.05   0.03    -0.13  -0.19   0.13
    14   6    -0.10   0.10  -0.02     0.08  -0.10   0.04     0.00   0.09  -0.07
    15   6     0.09  -0.12  -0.00    -0.07   0.11  -0.01    -0.00  -0.11   0.05
    16   6    -0.02  -0.08   0.07    -0.02  -0.08   0.11    -0.00   0.05  -0.02
    17   6    -0.02   0.08   0.07     0.02  -0.08  -0.11    -0.00  -0.05  -0.02
    18   6     0.00  -0.05  -0.05     0.01   0.08   0.13     0.01   0.04   0.02
    19   6    -0.05  -0.04   0.02    -0.05  -0.04   0.09    -0.00  -0.00   0.01
    20   6     0.03  -0.02   0.13    -0.07   0.03  -0.27     0.01   0.00  -0.06
    21   6     0.05   0.02  -0.00     0.10   0.03   0.04     0.10   0.03   0.01
    22   6    -0.04  -0.04   0.01    -0.10  -0.06  -0.06    -0.09  -0.06  -0.03
    23   6     0.02  -0.05   0.04    -0.05   0.09  -0.13     0.02   0.06  -0.02
    24   6     0.03   0.27  -0.01     0.01   0.01   0.00    -0.01  -0.07   0.00
    25   6     0.03  -0.27  -0.01    -0.01   0.01  -0.00    -0.01   0.07   0.00
    26   6     0.00   0.05  -0.05    -0.01   0.08  -0.13     0.01  -0.04   0.02
    27   6    -0.05   0.04   0.02     0.05  -0.04  -0.09    -0.00   0.00   0.01
    28   6     0.06  -0.03  -0.03    -0.05   0.02   0.07    -0.00  -0.00  -0.01
    29   6    -0.09   0.05  -0.08     0.06  -0.07   0.08     0.02  -0.10   0.06
    30   6     0.08   0.01  -0.12     0.02   0.00  -0.05    -0.08  -0.01   0.09
    31   6    -0.07  -0.04   0.14    -0.02  -0.02   0.08     0.06   0.03  -0.09
    32   6     0.03  -0.04  -0.14    -0.01   0.06   0.12    -0.01   0.09   0.17
    33   6    -0.05   0.06   0.13     0.03  -0.07  -0.11     0.04  -0.11  -0.14
    34   6     0.07   0.13  -0.00     0.03   0.02  -0.01    -0.02   0.07   0.06
    35   6    -0.09   0.11   0.07     0.07  -0.13  -0.09    -0.07   0.12   0.08
    36   6     0.05  -0.02  -0.00    -0.10   0.03  -0.04     0.10  -0.03   0.01
    37   6     0.03   0.02   0.13     0.07   0.03   0.27     0.01  -0.00  -0.06
    38   6    -0.02   0.02  -0.13    -0.07   0.03  -0.27    -0.00  -0.01   0.07
    39   6     0.10   0.00   0.07     0.06   0.01   0.04     0.11   0.07  -0.04
    40   6    -0.10  -0.03  -0.09    -0.07  -0.03  -0.07    -0.11  -0.09   0.02
    41   6     0.03   0.04  -0.14     0.01   0.06  -0.12    -0.01  -0.09   0.17
    42   6    -0.05  -0.06   0.13    -0.03  -0.07   0.11     0.04   0.11  -0.14
    43   6     0.07  -0.13  -0.00    -0.03   0.02   0.01    -0.02  -0.07   0.06
    44   6     0.09   0.00  -0.04    -0.00   0.05   0.00     0.05  -0.00  -0.02
    45   6    -0.08  -0.00   0.02     0.00  -0.04  -0.00    -0.04   0.00   0.01
    46   6     0.08  -0.13  -0.04    -0.07   0.14   0.05     0.07  -0.14  -0.05
    47   6    -0.04   0.04   0.01     0.10  -0.06   0.06    -0.09   0.06  -0.03
    48   6     0.02   0.05   0.04     0.05   0.09   0.13     0.02  -0.06  -0.02
    49   6    -0.04  -0.07  -0.05    -0.07  -0.10  -0.10    -0.01   0.07   0.01
    50   6    -0.04   0.07  -0.05     0.07  -0.10   0.10    -0.01  -0.07   0.01
    51   6     0.08   0.13  -0.04     0.07   0.14  -0.05     0.07   0.14  -0.05
    52   6    -0.09  -0.11   0.07    -0.07  -0.13   0.09    -0.07  -0.12   0.08
    53   6    -0.06   0.08  -0.02     0.04  -0.03   0.01     0.00   0.08  -0.07
    54   6     0.08  -0.01  -0.12    -0.02   0.00   0.05    -0.08   0.01   0.09
    55   6    -0.07   0.04   0.14     0.02  -0.02  -0.08     0.06  -0.03  -0.09
    56   6     0.08  -0.04   0.10    -0.05   0.06  -0.09    -0.01   0.11  -0.09
    57   6     0.08   0.04   0.10     0.05   0.06   0.09    -0.01  -0.11  -0.09
    58   6    -0.06  -0.08  -0.02    -0.04  -0.03  -0.01     0.00  -0.08  -0.07
    59   6    -0.00   0.02   0.00     0.01   0.00  -0.00    -0.01  -0.02  -0.01
    60   6    -0.00  -0.02   0.00    -0.01   0.00   0.00    -0.01   0.02  -0.01
    61   6     0.00   0.00   0.00     0.00  -0.00   0.00    -0.00  -0.00  -0.00
    62   6     0.00  -0.00   0.00    -0.00  -0.00  -0.00    -0.00   0.00  -0.00
    63   6     0.00  -0.00   0.00     0.00  -0.00  -0.00     0.00   0.00   0.00
    64   1    -0.01   0.00  -0.01    -0.01   0.00  -0.00     0.01  -0.01  -0.00
    65   1    -0.00   0.00  -0.00     0.00   0.00   0.00    -0.01  -0.01  -0.00
    66   1    -0.00  -0.00   0.00    -0.01  -0.00   0.00     0.00  -0.00  -0.00
    67   6     0.00   0.00   0.00    -0.00  -0.00   0.00     0.00  -0.00   0.00
    68   1    -0.00   0.00   0.00     0.01  -0.00  -0.00     0.00   0.00  -0.00
    69   1    -0.00  -0.00  -0.00    -0.00   0.00  -0.00    -0.01   0.01  -0.00
    70   1    -0.01  -0.00  -0.01     0.01   0.00   0.00     0.01   0.01  -0.00
    71   6    -0.02  -0.00   0.00     0.01  -0.00  -0.00     0.01   0.00  -0.00
    72   1     0.03  -0.04   0.00    -0.03   0.02  -0.01    -0.01   0.02  -0.00
    73   1     0.08  -0.00  -0.03    -0.02  -0.00   0.01    -0.04   0.00   0.02
    74   6    -0.02   0.00   0.00    -0.01  -0.00   0.00     0.01  -0.00  -0.00
    75   1     0.08   0.00  -0.03     0.02  -0.00  -0.01    -0.04  -0.00   0.02
    76   1     0.03   0.04   0.00     0.03   0.02   0.01    -0.01  -0.02  -0.00
                    202                    203                    204
                      A                      A                      A
 Frequencies --   1602.3589              1605.2573              1607.6565
 Red. masses --     11.9477                11.9922                11.9714
 Frc consts  --     18.0740                18.2069                18.2297
 IR Inten    --      0.0000                 0.0000                 0.0000
  Atom  AN      X      Y      Z        X      Y      Z        X      Y      Z
     1   6    -0.11  -0.08  -0.01    -0.11  -0.15  -0.06     0.07   0.09   0.03
     2   6     0.11  -0.05  -0.03    -0.07   0.13   0.09    -0.01  -0.11  -0.09
     3   6    -0.10   0.06   0.01     0.06  -0.16  -0.05     0.02   0.11   0.06
     4   6     0.21  -0.00  -0.02     0.00   0.11   0.00     0.07   0.00  -0.01
     5   6    -0.20   0.00   0.07    -0.00  -0.10  -0.00    -0.07  -0.00   0.03
     6   6     0.09   0.09  -0.01     0.10   0.18   0.02    -0.06  -0.11  -0.01
     7   6     0.03   0.02  -0.01     0.14   0.06  -0.06    -0.15  -0.05   0.09
     8   6     0.03   0.00   0.03    -0.07   0.00   0.05    -0.01   0.00  -0.02
     9   6    -0.08   0.03  -0.00     0.12  -0.05  -0.01     0.16  -0.01   0.08
    10   6     0.08  -0.05   0.01    -0.11   0.08   0.00    -0.13   0.05  -0.07
    11   6     0.04   0.01   0.03    -0.03   0.04  -0.01    -0.13  -0.16  -0.16
    12   6    -0.10  -0.06   0.01    -0.06  -0.16   0.05     0.02  -0.11   0.06
    13   6     0.11   0.05  -0.03     0.07   0.13  -0.09    -0.01   0.11  -0.09
    14   6    -0.11   0.08  -0.01     0.11  -0.15   0.06     0.07  -0.09   0.03
    15   6     0.09  -0.09  -0.01    -0.10   0.18  -0.02    -0.06   0.11  -0.01
    16   6    -0.00   0.06  -0.03     0.01  -0.06   0.03     0.03  -0.02  -0.04
    17   6    -0.00  -0.06  -0.03    -0.01  -0.06  -0.03     0.03   0.02  -0.04
    18   6     0.01   0.05   0.04     0.02   0.06   0.04    -0.02  -0.03   0.04
    19   6    -0.03  -0.02   0.01    -0.12  -0.09   0.07     0.13   0.09  -0.10
    20   6    -0.03   0.00  -0.03     0.07   0.01  -0.05     0.01  -0.01   0.03
    21   6     0.02   0.00   0.02    -0.12  -0.05   0.02     0.15   0.04   0.02
    22   6    -0.03  -0.01  -0.02     0.11   0.08  -0.01    -0.13  -0.07  -0.04
    23   6     0.01   0.01   0.01    -0.00  -0.05   0.03     0.04  -0.03   0.06
    24   6    -0.01  -0.04   0.00    -0.01   0.00  -0.03     0.01   0.05  -0.00
    25   6    -0.01   0.04   0.00     0.01   0.00   0.03     0.01  -0.05  -0.00
    26   6     0.01  -0.05   0.04    -0.02   0.06  -0.04    -0.02   0.03   0.04
    27   6    -0.03   0.02   0.01     0.12  -0.09  -0.07     0.13  -0.09  -0.10
    28   6     0.03  -0.02  -0.01    -0.14   0.06   0.06    -0.15   0.05   0.09
    29   6     0.04  -0.01   0.03     0.03   0.04   0.01    -0.13   0.16  -0.16
    30   6     0.10   0.06   0.01     0.13   0.05  -0.07    -0.12  -0.03   0.10
    31   6    -0.09  -0.09   0.01    -0.11  -0.09   0.08     0.09   0.06  -0.10
    32   6     0.03   0.13   0.12     0.03   0.04  -0.01    -0.02   0.06   0.12
    33   6     0.00  -0.13  -0.10    -0.02  -0.04   0.02     0.03  -0.08  -0.11
    34   6     0.15   0.22   0.01     0.08   0.15   0.01    -0.00   0.04   0.03
    35   6     0.07   0.04   0.03    -0.06   0.13   0.09    -0.02   0.02   0.00
    36   6     0.02  -0.00   0.02     0.12  -0.05  -0.02     0.15  -0.04   0.02
    37   6    -0.03  -0.00  -0.03    -0.07   0.01   0.05     0.01   0.01   0.03
    38   6     0.03  -0.00   0.03     0.07   0.00  -0.05    -0.01  -0.00  -0.02
    39   6    -0.08  -0.03  -0.00    -0.12  -0.05   0.01     0.16   0.01   0.08
    40   6     0.08   0.05   0.01     0.11   0.08  -0.00    -0.13  -0.05  -0.07
    41   6     0.03  -0.13   0.12    -0.03   0.04   0.01    -0.02  -0.06   0.12
    42   6     0.00   0.13  -0.10     0.02  -0.04  -0.02     0.03   0.08  -0.11
    43   6     0.15  -0.22   0.01    -0.08   0.15  -0.01    -0.00  -0.04   0.03
    44   6    -0.27   0.00   0.09    -0.00  -0.10   0.00    -0.06  -0.00   0.02
    45   6     0.30  -0.00  -0.02     0.00   0.09   0.00     0.07   0.00  -0.01
    46   6    -0.06  -0.06  -0.03     0.06  -0.16  -0.05     0.03  -0.02   0.00
    47   6    -0.03   0.01  -0.02    -0.11   0.08   0.01    -0.13   0.07  -0.04
    48   6     0.01  -0.01   0.01     0.00  -0.05  -0.03     0.04   0.03   0.06
    49   6    -0.01   0.01  -0.01     0.00   0.05   0.02    -0.05  -0.04  -0.05
    50   6    -0.01  -0.01  -0.01    -0.00   0.05  -0.02    -0.05   0.04  -0.05
    51   6    -0.06   0.06  -0.03    -0.06  -0.16   0.05     0.03   0.02   0.00
    52   6     0.07  -0.04   0.03     0.06   0.13  -0.09    -0.02  -0.02   0.00
    53   6    -0.20   0.21  -0.07     0.10  -0.12   0.05    -0.01   0.05  -0.04
    54   6     0.10  -0.06   0.01    -0.13   0.05   0.07    -0.12   0.03   0.10
    55   6    -0.09   0.09   0.01     0.11  -0.09  -0.08     0.09  -0.06  -0.10
    56   6    -0.03  -0.00  -0.04    -0.03  -0.04   0.00     0.11  -0.12   0.19
    57   6    -0.03   0.00  -0.04     0.03  -0.04  -0.00     0.11   0.12   0.19
    58   6    -0.20  -0.21  -0.07    -0.10  -0.12  -0.05    -0.01  -0.05  -0.04
    59   6    -0.00  -0.02  -0.00    -0.00   0.00  -0.00    -0.00   0.01  -0.03
    60   6    -0.00   0.02  -0.00     0.00   0.00   0.00    -0.00  -0.01  -0.03
    61   6    -0.00  -0.00  -0.00    -0.00  -0.00  -0.00     0.00   0.00   0.00
    62   6    -0.00   0.00  -0.00     0.00  -0.00   0.00     0.00  -0.00   0.00
    63   6     0.00   0.00   0.00     0.00   0.00   0.00     0.00   0.00   0.00
    64   1     0.01  -0.01  -0.00     0.00  -0.00  -0.00     0.00  -0.01  -0.00
    65   1    -0.01  -0.02   0.00    -0.01  -0.00  -0.00    -0.01  -0.01  -0.00
    66   1     0.00  -0.00  -0.00     0.00  -0.00  -0.00     0.00   0.00  -0.00
    67   6     0.00  -0.00   0.00    -0.00   0.00  -0.00     0.00  -0.00   0.00
    68   1     0.00   0.00  -0.00    -0.00  -0.00   0.00     0.00  -0.00  -0.00
    69   1    -0.01   0.02   0.00     0.01  -0.00   0.00    -0.01   0.01  -0.00
    70   1     0.01   0.01  -0.00    -0.00  -0.00   0.00     0.00   0.01  -0.00
    71   6     0.01  -0.00  -0.00    -0.00  -0.00  -0.00    -0.01   0.00  -0.00
    72   1    -0.00   0.02   0.00     0.01   0.01   0.00     0.01  -0.01  -0.00
    73   1    -0.02   0.00   0.02     0.01   0.00   0.01     0.02  -0.00  -0.02
    74   6     0.01   0.00  -0.00     0.00  -0.00   0.00    -0.01  -0.00  -0.00
    75   1    -0.02  -0.00   0.02    -0.01   0.00  -0.01     0.02   0.00  -0.02
    76   1    -0.00  -0.02   0.00    -0.01   0.01  -0.00     0.01   0.01  -0.00
                    205                    206                    207
                      A                      A                      A
 Frequencies --   1611.7291              1613.3726              1616.4801
 Red. masses --     11.9317                11.9967                11.9567
 Frc consts  --     18.2616                18.3985                18.4078
 IR Inten    --      0.0000                 0.0000                 0.0000
  Atom  AN      X      Y      Z        X      Y      Z        X      Y      Z
     1   6     0.03   0.09   0.07     0.01  -0.05  -0.06    -0.01   0.02   0.03
     2   6     0.04  -0.05  -0.03     0.00   0.02   0.02    -0.01   0.01   0.01
     3   6    -0.04   0.07   0.02    -0.00  -0.02  -0.01     0.00  -0.01  -0.01
     4   6     0.00  -0.05  -0.00    -0.00   0.01   0.00    -0.08  -0.00   0.01
     5   6    -0.00   0.05   0.00     0.00  -0.02  -0.00     0.08   0.00  -0.03
     6   6    -0.01  -0.10  -0.05    -0.02   0.05   0.05     0.01  -0.02  -0.02
     7   6     0.03  -0.02  -0.13    -0.16  -0.04   0.14     0.08   0.00  -0.13
     8   6     0.04   0.03   0.20     0.06   0.01   0.01     0.02   0.02   0.15
     9   6    -0.11   0.01  -0.07     0.01  -0.01  -0.02    -0.04  -0.01  -0.05
    10   6     0.10  -0.03   0.09    -0.01   0.01   0.01     0.04   0.00   0.06
    11   6     0.06   0.00   0.04     0.03   0.03   0.04     0.03   0.03   0.03
    12   6     0.04   0.07  -0.02     0.00  -0.02   0.01     0.00   0.01  -0.01
    13   6    -0.04  -0.05   0.03    -0.00   0.02  -0.02    -0.01  -0.01   0.01
    14   6    -0.03   0.09  -0.07    -0.01  -0.05   0.06    -0.01  -0.02   0.03
    15   6     0.01  -0.10   0.05     0.02   0.05  -0.05     0.01   0.02  -0.02
    16   6     0.07   0.09  -0.20    -0.08  -0.08   0.20    -0.03  -0.15   0.12
    17   6    -0.07   0.09   0.20     0.08  -0.08  -0.20    -0.03   0.15   0.12
    18   6     0.01  -0.08  -0.22    -0.03   0.06   0.22    -0.02  -0.13  -0.13
    19   6    -0.02   0.00   0.13     0.13   0.08  -0.14    -0.06  -0.03   0.14
    20   6    -0.04   0.03  -0.20    -0.06  -0.00   0.00    -0.01   0.02  -0.15
    21   6     0.07  -0.02   0.09     0.21   0.03   0.07     0.05  -0.02   0.08
    22   6    -0.06   0.01  -0.10    -0.18  -0.08  -0.09    -0.04   0.01  -0.09
    23   6     0.09  -0.07   0.16     0.13  -0.07   0.22     0.02  -0.14   0.12
    24   6    -0.01  -0.01   0.01    -0.03  -0.00  -0.13     0.05   0.37  -0.01
    25   6     0.01  -0.01  -0.01     0.03  -0.00   0.13     0.05  -0.37  -0.01
    26   6    -0.01  -0.08   0.22     0.03   0.06  -0.22    -0.02   0.13  -0.13
    27   6     0.02   0.00  -0.13    -0.13   0.08   0.14    -0.06   0.03   0.14
    28   6    -0.03  -0.02   0.13     0.16  -0.04  -0.14     0.08  -0.00  -0.13
    29   6    -0.06   0.00  -0.04    -0.03   0.03  -0.04     0.03  -0.03   0.03
    30   6     0.06   0.00  -0.12     0.02   0.01  -0.00    -0.05  -0.00   0.09
    31   6    -0.05  -0.03   0.12    -0.02  -0.02   0.01     0.04   0.02  -0.09
    32   6     0.02  -0.01  -0.08    -0.00   0.03   0.04    -0.01   0.03   0.08
    33   6    -0.04   0.02   0.09     0.01  -0.03  -0.04     0.02  -0.04  -0.07
    34   6     0.04   0.04  -0.01     0.01   0.04   0.01    -0.01  -0.03  -0.00
    35   6     0.00   0.07   0.06     0.04   0.07   0.06     0.03  -0.08  -0.06
    36   6    -0.07  -0.02  -0.09    -0.21   0.03  -0.07     0.05   0.02   0.08
    37   6     0.04   0.03   0.20     0.06  -0.00  -0.00    -0.01  -0.02  -0.15
    38   6    -0.04   0.03  -0.20    -0.06   0.01  -0.01     0.02  -0.02   0.15
    39   6     0.11   0.01   0.07    -0.01  -0.01   0.02    -0.04   0.01  -0.05
    40   6    -0.10  -0.03  -0.09     0.01   0.01  -0.01     0.04  -0.00   0.06
    41   6    -0.02  -0.01   0.08     0.00   0.03  -0.04    -0.01  -0.03   0.08
    42   6     0.04   0.02  -0.09    -0.01  -0.03   0.04     0.02   0.04  -0.07
    43   6    -0.04   0.04   0.01    -0.01   0.04  -0.01    -0.01   0.03  -0.00
    44   6    -0.00  -0.04  -0.00    -0.00  -0.02  -0.00    -0.12  -0.00   0.04
    45   6     0.00   0.03   0.00     0.00   0.03   0.00     0.13   0.00  -0.01
    46   6    -0.01  -0.08  -0.04    -0.04  -0.07  -0.04    -0.03   0.09   0.04
    47   6     0.06   0.01   0.10     0.18  -0.08   0.09    -0.04  -0.01  -0.09
    48   6    -0.09  -0.07  -0.16    -0.13  -0.07  -0.22     0.02   0.14   0.12
    49   6     0.12   0.08   0.13     0.17   0.09   0.17    -0.06  -0.16  -0.09
    50   6    -0.12   0.08  -0.13    -0.17   0.09  -0.17    -0.06   0.16  -0.09
    51   6     0.01  -0.08   0.04     0.04  -0.07   0.04    -0.03  -0.09   0.04
    52   6    -0.00   0.07  -0.06    -0.04   0.07  -0.06     0.03   0.08  -0.06
    53   6     0.04  -0.03  -0.00     0.02  -0.03   0.02     0.00  -0.02   0.01
    54   6    -0.06   0.00   0.12    -0.02   0.01   0.00    -0.05   0.00   0.09
    55   6     0.05  -0.03  -0.12     0.02  -0.02  -0.01     0.04  -0.02  -0.09
    56   6     0.05   0.00   0.04     0.02  -0.03   0.04    -0.03   0.03  -0.04
    57   6    -0.05   0.00  -0.04    -0.02  -0.03  -0.04    -0.03  -0.03  -0.04
    58   6    -0.04  -0.03   0.00    -0.02  -0.03  -0.02     0.00   0.02   0.01
    59   6    -0.00   0.00   0.00    -0.00   0.00  -0.02    -0.00  -0.01  -0.00
    60   6     0.00   0.00  -0.00     0.00   0.00   0.02    -0.00   0.01  -0.00
    61   6    -0.00  -0.00  -0.00    -0.00  -0.00  -0.00    -0.00  -0.00  -0.00
    62   6     0.00  -0.00   0.00     0.00  -0.00   0.00    -0.00   0.00  -0.00
    63   6     0.00   0.00   0.00     0.00  -0.00  -0.00    -0.00   0.00  -0.00
    64   1     0.00  -0.00   0.00    -0.00   0.00  -0.00     0.00  -0.00   0.00
    65   1    -0.00  -0.00   0.00     0.00   0.00   0.00    -0.00  -0.00   0.00
    66   1     0.00   0.00  -0.00    -0.00  -0.00   0.00     0.00   0.00  -0.00
    67   6    -0.00   0.00  -0.00    -0.00  -0.00   0.00    -0.00  -0.00  -0.00
    68   1    -0.00   0.00   0.00     0.00  -0.00  -0.00     0.00  -0.00  -0.00
    69   1     0.00  -0.00  -0.00    -0.00   0.00  -0.00    -0.00   0.00   0.00
    70   1    -0.00  -0.00  -0.00     0.00   0.00   0.00     0.00   0.00   0.00
    71   6    -0.01  -0.00  -0.00    -0.00  -0.00   0.00     0.01   0.00  -0.00
    72   1     0.01  -0.02  -0.00    -0.00   0.01   0.00    -0.01   0.01  -0.00
    73   1     0.05  -0.00  -0.01     0.00  -0.00   0.00    -0.04   0.00   0.01
    74   6     0.01  -0.00   0.00     0.00  -0.00  -0.00     0.01  -0.00  -0.00
    75   1    -0.05  -0.00   0.01    -0.00  -0.00  -0.00    -0.04  -0.00   0.01
    76   1    -0.01  -0.02   0.00     0.00   0.01  -0.00    -0.01  -0.01  -0.00
                    208                    209                    210
                      A                      A                      A
 Frequencies --   1618.2323              1619.4669              1628.6384
 Red. masses --     11.9784                11.9956                11.7813
 Frc consts  --     18.4812                18.5361                18.4116
 IR Inten    --      0.0000                 0.0000                 0.0000
  Atom  AN      X      Y      Z        X      Y      Z        X      Y      Z
     1   6     0.08   0.10   0.04    -0.18  -0.14  -0.02     0.03   0.07   0.04
     2   6     0.06  -0.08  -0.05     0.09  -0.04  -0.03     0.02  -0.09  -0.07
     3   6    -0.06   0.11   0.03    -0.07   0.04   0.01    -0.01   0.10   0.04
     4   6    -0.05   0.00  -0.00     0.28  -0.00  -0.02    -0.00  -0.05  -0.00
     5   6     0.04  -0.00  -0.01    -0.26  -0.00   0.09     0.00   0.05  -0.00
     6   6    -0.07  -0.11  -0.01     0.15   0.17  -0.02    -0.03  -0.08  -0.02
     7   6    -0.10  -0.05   0.01     0.10   0.03  -0.08    -0.01  -0.01   0.00
     8   6     0.10   0.02   0.11     0.01   0.03   0.20    -0.01  -0.01  -0.04
     9   6    -0.17   0.04  -0.05     0.01  -0.01  -0.02     0.00   0.03   0.05
    10   6     0.15  -0.07   0.07     0.00   0.01   0.03    -0.00  -0.02  -0.04
    11   6     0.08   0.04   0.07    -0.05  -0.09  -0.08    -0.12  -0.09  -0.13
    12   6    -0.06  -0.11   0.03    -0.07  -0.04   0.01     0.01   0.10  -0.04
    13   6     0.06   0.08  -0.05     0.09   0.04  -0.03    -0.02  -0.09   0.07
    14   6     0.08  -0.10   0.04    -0.18   0.14  -0.02    -0.03   0.07  -0.04
    15   6    -0.07   0.11  -0.01     0.15  -0.17  -0.02     0.03  -0.08   0.02
    16   6     0.02  -0.03  -0.01    -0.02   0.08  -0.01     0.02   0.05  -0.07
    17   6     0.02   0.03  -0.01    -0.02  -0.08  -0.01    -0.02   0.05   0.07
    18   6    -0.02  -0.03   0.01     0.03   0.07   0.02    -0.00  -0.04  -0.07
    19   6     0.08   0.06  -0.01    -0.08  -0.06   0.09     0.01   0.01  -0.01
    20   6    -0.10   0.02  -0.10    -0.01   0.03  -0.21     0.00  -0.00   0.04
    21   6     0.19   0.06   0.03     0.02  -0.00   0.04    -0.05  -0.02  -0.00
    22   6    -0.17  -0.10  -0.06    -0.02  -0.00  -0.04     0.05   0.03   0.01
    23   6     0.04   0.03   0.02    -0.00   0.04  -0.04     0.02  -0.04   0.05
    24   6     0.01   0.06  -0.00    -0.01  -0.05   0.00    -0.00  -0.00   0.01
    25   6     0.01  -0.06  -0.00    -0.01   0.05   0.00     0.00  -0.00  -0.01
    26   6    -0.02   0.03   0.01     0.03  -0.07   0.02     0.00  -0.04   0.07
    27   6     0.08  -0.06  -0.01    -0.08   0.06   0.09    -0.01   0.01   0.01
    28   6    -0.10   0.05   0.01     0.10  -0.03  -0.08     0.01  -0.01  -0.00
    29   6     0.08  -0.04   0.07    -0.05   0.09  -0.08     0.12  -0.09   0.13
    30   6     0.08   0.03  -0.03    -0.08  -0.03   0.09    -0.03   0.03   0.10
    31   6    -0.07  -0.05   0.03     0.07   0.05  -0.10     0.01  -0.01  -0.08
    32   6     0.02  -0.03  -0.09    -0.02  -0.04  -0.01    -0.03   0.14   0.30
    33   6    -0.03   0.05   0.08     0.01   0.04   0.00     0.09  -0.15  -0.28
    34   6    -0.00   0.05   0.02    -0.10  -0.10   0.02     0.04   0.15   0.06
    35   6    -0.15   0.16   0.10    -0.07   0.04   0.03    -0.02   0.08   0.06
    36   6     0.19  -0.06   0.03     0.02   0.00   0.04     0.05  -0.02   0.00
    37   6    -0.10  -0.02  -0.10    -0.01  -0.03  -0.21    -0.00  -0.00  -0.04
    38   6     0.10  -0.02   0.11     0.01  -0.03   0.20     0.01  -0.01   0.04
    39   6    -0.17  -0.04  -0.05     0.01   0.01  -0.02    -0.00   0.03  -0.05
    40   6     0.15   0.07   0.07     0.00  -0.01   0.03     0.00  -0.02   0.04
    41   6     0.02   0.03  -0.09    -0.02   0.04  -0.01     0.03   0.14  -0.30
    42   6    -0.03  -0.05   0.08     0.01  -0.04   0.00    -0.09  -0.15   0.28
    43   6    -0.00  -0.05   0.02    -0.10   0.10   0.02    -0.04   0.15  -0.06
    44   6     0.17   0.00  -0.07     0.17   0.00  -0.06    -0.00  -0.06  -0.00
    45   6    -0.17   0.00   0.02    -0.18   0.00   0.01     0.00   0.07   0.00
    46   6     0.14  -0.19  -0.05     0.06  -0.05  -0.01     0.02  -0.10  -0.04
    47   6    -0.17   0.10  -0.06    -0.02   0.00  -0.04    -0.05   0.03  -0.01
    48   6     0.04  -0.03   0.02    -0.00  -0.04  -0.04    -0.02  -0.04  -0.05
    49   6    -0.05   0.03  -0.02     0.01   0.05   0.03     0.03   0.05   0.04
    50   6    -0.05  -0.03  -0.02     0.01  -0.05   0.03    -0.03   0.05  -0.04
    51   6     0.14   0.19  -0.05     0.06   0.05  -0.01    -0.02  -0.10   0.04
    52   6    -0.15  -0.16   0.10    -0.07  -0.04   0.03     0.02   0.08  -0.06
    53   6     0.01   0.04  -0.03     0.12  -0.08   0.01     0.06  -0.14   0.09
    54   6     0.08  -0.03  -0.03    -0.08   0.03   0.09     0.03   0.03  -0.10
    55   6    -0.07   0.05   0.03     0.07  -0.05  -0.10    -0.01  -0.01   0.08
    56   6    -0.07   0.02  -0.08     0.05  -0.07   0.10    -0.09   0.08  -0.16
    57   6    -0.07  -0.02  -0.08     0.05   0.07   0.10     0.09   0.08   0.16
    58   6     0.01  -0.04  -0.03     0.12   0.08   0.01    -0.06  -0.14  -0.09
    59   6     0.00  -0.00   0.02     0.00   0.00  -0.01     0.01  -0.01  -0.02
    60   6     0.00   0.00   0.02     0.00  -0.00  -0.01    -0.01  -0.01   0.02
    61   6    -0.00  -0.00  -0.00     0.00   0.00   0.00     0.01   0.00   0.00
    62   6    -0.00   0.00  -0.00     0.00  -0.00   0.00    -0.01   0.00  -0.00
    63   6    -0.00  -0.00  -0.00    -0.00  -0.00  -0.00    -0.00  -0.00  -0.00
    64   1    -0.00   0.01   0.00    -0.00   0.00   0.00    -0.01   0.00  -0.00
    65   1     0.01   0.01   0.01     0.01   0.01   0.00     0.01   0.00   0.00
    66   1    -0.00   0.00   0.00    -0.00   0.00   0.00    -0.01  -0.01   0.00
    67   6    -0.00   0.00  -0.00    -0.00   0.00  -0.00     0.00  -0.00   0.00
    68   1    -0.00  -0.00   0.00    -0.00  -0.00   0.00     0.01  -0.01  -0.00
    69   1     0.01  -0.01   0.01     0.01  -0.01   0.00    -0.01   0.00  -0.00
    70   1    -0.00  -0.01   0.00    -0.00  -0.00   0.00     0.01   0.00   0.00
    71   6     0.00  -0.00   0.00    -0.00   0.00  -0.00     0.02  -0.00  -0.00
    72   1    -0.00   0.01   0.00     0.01  -0.00   0.00    -0.05   0.04  -0.01
    73   1    -0.02   0.00   0.01    -0.00  -0.00  -0.00    -0.07   0.00   0.03
    74   6     0.00   0.00   0.00    -0.00  -0.00  -0.00    -0.02  -0.00   0.00
    75   1    -0.02  -0.00   0.01    -0.00   0.00  -0.00     0.07   0.00  -0.03
    76   1    -0.00  -0.01   0.00     0.01   0.00   0.00     0.05   0.04   0.01
                    211                    212                    213
                      A                      A                      A
 Frequencies --   1639.7627              1736.5436              3001.1156
 Red. masses --     11.9577                 6.9516                 1.0510
 Frc consts  --     18.9434                12.3511                 5.5773
 IR Inten    --      0.0000                 0.0000                 0.0000
  Atom  AN      X      Y      Z        X      Y      Z        X      Y      Z
     1   6    -0.01  -0.02  -0.01     0.00  -0.00  -0.00    -0.00   0.00   0.00
     2   6     0.02   0.10   0.08    -0.00   0.00   0.00     0.00   0.00   0.00
     3   6    -0.02  -0.09  -0.05    -0.00   0.00  -0.00     0.00  -0.00   0.00
     4   6     0.00   0.02   0.00    -0.00  -0.00   0.00     0.00  -0.00   0.00
     5   6    -0.00  -0.03   0.00     0.00   0.00  -0.00    -0.00   0.00  -0.00
     6   6     0.01   0.03   0.00    -0.00  -0.00   0.00    -0.00  -0.00  -0.00
     7   6     0.05   0.02  -0.03     0.00   0.00   0.00    -0.00  -0.00  -0.00
     8   6     0.03  -0.00   0.00    -0.00  -0.00  -0.00    -0.00   0.00  -0.00
     9   6    -0.17   0.01  -0.09    -0.00   0.00  -0.00    -0.00   0.00  -0.00
    10   6     0.14  -0.06   0.08     0.00  -0.00   0.00     0.00  -0.00   0.00
    11   6     0.22   0.15   0.24     0.00  -0.00   0.00    -0.00   0.00  -0.00
    12   6     0.02  -0.09   0.05    -0.00  -0.00  -0.00     0.00   0.00   0.00
    13   6    -0.02   0.10  -0.08    -0.00  -0.00   0.00     0.00  -0.00   0.00
    14   6     0.01  -0.02   0.01     0.00   0.00  -0.00    -0.00  -0.00   0.00
    15   6    -0.01   0.03  -0.00    -0.00   0.00   0.00    -0.00   0.00  -0.00
    16   6     0.01  -0.00  -0.01    -0.00   0.00  -0.00     0.00  -0.00  -0.00
    17   6    -0.01  -0.00   0.01    -0.00  -0.00  -0.00     0.00   0.00  -0.00
    18   6     0.01   0.01  -0.02    -0.00   0.00   0.00    -0.00   0.00  -0.00
    19   6    -0.04  -0.03   0.03    -0.00  -0.00   0.00     0.00   0.00   0.00
    20   6    -0.03   0.01  -0.00    -0.00   0.00   0.00    -0.00  -0.00  -0.00
    21   6    -0.04  -0.01  -0.01     0.00   0.00  -0.00     0.00  -0.00   0.00
    22   6     0.04   0.02   0.01     0.00  -0.00   0.00    -0.00  -0.00  -0.00
    23   6    -0.02   0.01  -0.03    -0.00   0.00  -0.00     0.00   0.00   0.00
    24   6     0.00   0.00   0.01     0.00   0.00  -0.00    -0.00   0.00   0.00
    25   6    -0.00   0.00  -0.01     0.00  -0.00  -0.00    -0.00  -0.00   0.00
    26   6    -0.01   0.01   0.02    -0.00  -0.00   0.00    -0.00  -0.00  -0.00
    27   6     0.04  -0.03  -0.03    -0.00   0.00   0.00     0.00  -0.00   0.00
    28   6    -0.05   0.02   0.03     0.00  -0.00   0.00    -0.00   0.00  -0.00
    29   6    -0.22   0.15  -0.24     0.00   0.00   0.00    -0.00  -0.00  -0.00
    30   6    -0.11  -0.02   0.11    -0.00   0.00   0.00     0.00  -0.00  -0.00
    31   6     0.09   0.05  -0.11     0.00  -0.00  -0.00    -0.00  -0.00  -0.00
    32   6    -0.03   0.07   0.18    -0.00   0.00   0.00    -0.00   0.00  -0.00
    33   6     0.06  -0.08  -0.18     0.00   0.00  -0.00     0.00   0.00  -0.00
    34   6    -0.00   0.04   0.03    -0.00   0.00   0.00    -0.00  -0.00  -0.00
    35   6    -0.00   0.00  -0.00     0.00   0.00   0.00    -0.00  -0.00  -0.00
    36   6     0.04  -0.01   0.01     0.00  -0.00  -0.00     0.00   0.00   0.00
    37   6     0.03   0.01   0.00    -0.00  -0.00   0.00    -0.00   0.00  -0.00
    38   6    -0.03  -0.00  -0.00    -0.00   0.00  -0.00    -0.00  -0.00  -0.00
    39   6     0.17   0.01   0.09    -0.00  -0.00  -0.00    -0.00  -0.00  -0.00
    40   6    -0.14  -0.06  -0.08     0.00   0.00   0.00     0.00   0.00   0.00
    41   6     0.03   0.07  -0.18    -0.00  -0.00   0.00    -0.00  -0.00  -0.00
    42   6    -0.06  -0.08   0.18     0.00  -0.00  -0.00     0.00  -0.00  -0.00
    43   6     0.00   0.04  -0.03    -0.00  -0.00   0.00    -0.00   0.00   0.00
    44   6    -0.00  -0.00  -0.00     0.00   0.00  -0.00     0.00   0.00  -0.00
    45   6     0.00   0.01   0.00     0.00  -0.00   0.00    -0.00   0.00   0.00
    46   6     0.00  -0.00   0.00    -0.00  -0.00  -0.00     0.00   0.00  -0.00
    47   6    -0.04   0.02  -0.01     0.00   0.00   0.00    -0.00   0.00  -0.00
    48   6     0.02   0.01   0.03    -0.00  -0.00  -0.00     0.00  -0.00   0.00
    49   6    -0.02  -0.01  -0.02     0.00   0.00   0.00    -0.00  -0.00  -0.00
    50   6     0.02  -0.01   0.02     0.00  -0.00   0.00    -0.00   0.00  -0.00
    51   6    -0.00  -0.00  -0.00    -0.00   0.00  -0.00     0.00  -0.00  -0.00
    52   6     0.00   0.00   0.00     0.00  -0.00   0.00    -0.00   0.00  -0.00
    53   6     0.00  -0.05   0.05    -0.00   0.00  -0.00     0.00  -0.00   0.00
    54   6     0.11  -0.02  -0.11    -0.00  -0.00   0.00     0.00   0.00  -0.00
    55   6    -0.09   0.05   0.11     0.00   0.00  -0.00    -0.00   0.00  -0.00
    56   6     0.18  -0.13   0.27    -0.00   0.00  -0.00    -0.00   0.00  -0.00
    57   6    -0.18  -0.13  -0.27    -0.00  -0.00  -0.00    -0.00  -0.00  -0.00
    58   6    -0.00  -0.05  -0.05    -0.00  -0.00  -0.00     0.00   0.00   0.00
    59   6    -0.02  -0.00  -0.08     0.01  -0.01  -0.00     0.00  -0.00   0.00
    60   6     0.02  -0.00   0.08     0.01   0.01  -0.00     0.00   0.00   0.00
    61   6    -0.00  -0.00  -0.00     0.01   0.51   0.01     0.00   0.00   0.00
    62   6     0.00  -0.00   0.00     0.01  -0.51   0.01     0.00  -0.00   0.00
    63   6     0.00   0.00  -0.00    -0.02  -0.06  -0.02    -0.01   0.04   0.02
    64   1    -0.00   0.00   0.00     0.00  -0.17  -0.14    -0.18  -0.19   0.17
    65   1     0.01   0.00   0.01    -0.13  -0.19  -0.00     0.35  -0.31  -0.31
    66   1    -0.00   0.00   0.01     0.06   0.19   0.10    -0.07   0.07  -0.07
    67   6    -0.00   0.00   0.00    -0.02   0.06  -0.02    -0.01  -0.04   0.02
    68   1     0.00   0.00  -0.01     0.06  -0.19   0.10    -0.08  -0.08  -0.08
    69   1    -0.01   0.00  -0.01    -0.13   0.19  -0.00     0.41   0.37  -0.36
    70   1     0.00   0.00  -0.00     0.00   0.17  -0.14    -0.21   0.21   0.19
    71   6    -0.00  -0.00   0.00    -0.01   0.05   0.00    -0.00   0.00  -0.00
    72   1    -0.01   0.03  -0.00     0.03  -0.00  -0.01     0.00  -0.00  -0.00
    73   1     0.02  -0.00   0.01     0.19   0.05   0.19    -0.00  -0.02   0.00
    74   6     0.00  -0.00  -0.00    -0.01  -0.05   0.00    -0.00  -0.00  -0.00
    75   1    -0.02  -0.00  -0.01     0.19  -0.05   0.19    -0.00   0.02   0.00
    76   1     0.01   0.03   0.00     0.03   0.00  -0.01     0.00   0.00  -0.00
                    214                    215                    216
                      A                      A                      A
 Frequencies --   3003.1053              3039.5866              3041.4098
 Red. masses --      1.0545                 1.0920                 1.0946
 Frc consts  --      5.6032                 5.9442                 5.9654
 IR Inten    --      0.0000                 0.0000                 0.0000
  Atom  AN      X      Y      Z        X      Y      Z        X      Y      Z
     1   6    -0.00   0.00   0.00    -0.00   0.00   0.00     0.00  -0.00  -0.00
     2   6     0.00   0.00   0.00     0.00  -0.00   0.00    -0.00  -0.00  -0.00
     3   6     0.00  -0.00   0.00    -0.00   0.00  -0.00     0.00   0.00   0.00
     4   6     0.00   0.00   0.00     0.00   0.00   0.00    -0.00   0.00  -0.00
     5   6    -0.00  -0.00  -0.00    -0.00  -0.00  -0.00     0.00  -0.00   0.00
     6   6    -0.00  -0.00  -0.00    -0.00  -0.00   0.00     0.00   0.00   0.00
     7   6    -0.00  -0.00  -0.00    -0.00  -0.00  -0.00     0.00   0.00   0.00
     8   6    -0.00   0.00  -0.00    -0.00   0.00  -0.00     0.00  -0.00   0.00
     9   6    -0.00   0.00  -0.00    -0.00   0.00  -0.00     0.00  -0.00   0.00
    10   6     0.00  -0.00   0.00     0.00   0.00  -0.00    -0.00   0.00  -0.00
    11   6    -0.00  -0.00  -0.00     0.00  -0.00   0.00    -0.00   0.00   0.00
    12   6    -0.00  -0.00  -0.00     0.00   0.00   0.00     0.00  -0.00   0.00
    13   6    -0.00   0.00  -0.00    -0.00  -0.00  -0.00    -0.00   0.00  -0.00
    14   6     0.00   0.00  -0.00     0.00   0.00  -0.00     0.00   0.00  -0.00
    15   6     0.00  -0.00   0.00     0.00  -0.00  -0.00     0.00  -0.00   0.00
    16   6    -0.00   0.00   0.00    -0.00  -0.00   0.00    -0.00   0.00   0.00
    17   6     0.00   0.00  -0.00     0.00  -0.00  -0.00    -0.00  -0.00   0.00
    18   6    -0.00  -0.00   0.00    -0.00  -0.00   0.00     0.00  -0.00   0.00
    19   6     0.00   0.00   0.00     0.00   0.00   0.00    -0.00  -0.00  -0.00
    20   6    -0.00  -0.00  -0.00    -0.00  -0.00   0.00     0.00   0.00  -0.00
    21   6     0.00  -0.00   0.00     0.00  -0.00   0.00    -0.00   0.00  -0.00
    22   6    -0.00  -0.00  -0.00    -0.00  -0.00  -0.00     0.00   0.00   0.00
    23   6     0.00   0.00   0.00     0.00   0.00   0.00    -0.00  -0.00  -0.00
    24   6    -0.00  -0.00  -0.00    -0.00  -0.00  -0.00     0.00  -0.00  -0.00
    25   6     0.00  -0.00   0.00     0.00  -0.00   0.00     0.00   0.00  -0.00
    26   6     0.00  -0.00  -0.00     0.00  -0.00  -0.00     0.00   0.00   0.00
    27   6    -0.00   0.00  -0.00    -0.00   0.00  -0.00    -0.00   0.00  -0.00
    28   6     0.00  -0.00   0.00     0.00  -0.00   0.00     0.00  -0.00   0.00
    29   6     0.00  -0.00   0.00    -0.00  -0.00  -0.00    -0.00  -0.00   0.00
    30   6    -0.00   0.00   0.00    -0.00   0.00  -0.00    -0.00   0.00   0.00
    31   6     0.00  -0.00   0.00     0.00  -0.00  -0.00     0.00  -0.00   0.00
    32   6    -0.00   0.00   0.00     0.00   0.00   0.00     0.00   0.00  -0.00
    33   6     0.00   0.00  -0.00    -0.00   0.00  -0.00    -0.00   0.00   0.00
    34   6    -0.00   0.00   0.00    -0.00   0.00   0.00     0.00   0.00  -0.00
    35   6     0.00   0.00   0.00     0.00   0.00   0.00     0.00   0.00   0.00
    36   6    -0.00  -0.00  -0.00    -0.00  -0.00  -0.00    -0.00  -0.00  -0.00
    37   6     0.00  -0.00   0.00     0.00  -0.00  -0.00     0.00  -0.00  -0.00
    38   6     0.00   0.00   0.00     0.00   0.00   0.00     0.00   0.00   0.00
    39   6     0.00   0.00   0.00     0.00   0.00   0.00     0.00   0.00   0.00
    40   6    -0.00  -0.00  -0.00    -0.00   0.00   0.00    -0.00  -0.00  -0.00
    41   6     0.00  -0.00  -0.00    -0.00   0.00  -0.00     0.00  -0.00  -0.00
    42   6    -0.00  -0.00   0.00     0.00   0.00   0.00    -0.00  -0.00   0.00
    43   6     0.00   0.00  -0.00     0.00   0.00  -0.00     0.00  -0.00  -0.00
    44   6     0.00  -0.00  -0.00     0.00  -0.00  -0.00    -0.00  -0.00   0.00
    45   6    -0.00  -0.00   0.00    -0.00  -0.00   0.00     0.00  -0.00  -0.00
    46   6     0.00   0.00  -0.00    -0.00   0.00  -0.00    -0.00  -0.00   0.00
    47   6     0.00  -0.00   0.00     0.00  -0.00   0.00     0.00  -0.00   0.00
    48   6    -0.00   0.00  -0.00    -0.00   0.00  -0.00    -0.00   0.00  -0.00
    49   6     0.00  -0.00   0.00     0.00  -0.00   0.00     0.00   0.00   0.00
    50   6    -0.00  -0.00  -0.00    -0.00  -0.00  -0.00     0.00  -0.00   0.00
    51   6     0.00   0.00   0.00     0.00   0.00   0.00    -0.00   0.00   0.00
    52   6    -0.00   0.00  -0.00    -0.00   0.00  -0.00     0.00  -0.00   0.00
    53   6     0.00  -0.00   0.00     0.00  -0.00   0.00    -0.00   0.00  -0.00
    54   6     0.00   0.00  -0.00     0.00   0.00   0.00    -0.00  -0.00   0.00
    55   6    -0.00  -0.00  -0.00    -0.00  -0.00   0.00     0.00   0.00   0.00
    56   6     0.00   0.00   0.00     0.00   0.00   0.00    -0.00   0.00   0.00
    57   6    -0.00   0.00  -0.00    -0.00   0.00  -0.00    -0.00  -0.00   0.00
    58   6    -0.00  -0.00  -0.00    -0.00  -0.00  -0.00    -0.00  -0.00  -0.00
    59   6     0.00  -0.00   0.00    -0.00  -0.00   0.00     0.00   0.00   0.00
    60   6    -0.00  -0.00  -0.00     0.00  -0.00  -0.00     0.00  -0.00   0.00
    61   6     0.00  -0.00  -0.00     0.00   0.00  -0.00     0.00  -0.00  -0.00
    62   6    -0.00  -0.00   0.00    -0.00   0.00   0.00     0.00   0.00  -0.00
    63   6    -0.01   0.04   0.02    -0.05  -0.02   0.04     0.05   0.01  -0.04
    64   1    -0.18  -0.18   0.17     0.37   0.42  -0.34    -0.34  -0.38   0.31
    65   1     0.42  -0.38  -0.37     0.18  -0.17  -0.15    -0.20   0.20   0.18
    66   1    -0.08   0.07  -0.08     0.04  -0.04   0.06    -0.02   0.04  -0.05
    67   6     0.01   0.03  -0.02     0.05  -0.02  -0.03     0.05  -0.01  -0.04
    68   1     0.07   0.06   0.07    -0.04  -0.04  -0.06    -0.03  -0.04  -0.05
    69   1    -0.36  -0.32   0.32    -0.17  -0.16   0.14    -0.21  -0.20   0.18
    70   1     0.15  -0.15  -0.14    -0.36   0.40   0.33    -0.36   0.40   0.33
    71   6     0.00  -0.00   0.00     0.00   0.00  -0.00     0.00   0.00  -0.00
    72   1     0.00   0.00  -0.00    -0.00  -0.00   0.01     0.00  -0.00   0.00
    73   1     0.00   0.02  -0.00    -0.00  -0.00  -0.00    -0.00  -0.00  -0.00
    74   6    -0.00  -0.00  -0.00    -0.00   0.00   0.00     0.00  -0.00  -0.00
    75   1    -0.00   0.02   0.00     0.00  -0.00   0.00    -0.00   0.00  -0.00
    76   1    -0.00   0.00   0.00     0.00  -0.00  -0.01     0.00   0.00  -0.00
                    217                    218                    219
                      A                      A                      A
 Frequencies --   3116.9481              3133.7811              3172.8201
 Red. masses --      1.0790                 1.0763                 1.0888
 Frc consts  --      6.1762                 6.2277                 6.4581
 IR Inten    --      0.0000                 0.0000                 0.0000
  Atom  AN      X      Y      Z        X      Y      Z        X      Y      Z
     1   6     0.00  -0.00  -0.00     0.00  -0.00  -0.00    -0.00   0.00   0.00
     2   6     0.00  -0.00   0.00     0.00   0.00  -0.00    -0.00   0.00   0.00
     3   6    -0.00   0.00  -0.00     0.00  -0.00   0.00    -0.00  -0.00  -0.00
     4   6    -0.00   0.00  -0.00    -0.00   0.00  -0.00     0.00  -0.00   0.00
     5   6    -0.00   0.00  -0.00    -0.00  -0.00  -0.00    -0.00  -0.00  -0.00
     6   6     0.00   0.00   0.00     0.00   0.00   0.00    -0.00   0.00   0.00
     7   6     0.00   0.00   0.00     0.00   0.00   0.00    -0.00   0.00  -0.00
     8   6    -0.00   0.00  -0.00     0.00  -0.00  -0.00     0.00  -0.00   0.00
     9   6     0.00  -0.00  -0.00     0.00  -0.00  -0.00    -0.00   0.00  -0.00
    10   6     0.00  -0.00  -0.00    -0.00  -0.00  -0.00    -0.00   0.00   0.00
    11   6    -0.00  -0.00   0.00    -0.00   0.00  -0.00     0.00  -0.00   0.00
    12   6    -0.00  -0.00  -0.00    -0.00  -0.00  -0.00    -0.00   0.00  -0.00
    13   6     0.00   0.00   0.00    -0.00   0.00   0.00    -0.00  -0.00   0.00
    14   6     0.00   0.00  -0.00    -0.00  -0.00   0.00    -0.00  -0.00   0.00
    15   6     0.00  -0.00   0.00    -0.00   0.00  -0.00    -0.00  -0.00   0.00
    16   6    -0.00   0.00   0.00     0.00  -0.00   0.00     0.00   0.00  -0.00
    17   6    -0.00  -0.00   0.00    -0.00  -0.00  -0.00     0.00  -0.00  -0.00
    18   6    -0.00  -0.00   0.00    -0.00  -0.00   0.00    -0.00   0.00  -0.00
    19   6     0.00   0.00  -0.00     0.00   0.00  -0.00     0.00   0.00   0.00
    20   6     0.00   0.00   0.00     0.00  -0.00   0.00     0.00  -0.00   0.00
    21   6    -0.00  -0.00   0.00    -0.00  -0.00   0.00     0.00  -0.00   0.00
    22   6     0.00  -0.00   0.00     0.00  -0.00   0.00    -0.00  -0.00  -0.00
    23   6    -0.00  -0.00   0.00    -0.00  -0.00   0.00     0.00   0.00   0.00
    24   6     0.00  -0.00  -0.00     0.00   0.00   0.00    -0.00   0.00  -0.00
    25   6     0.00   0.00  -0.00    -0.00   0.00  -0.00    -0.00  -0.00  -0.00
    26   6    -0.00   0.00   0.00     0.00  -0.00  -0.00    -0.00  -0.00  -0.00
    27   6     0.00  -0.00  -0.00    -0.00   0.00   0.00     0.00  -0.00   0.00
    28   6     0.00  -0.00   0.00    -0.00   0.00  -0.00    -0.00  -0.00  -0.00
    29   6    -0.00   0.00   0.00     0.00   0.00   0.00     0.00   0.00   0.00
    30   6     0.00   0.00   0.00    -0.00  -0.00  -0.00    -0.00  -0.00   0.00
    31   6     0.00   0.00  -0.00    -0.00  -0.00  -0.00    -0.00   0.00   0.00
    32   6    -0.00  -0.00   0.00     0.00   0.00  -0.00    -0.00  -0.00  -0.00
    33   6    -0.00   0.00  -0.00    -0.00   0.00   0.00     0.00  -0.00  -0.00
    34   6     0.00  -0.00   0.00    -0.00  -0.00   0.00    -0.00  -0.00   0.00
    35   6     0.00   0.00  -0.00     0.00   0.00   0.00    -0.00   0.00  -0.00
    36   6    -0.00   0.00   0.00     0.00  -0.00  -0.00     0.00   0.00   0.00
    37   6     0.00  -0.00   0.00    -0.00  -0.00  -0.00     0.00   0.00   0.00
    38   6    -0.00  -0.00  -0.00    -0.00  -0.00   0.00     0.00   0.00   0.00
    39   6     0.00   0.00  -0.00    -0.00  -0.00   0.00    -0.00  -0.00  -0.00
    40   6     0.00   0.00  -0.00     0.00  -0.00   0.00    -0.00  -0.00   0.00
    41   6    -0.00   0.00   0.00    -0.00   0.00   0.00    -0.00   0.00  -0.00
    42   6    -0.00  -0.00  -0.00     0.00   0.00  -0.00     0.00   0.00  -0.00
    43   6     0.00   0.00   0.00     0.00  -0.00  -0.00    -0.00   0.00   0.00
    44   6     0.00  -0.00   0.00     0.00   0.00   0.00    -0.00   0.00   0.00
    45   6    -0.00   0.00  -0.00     0.00  -0.00  -0.00    -0.00   0.00   0.00
    46   6    -0.00  -0.00   0.00     0.00   0.00  -0.00     0.00   0.00  -0.00
    47   6     0.00   0.00   0.00    -0.00  -0.00  -0.00    -0.00   0.00  -0.00
    48   6    -0.00   0.00   0.00     0.00  -0.00  -0.00     0.00  -0.00   0.00
    49   6     0.00  -0.00   0.00    -0.00  -0.00  -0.00    -0.00  -0.00  -0.00
    50   6     0.00   0.00   0.00     0.00  -0.00   0.00    -0.00   0.00  -0.00
    51   6    -0.00   0.00   0.00    -0.00   0.00   0.00     0.00  -0.00  -0.00
    52   6     0.00  -0.00  -0.00    -0.00   0.00  -0.00    -0.00  -0.00  -0.00
    53   6    -0.00   0.00   0.00    -0.00   0.00   0.00     0.00  -0.00  -0.00
    54   6     0.00  -0.00   0.00     0.00  -0.00   0.00    -0.00   0.00   0.00
    55   6     0.00  -0.00  -0.00     0.00  -0.00   0.00    -0.00  -0.00   0.00
    56   6     0.00  -0.00   0.00    -0.00   0.00  -0.00     0.00   0.00  -0.00
    57   6     0.00   0.00   0.00     0.00   0.00   0.00     0.00  -0.00  -0.00
    58   6    -0.00  -0.00   0.00     0.00   0.00  -0.00     0.00  -0.00  -0.00
    59   6    -0.00   0.00  -0.00     0.00  -0.00   0.00    -0.00   0.00   0.00
    60   6    -0.00  -0.00  -0.00    -0.00  -0.00  -0.00    -0.00  -0.00   0.00
    61   6     0.00   0.00   0.00     0.00  -0.00  -0.00     0.00   0.00   0.00
    62   6     0.00  -0.00   0.00    -0.00  -0.00   0.00     0.00  -0.00   0.00
    63   6    -0.00   0.00  -0.00     0.00  -0.00   0.00    -0.03   0.04  -0.04
    64   1    -0.00  -0.00   0.00     0.01   0.01  -0.01    -0.07  -0.06   0.05
    65   1     0.00  -0.00  -0.00    -0.00  -0.00   0.00     0.04  -0.03  -0.05
    66   1     0.01  -0.01   0.01    -0.02   0.02  -0.02     0.40  -0.36   0.43
    67   6    -0.00  -0.00  -0.00    -0.00  -0.00  -0.00    -0.03  -0.04  -0.04
    68   1     0.01   0.01   0.01     0.02   0.02   0.02     0.41   0.37   0.43
    69   1     0.00   0.00  -0.00     0.00  -0.00  -0.00     0.04   0.03  -0.05
    70   1    -0.00   0.00   0.00    -0.01   0.01   0.01    -0.07   0.06   0.05
    71   6     0.01   0.01  -0.05    -0.01  -0.00   0.05    -0.00  -0.00   0.00
    72   1    -0.17  -0.16   0.66     0.16   0.16  -0.66     0.01   0.00  -0.02
    73   1     0.01   0.06  -0.01    -0.01  -0.10   0.02     0.00   0.01  -0.00
    74   6     0.01  -0.01  -0.05     0.01  -0.00  -0.05    -0.00   0.00   0.00
    75   1     0.01  -0.06  -0.01     0.01  -0.10  -0.02     0.00  -0.01  -0.00
    76   1    -0.17   0.16   0.66    -0.16   0.16   0.66     0.01  -0.00  -0.02
                    220                    221                    222
                      A                      A                      A
 Frequencies --   3180.9122              3241.2113              3244.4085
 Red. masses --      1.0919                 1.0857                 1.0831
 Frc consts  --      6.5092                 6.7201                 6.7174
 IR Inten    --      0.0000                 0.0000                 0.0000
  Atom  AN      X      Y      Z        X      Y      Z        X      Y      Z
     1   6    -0.00  -0.00  -0.00    -0.00   0.00   0.00    -0.00   0.00   0.00
     2   6    -0.00   0.00  -0.00    -0.00   0.00  -0.00    -0.00   0.00   0.00
     3   6    -0.00  -0.00  -0.00    -0.00  -0.00  -0.00     0.00  -0.00   0.00
     4   6     0.00   0.00   0.00     0.00   0.00  -0.00    -0.00   0.00   0.00
     5   6    -0.00  -0.00  -0.00    -0.00   0.00  -0.00     0.00   0.00   0.00
     6   6     0.00   0.00   0.00    -0.00  -0.00  -0.00     0.00  -0.00  -0.00
     7   6    -0.00   0.00  -0.00    -0.00  -0.00  -0.00    -0.00  -0.00  -0.00
     8   6     0.00  -0.00  -0.00    -0.00   0.00   0.00    -0.00   0.00   0.00
     9   6     0.00   0.00  -0.00     0.00   0.00   0.00     0.00   0.00   0.00
    10   6     0.00  -0.00  -0.00     0.00  -0.00   0.00    -0.00   0.00  -0.00
    11   6    -0.00   0.00  -0.00    -0.00  -0.00  -0.00    -0.00   0.00  -0.00
    12   6     0.00  -0.00   0.00     0.00  -0.00   0.00     0.00   0.00   0.00
    13   6     0.00   0.00   0.00     0.00   0.00   0.00    -0.00  -0.00   0.00
    14   6     0.00  -0.00   0.00     0.00   0.00  -0.00    -0.00  -0.00   0.00
    15   6    -0.00   0.00  -0.00     0.00  -0.00   0.00     0.00   0.00  -0.00
    16   6     0.00  -0.00   0.00    -0.00   0.00   0.00     0.00  -0.00  -0.00
    17   6    -0.00  -0.00  -0.00     0.00   0.00  -0.00     0.00   0.00  -0.00
    18   6    -0.00  -0.00   0.00     0.00   0.00  -0.00     0.00   0.00  -0.00
    19   6     0.00   0.00   0.00    -0.00  -0.00   0.00    -0.00  -0.00   0.00
    20   6    -0.00  -0.00   0.00    -0.00  -0.00  -0.00    -0.00   0.00   0.00
    21   6     0.00  -0.00   0.00     0.00  -0.00   0.00     0.00  -0.00   0.00
    22   6    -0.00  -0.00  -0.00    -0.00  -0.00  -0.00    -0.00  -0.00  -0.00
    23   6     0.00   0.00   0.00     0.00   0.00  -0.00     0.00   0.00  -0.00
    24   6    -0.00  -0.00  -0.00     0.00   0.00  -0.00     0.00   0.00   0.00
    25   6     0.00  -0.00   0.00    -0.00   0.00   0.00     0.00  -0.00   0.00
    26   6     0.00  -0.00  -0.00    -0.00   0.00   0.00     0.00  -0.00  -0.00
    27   6    -0.00   0.00  -0.00     0.00  -0.00  -0.00    -0.00   0.00   0.00
    28   6     0.00   0.00   0.00     0.00  -0.00   0.00    -0.00   0.00  -0.00
    29   6     0.00   0.00   0.00     0.00  -0.00   0.00    -0.00  -0.00  -0.00
    30   6    -0.00  -0.00  -0.00    -0.00   0.00   0.00     0.00  -0.00  -0.00
    31   6     0.00  -0.00  -0.00    -0.00  -0.00   0.00     0.00  -0.00   0.00
    32   6    -0.00   0.00  -0.00    -0.00  -0.00   0.00     0.00   0.00  -0.00
    33   6     0.00   0.00   0.00     0.00  -0.00  -0.00     0.00  -0.00   0.00
    34   6    -0.00   0.00   0.00     0.00   0.00   0.00     0.00   0.00  -0.00
    35   6    -0.00  -0.00   0.00     0.00   0.00  -0.00    -0.00  -0.00   0.00
    36   6    -0.00  -0.00  -0.00    -0.00  -0.00  -0.00     0.00   0.00   0.00
    37   6     0.00  -0.00  -0.00     0.00  -0.00   0.00    -0.00  -0.00   0.00
    38   6    -0.00  -0.00   0.00     0.00   0.00  -0.00    -0.00  -0.00   0.00
    39   6    -0.00   0.00   0.00    -0.00   0.00  -0.00     0.00  -0.00   0.00
    40   6    -0.00  -0.00   0.00    -0.00  -0.00  -0.00    -0.00  -0.00  -0.00
    41   6     0.00   0.00   0.00     0.00  -0.00  -0.00     0.00  -0.00  -0.00
    42   6    -0.00   0.00  -0.00    -0.00  -0.00   0.00     0.00   0.00   0.00
    43   6     0.00   0.00  -0.00    -0.00   0.00  -0.00     0.00  -0.00  -0.00
    44   6    -0.00  -0.00   0.00     0.00   0.00  -0.00    -0.00   0.00   0.00
    45   6     0.00   0.00  -0.00    -0.00   0.00   0.00     0.00   0.00  -0.00
    46   6     0.00   0.00  -0.00     0.00  -0.00  -0.00    -0.00   0.00   0.00
    47   6     0.00  -0.00   0.00     0.00  -0.00   0.00    -0.00   0.00  -0.00
    48   6    -0.00   0.00  -0.00    -0.00   0.00   0.00     0.00  -0.00  -0.00
    49   6    -0.00  -0.00   0.00    -0.00   0.00   0.00     0.00  -0.00  -0.00
    50   6     0.00  -0.00  -0.00     0.00   0.00  -0.00     0.00   0.00  -0.00
    51   6    -0.00   0.00   0.00    -0.00  -0.00   0.00    -0.00  -0.00   0.00
    52   6     0.00  -0.00  -0.00    -0.00   0.00   0.00    -0.00   0.00   0.00
    53   6    -0.00   0.00  -0.00    -0.00   0.00   0.00    -0.00   0.00   0.00
    54   6     0.00  -0.00   0.00     0.00   0.00  -0.00     0.00   0.00  -0.00
    55   6    -0.00  -0.00   0.00     0.00  -0.00  -0.00     0.00   0.00   0.00
    56   6    -0.00   0.00  -0.00     0.00   0.00  -0.00    -0.00   0.00   0.00
    57   6     0.00   0.00   0.00    -0.00   0.00   0.00    -0.00  -0.00   0.00
    58   6     0.00   0.00   0.00     0.00   0.00  -0.00    -0.00  -0.00   0.00
    59   6     0.00  -0.00   0.00    -0.00  -0.00   0.00     0.00   0.00  -0.00
    60   6    -0.00  -0.00  -0.00     0.00  -0.00  -0.00     0.00  -0.00  -0.00
    61   6     0.00   0.00   0.00    -0.00  -0.00  -0.00    -0.00  -0.00  -0.00
    62   6    -0.00   0.00  -0.00     0.00  -0.00   0.00    -0.00   0.00  -0.00
    63   6    -0.03   0.04  -0.04     0.00  -0.00   0.00    -0.00  -0.00  -0.00
    64   1    -0.07  -0.06   0.05     0.02   0.01  -0.00     0.01   0.01  -0.00
    65   1     0.04  -0.03  -0.05    -0.01   0.01   0.01    -0.01   0.01   0.01
    66   1     0.41  -0.36   0.43    -0.02   0.02  -0.02     0.01  -0.01   0.01
    67   6     0.03   0.04   0.04    -0.00  -0.00  -0.00    -0.00   0.00  -0.00
    68   1    -0.40  -0.35  -0.43     0.02   0.02   0.02     0.01   0.01   0.01
    69   1    -0.04  -0.03   0.05     0.01   0.01  -0.01    -0.01  -0.01   0.01
    70   1     0.07  -0.06  -0.05    -0.02   0.01   0.00     0.01  -0.01   0.00
    71   6    -0.00  -0.00   0.00    -0.00  -0.06   0.01     0.00   0.06  -0.01
    72   1     0.01   0.01  -0.05     0.03   0.00  -0.08    -0.01   0.01   0.05
    73   1    -0.00   0.04  -0.01     0.01   0.70  -0.08    -0.01  -0.69   0.07
    74   6     0.00  -0.00  -0.00     0.00  -0.06  -0.01     0.00  -0.06  -0.01
    75   1     0.00   0.04   0.01    -0.01   0.68   0.07    -0.01   0.71   0.08
    76   1    -0.01   0.01   0.05    -0.02   0.00   0.08    -0.02  -0.01   0.05

 -------------------
 - Thermochemistry -
 -------------------
 Temperature   298.150 Kelvin.  Pressure   1.00000 Atm.
 Atom     1 has atomic number  6 and mass  12.00000
 Atom     2 has atomic number  6 and mass  12.00000
 Atom     3 has atomic number  6 and mass  12.00000
 Atom     4 has atomic number  6 and mass  12.00000
 Atom     5 has atomic number  6 and mass  12.00000
 Atom     6 has atomic number  6 and mass  12.00000
 Atom     7 has atomic number  6 and mass  12.00000
 Atom     8 has atomic number  6 and mass  12.00000
 Atom     9 has atomic number  6 and mass  12.00000
 Atom    10 has atomic number  6 and mass  12.00000
 Atom    11 has atomic number  6 and mass  12.00000
 Atom    12 has atomic number  6 and mass  12.00000
 Atom    13 has atomic number  6 and mass  12.00000
 Atom    14 has atomic number  6 and mass  12.00000
 Atom    15 has atomic number  6 and mass  12.00000
 Atom    16 has atomic number  6 and mass  12.00000
 Atom    17 has atomic number  6 and mass  12.00000
 Atom    18 has atomic number  6 and mass  12.00000
 Atom    19 has atomic number  6 and mass  12.00000
 Atom    20 has atomic number  6 and mass  12.00000
 Atom    21 has atomic number  6 and mass  12.00000
 Atom    22 has atomic number  6 and mass  12.00000
 Atom    23 has atomic number  6 and mass  12.00000
 Atom    24 has atomic number  6 and mass  12.00000
 Atom    25 has atomic number  6 and mass  12.00000
 Atom    26 has atomic number  6 and mass  12.00000
 Atom    27 has atomic number  6 and mass  12.00000
 Atom    28 has atomic number  6 and mass  12.00000
 Atom    29 has atomic number  6 and mass  12.00000
 Atom    30 has atomic number  6 and mass  12.00000
 Atom    31 has atomic number  6 and mass  12.00000
 Atom    32 has atomic number  6 and mass  12.00000
 Atom    33 has atomic number  6 and mass  12.00000
 Atom    34 has atomic number  6 and mass  12.00000
 Atom    35 has atomic number  6 and mass  12.00000
 Atom    36 has atomic number  6 and mass  12.00000
 Atom    37 has atomic number  6 and mass  12.00000
 Atom    38 has atomic number  6 and mass  12.00000
 Atom    39 has atomic number  6 and mass  12.00000
 Atom    40 has atomic number  6 and mass  12.00000
 Atom    41 has atomic number  6 and mass  12.00000
 Atom    42 has atomic number  6 and mass  12.00000
 Atom    43 has atomic number  6 and mass  12.00000
 Atom    44 has atomic number  6 and mass  12.00000
 Atom    45 has atomic number  6 and mass  12.00000
 Atom    46 has atomic number  6 and mass  12.00000
 Atom    47 has atomic number  6 and mass  12.00000
 Atom    48 has atomic number  6 and mass  12.00000
 Atom    49 has atomic number  6 and mass  12.00000
 Atom    50 has atomic number  6 and mass  12.00000
 Atom    51 has atomic number  6 and mass  12.00000
 Atom    52 has atomic number  6 and mass  12.00000
 Atom    53 has atomic number  6 and mass  12.00000
 Atom    54 has atomic number  6 and mass  12.00000
 Atom    55 has atomic number  6 and mass  12.00000
 Atom    56 has atomic number  6 and mass  12.00000
 Atom    57 has atomic number  6 and mass  12.00000
 Atom    58 has atomic number  6 and mass  12.00000
 Atom    59 has atomic number  6 and mass  12.00000
 Atom    60 has atomic number  6 and mass  12.00000
 Atom    61 has atomic number  6 and mass  12.00000
 Atom    62 has atomic number  6 and mass  12.00000
 Atom    63 has atomic number  6 and mass  12.00000
 Atom    64 has atomic number  1 and mass   1.00783
 Atom    65 has atomic number  1 and mass   1.00783
 Atom    66 has atomic number  1 and mass   1.00783
 Atom    67 has atomic number  6 and mass  12.00000
 Atom    68 has atomic number  1 and mass   1.00783
 Atom    69 has atomic number  1 and mass   1.00783
 Atom    70 has atomic number  1 and mass   1.00783
 Atom    71 has atomic number  6 and mass  12.00000
 Atom    72 has atomic number  1 and mass   1.00783
 Atom    73 has atomic number  1 and mass   1.00783
 Atom    74 has atomic number  6 and mass  12.00000
 Atom    75 has atomic number  1 and mass   1.00783
 Atom    76 has atomic number  1 and mass   1.00783
 Molecular mass:   802.07825 amu.
 Principal axes and moments of inertia in atomic units:
                           1         2         3
     Eigenvalues --  ******************************
           X            0.99999   0.00000   0.00412
           Y           -0.00000   1.00000  -0.00000
           Z           -0.00412   0.00000   0.99999
 This molecule is an asymmetric top.
 Rotational symmetry number  1.
 Warning -- assumption of classical behavior for rotation
           may cause significant error
 Rotational temperatures (Kelvin)      0.00390     0.00272     0.00269
 Rotational constants (GHZ):           0.08128     0.05673     0.05610
 Zero-point vibrational energy    1380599.1 (Joules/Mol)
                                  329.97111 (Kcal/Mol)
 Warning -- explicit consideration of  60 degrees of freedom as
           vibrations may cause significant error
 Vibrational temperatures:     83.51   122.01   150.85   196.61   234.22
          (Kelvin)            279.07   297.50   335.48   363.74   369.43
                              381.24   385.10   457.89   490.47   495.90
                              500.82   513.94   521.52   523.06   538.87
                              540.38   542.49   547.49   547.82   566.30
                              570.55   580.95   594.41   633.15   634.70
                              640.71   641.84   659.14   672.50   680.12
                              689.92   704.51   717.68   724.63   743.06
                              745.03   748.29   757.40   758.11   762.57
                              776.10   781.89   805.57   806.71   809.16
                              809.41   811.68   819.75   823.83   830.06
                              831.82   834.48   842.72   856.47   870.54
                              904.80   943.95   966.67   980.46   985.66
                              988.96  1012.72  1017.01  1020.82  1025.52
                             1029.37  1039.24  1041.06  1041.46  1053.68
                             1054.88  1056.97  1062.34  1066.01  1071.03
                             1075.06  1079.83  1081.02  1085.91  1086.94
                             1087.36  1088.44  1091.05  1091.64  1093.49
                             1094.88  1095.55  1098.65  1109.90  1112.34
                             1114.79  1129.91  1142.64  1151.81  1155.43
                             1162.96  1171.47  1173.03  1205.43  1209.05
                             1222.02  1285.76  1310.16  1351.24  1352.69
                             1396.53  1396.68  1415.51  1426.66  1429.77
                             1434.97  1450.74  1455.79  1466.51  1500.92
                             1514.58  1518.39  1538.64  1563.91  1568.94
                             1598.40  1620.13  1622.45  1630.12  1633.40
                             1644.23  1659.43  1681.57  1694.53  1700.32
                             1726.61  1751.57  1754.11  1772.73  1773.61
                             1775.36  1789.52  1797.01  1803.24  1805.93
                             1812.21  1825.59  1832.72  1834.73  1847.70
                             1865.63  1874.12  1880.39  1886.23  1891.78
                             1893.29  1906.94  1921.75  1923.14  1927.42
                             1936.34  1942.27  1945.42  1946.54  1956.49
                             1980.30  1988.73  1989.58  1994.01  1995.46
                             1995.48  1999.60  2004.10  2015.73  2066.19
                             2070.06  2100.84  2101.01  2108.15  2109.47
                             2110.03  2119.61  2122.26  2137.37  2138.48
                             2152.58  2154.73  2155.01  2155.64  2158.41
                             2161.08  2166.58  2169.75  2192.02  2234.93
                             2250.18  2254.34  2262.67  2278.41  2299.46
                             2304.12  2305.44  2309.61  2313.06  2318.92
                             2321.28  2325.75  2328.28  2330.05  2343.25
                             2359.25  2498.50  4317.94  4320.80  4373.29
                             4375.91  4484.59  4508.81  4564.98  4576.62
                             4663.38  4667.98
 
 Zero-point correction=                           0.525842 (Hartree/Particle)
 Thermal correction to Energy=                    0.553795
 Thermal correction to Enthalpy=                  0.554739
 Thermal correction to Gibbs Free Energy=         0.475686
 Sum of electronic and zero-point Energies=          -2520.691652
 Sum of electronic and thermal Energies=             -2520.663700
 Sum of electronic and thermal Enthalpies=           -2520.662756
 Sum of electronic and thermal Free Energies=        -2520.741809
 
                     E (Thermal)             CV                S
                      KCal/Mol        Cal/Mol-Kelvin    Cal/Mol-Kelvin
 Total                  347.512            142.710            166.382
 Electronic               0.000              0.000              0.000
 Translational            0.889              2.981             45.924
 Rotational               0.889              2.981             38.361
 Vibrational            345.734            136.749             82.098
 Vibration     1          0.596              1.974              4.523
 Vibration     2          0.601              1.960              3.777
 Vibration     3          0.605              1.945              3.362
 Vibration     4          0.614              1.917              2.850
 Vibration     5          0.623              1.888              2.517
 Vibration     6          0.635              1.848              2.190
 Vibration     7          0.641              1.830              2.072
 Vibration     8          0.654              1.790              1.854
 Vibration     9          0.664              1.758              1.711
 Vibration    10          0.666              1.751              1.684
 Vibration    11          0.671              1.737              1.629
 Vibration    12          0.673              1.733              1.611
 Vibration    13          0.705              1.639              1.319
 Vibration    14          0.720              1.594              1.208
 Vibration    15          0.723              1.586              1.190
 Vibration    16          0.726              1.579              1.175
 Vibration    17          0.732              1.560              1.134
 Vibration    18          0.736              1.550              1.111
 Vibration    19          0.737              1.547              1.107
 Vibration    20          0.746              1.524              1.061
 Vibration    21          0.746              1.522              1.057
 Vibration    22          0.748              1.519              1.051
 Vibration    23          0.750              1.512              1.037
 Vibration    24          0.750              1.511              1.036
 Vibration    25          0.761              1.484              0.986
 Vibration    26          0.763              1.478              0.975
 Vibration    27          0.769              1.462              0.949
 Vibration    28          0.777              1.442              0.916
 Vibration    29          0.800              1.383              0.826
 Vibration    30          0.801              1.380              0.823
 Vibration    31          0.805              1.371              0.810
 Vibration    32          0.805              1.369              0.808
 Vibration    33          0.816              1.343              0.772
 Vibration    34          0.825              1.322              0.745
 Vibration    35          0.830              1.311              0.730
 Vibration    36          0.836              1.295              0.711
 Vibration    37          0.845              1.273              0.684
 Vibration    38          0.854              1.253              0.661
 Vibration    39          0.859              1.242              0.649
 Vibration    40          0.871              1.214              0.618
 Vibration    41          0.873              1.211              0.615
 Vibration    42          0.875              1.206              0.610
 Vibration    43          0.881              1.192              0.595
 Vibration    44          0.882              1.190              0.594
 Vibration    45          0.885              1.184              0.587
 Vibration    46          0.894              1.163              0.567
 Vibration    47          0.899              1.154              0.558
 Vibration    48          0.916              1.118              0.524
 Vibration    49          0.916              1.116              0.522
 Vibration    50          0.918              1.113              0.519
 Vibration    51          0.918              1.112              0.519
 Vibration    52          0.920              1.109              0.516
 Vibration    53          0.926              1.097              0.505
 Vibration    54          0.929              1.091              0.499
 Vibration    55          0.933              1.081              0.491
 Vibration    56          0.935              1.079              0.489
 Vibration    57          0.937              1.075              0.485
 Vibration    58          0.943              1.062              0.475
 Vibration    59          0.953              1.042              0.458
 Vibration    60          0.964              1.021              0.441
                       Q            Log10(Q)             Ln(Q)
 Total Bot       0.158481-218       -218.800022       -503.805668
 Total V=0       0.117624D+24         23.070497         53.121782
 Vib (Bot)       0.328913-235       -235.482919       -542.219460
 Vib (Bot)    1  0.355870D+01          0.551292          1.269396
 Vib (Bot)    2  0.242664D+01          0.385006          0.886508
 Vib (Bot)    3  0.195560D+01          0.291279          0.670696
 Vib (Bot)    4  0.148934D+01          0.172993          0.398332
 Vib (Bot)    5  0.124079D+01          0.093698          0.215748
 Vib (Bot)    6  0.103033D+01          0.012975          0.029877
 Vib (Bot)    7  0.961785D+00         -0.016922         -0.038964
 Vib (Bot)    8  0.843507D+00         -0.073911         -0.170187
 Vib (Bot)    9  0.770974D+00         -0.112961         -0.260101
 Vib (Bot)   10  0.757656D+00         -0.120528         -0.277526
 Vib (Bot)   11  0.731207D+00         -0.135960         -0.313059
 Vib (Bot)   12  0.722905D+00         -0.140919         -0.324478
 Vib (Bot)   13  0.591295D+00         -0.228196         -0.525440
 Vib (Bot)   14  0.544395D+00         -0.264086         -0.608080
 Vib (Bot)   15  0.537133D+00         -0.269918         -0.621509
 Vib (Bot)   16  0.530700D+00         -0.275151         -0.633559
 Vib (Bot)   17  0.514071D+00         -0.288977         -0.665393
 Vib (Bot)   18  0.504829D+00         -0.296855         -0.683535
 Vib (Bot)   19  0.502978D+00         -0.298451         -0.687208
 Vib (Bot)   20  0.484579D+00         -0.314635         -0.724474
 Vib (Bot)   21  0.482883D+00         -0.316158         -0.727981
 Vib (Bot)   22  0.480516D+00         -0.318292         -0.732894
 Vib (Bot)   23  0.474974D+00         -0.323330         -0.744496
 Vib (Bot)   24  0.474612D+00         -0.323662         -0.745258
 Vib (Bot)   25  0.454952D+00         -0.342034         -0.787563
 Vib (Bot)   26  0.450592D+00         -0.346216         -0.797192
 Vib (Bot)   27  0.440189D+00         -0.356361         -0.820552
 Vib (Bot)   28  0.427238D+00         -0.369331         -0.850415
 Vib (Bot)   29  0.392811D+00         -0.405816         -0.934427
 Vib (Bot)   30  0.391521D+00         -0.407245         -0.937716
 Vib (Bot)   31  0.386550D+00         -0.412794         -0.950493
 Vib (Bot)   32  0.385625D+00         -0.413835         -0.952890
 Vib (Bot)   33  0.371844D+00         -0.429640         -0.989282
 Vib (Bot)   34  0.361653D+00         -0.441708         -1.017071
 Vib (Bot)   35  0.356011D+00         -0.448536         -1.032793
 Vib (Bot)   36  0.348921D+00         -0.457273         -1.052909
 Vib (Bot)   37  0.338717D+00         -0.470163         -1.082589
 Vib (Bot)   38  0.329836D+00         -0.481702         -1.109159
 Vib (Bot)   39  0.325272D+00         -0.487754         -1.123094
 Vib (Bot)   40  0.313559D+00         -0.503681         -1.159769
 Vib (Bot)   41  0.312337D+00         -0.505376         -1.163672
 Vib (Bot)   42  0.310332D+00         -0.508173         -1.170112
 Vib (Bot)   43  0.304816D+00         -0.515963         -1.188048
 Vib (Bot)   44  0.304395D+00         -0.516562         -1.189429
 Vib (Bot)   45  0.301739D+00         -0.520369         -1.198194
 Vib (Bot)   46  0.293875D+00         -0.531838         -1.224601
 Vib (Bot)   47  0.290590D+00         -0.536719         -1.235842
 Vib (Bot)   48  0.277618D+00         -0.556553         -1.281511
 Vib (Bot)   49  0.277010D+00         -0.557504         -1.283700
 Vib (Bot)   50  0.275711D+00         -0.559546         -1.288402
 Vib (Bot)   51  0.275584D+00         -0.559747         -1.288864
 Vib (Bot)   52  0.274384D+00         -0.561641         -1.293226
 Vib (Bot)   53  0.270191D+00         -0.568328         -1.308624
 Vib (Bot)   54  0.268101D+00         -0.571701         -1.316390
 Vib (Bot)   55  0.264942D+00         -0.576848         -1.328243
 Vib (Bot)   56  0.264060D+00         -0.578298         -1.331580
 Vib (Bot)   57  0.262733D+00         -0.580486         -1.336617
 Vib (Bot)   58  0.258668D+00         -0.587257         -1.352210
 Vib (Bot)   59  0.252058D+00         -0.598499         -1.378094
 Vib (Bot)   60  0.245500D+00         -0.609948         -1.404457
 Vib (V=0)       0.244117D+07          6.387599         14.707990
 Vib (V=0)    1  0.409366D+01          0.612111          1.409438
 Vib (V=0)    2  0.297762D+01          0.473869          1.091124
 Vib (V=0)    3  0.251850D+01          0.401143          0.923665
 Vib (V=0)    4  0.207103D+01          0.316186          0.728045
 Vib (V=0)    5  0.183774D+01          0.264285          0.608539
 Vib (V=0)    6  0.164524D+01          0.216229          0.497886
 Vib (V=0)    7  0.158399D+01          0.199752          0.459946
 Vib (V=0)    8  0.148056D+01          0.170427          0.392423
 Vib (V=0)    9  0.141891D+01          0.151956          0.349891
 Vib (V=0)   10  0.140777D+01          0.148531          0.342005
 Vib (V=0)   11  0.138581D+01          0.141704          0.326287
 Vib (V=0)   12  0.137897D+01          0.139555          0.321338
 Vib (V=0)   13  0.127436D+01          0.105291          0.242442
 Vib (V=0)   14  0.123917D+01          0.093129          0.214438
 Vib (V=0)   15  0.123383D+01          0.091257          0.210126
 Vib (V=0)   16  0.122914D+01          0.089601          0.206313
 Vib (V=0)   17  0.121713D+01          0.085335          0.196492
 Vib (V=0)   18  0.121053D+01          0.082976          0.191058
 Vib (V=0)   19  0.120922D+01          0.082504          0.189972
 Vib (V=0)   20  0.119629D+01          0.077836          0.179224
 Vib (V=0)   21  0.119511D+01          0.077407          0.178237
 Vib (V=0)   22  0.119347D+01          0.076810          0.176862
 Vib (V=0)   23  0.118964D+01          0.075415          0.173649
 Vib (V=0)   24  0.118939D+01          0.075324          0.173439
 Vib (V=0)   25  0.117600D+01          0.070409          0.162122
 Vib (V=0)   26  0.117308D+01          0.069327          0.159631
 Vib (V=0)   27  0.116616D+01          0.066757          0.153714
 Vib (V=0)   28  0.115767D+01          0.063585          0.146411
 Vib (V=0)   29  0.113585D+01          0.055320          0.127378
 Vib (V=0)   30  0.113505D+01          0.055015          0.126677
 Vib (V=0)   31  0.113200D+01          0.053846          0.123984
 Vib (V=0)   32  0.113143D+01          0.053629          0.123484
 Vib (V=0)   33  0.112311D+01          0.050423          0.116103
 Vib (V=0)   34  0.111708D+01          0.048086          0.110722
 Vib (V=0)   35  0.111379D+01          0.046805          0.107773
 Vib (V=0)   36  0.110971D+01          0.045209          0.104099
 Vib (V=0)   37  0.110393D+01          0.042941          0.098875
 Vib (V=0)   38  0.109899D+01          0.040995          0.094394
 Vib (V=0)   39  0.109649D+01          0.040005          0.092115
 Vib (V=0)   40  0.109019D+01          0.037500          0.086348
 Vib (V=0)   41  0.108954D+01          0.037242          0.085753
 Vib (V=0)   42  0.108848D+01          0.036820          0.084780
 Vib (V=0)   43  0.108559D+01          0.035665          0.082121
 Vib (V=0)   44  0.108537D+01          0.035577          0.081920
 Vib (V=0)   45  0.108399D+01          0.035026          0.080650
 Vib (V=0)   46  0.107997D+01          0.033411          0.076931
 Vib (V=0)   47  0.107831D+01          0.032744          0.075395
 Vib (V=0)   48  0.107190D+01          0.030155          0.069434
 Vib (V=0)   49  0.107161D+01          0.030036          0.069160
 Vib (V=0)   50  0.107098D+01          0.029781          0.068573
 Vib (V=0)   51  0.107092D+01          0.029756          0.068515
 Vib (V=0)   52  0.107034D+01          0.029521          0.067976
 Vib (V=0)   53  0.106833D+01          0.028707          0.066100
 Vib (V=0)   54  0.106734D+01          0.028304          0.065173
 Vib (V=0)   55  0.106586D+01          0.027699          0.063779
 Vib (V=0)   56  0.106544D+01          0.027531          0.063392
 Vib (V=0)   57  0.106483D+01          0.027279          0.062812
 Vib (V=0)   58  0.106295D+01          0.026512          0.061045
 Vib (V=0)   59  0.105994D+01          0.025282          0.058213
 Vib (V=0)   60  0.105702D+01          0.024083          0.055453
 Electronic      0.100000D+01          0.000000          0.000000
 Translational   0.892851D+09          8.950779         20.609930
 Rotational      0.539658D+08          7.732119         17.803862
 ***** Axes restored to original set *****
 -------------------------------------------------------------------
 Center     Atomic                   Forces (Hartrees/Bohr)
 Number     Number              X              Y              Z
 -------------------------------------------------------------------
      1        6           0.000001449    0.000000636   -0.000000966
      2        6          -0.000000822   -0.000001168   -0.000001425
      3        6          -0.000001783   -0.000000262    0.000002058
      4        6          -0.000001634   -0.000000008    0.000002622
      5        6           0.000003411    0.000000023    0.000000436
      6        6          -0.000000519   -0.000000227   -0.000000383
      7        6           0.000000861   -0.000000255   -0.000000302
      8        6          -0.000000568   -0.000001987    0.000001779
      9        6           0.000000930    0.000000462   -0.000003576
     10        6           0.000002487   -0.000001396   -0.000000071
     11        6           0.000006397    0.000001420   -0.000000512
     12        6          -0.000002480    0.000000563    0.000001605
     13        6          -0.000000707    0.000000552   -0.000000382
     14        6           0.000001319   -0.000000876   -0.000000668
     15        6          -0.000000431    0.000000095   -0.000000331
     16        6          -0.000000103    0.000000490    0.000000584
     17        6           0.000000129   -0.000000438    0.000000099
     18        6          -0.000000846   -0.000000025    0.000000447
     19        6          -0.000000473   -0.000000597    0.000000321
     20        6           0.000000474    0.000001531    0.000001556
     21        6          -0.000002170    0.000000514   -0.000002139
     22        6           0.000002010    0.000000352    0.000000314
     23        6           0.000000090    0.000000187    0.000000240
     24        6          -0.000000065   -0.000000262   -0.000000375
     25        6          -0.000000228    0.000000249   -0.000000555
     26        6          -0.000000719    0.000000232    0.000000361
     27        6          -0.000000671    0.000000643    0.000000534
     28        6           0.000001021   -0.000000025   -0.000001080
     29        6           0.000006261   -0.000000923    0.000000428
     30        6          -0.000007362    0.000003797    0.000004470
     31        6           0.000002489   -0.000009044   -0.000005505
     32        6           0.000005598    0.000017581   -0.000002035
     33        6           0.000000809    0.000001441   -0.000000883
     34        6           0.000005573    0.000001912   -0.000002043
     35        6           0.000002799    0.000001685   -0.000000854
     36        6          -0.000002455   -0.000000766   -0.000001875
     37        6          -0.000000150   -0.000002019    0.000000921
     38        6          -0.000000261    0.000002514    0.000002227
     39        6           0.000001003   -0.000000549   -0.000003958
     40        6           0.000001895    0.000001392   -0.000002459
     41        6           0.000007251   -0.000017723   -0.000000777
     42        6          -0.000001534   -0.000001688   -0.000002808
     43        6           0.000005145   -0.000000140   -0.000001738
     44        6          -0.000001274    0.000000607    0.000003083
     45        6           0.000000796   -0.000000405    0.000000975
     46        6          -0.000003059   -0.000000814   -0.000000252
     47        6           0.000002132   -0.000000167    0.000000397
     48        6          -0.000000007   -0.000000020    0.000000575
     49        6           0.000000840   -0.000000207    0.000000057
     50        6           0.000000892    0.000000146    0.000000578
     51        6          -0.000002778    0.000001133   -0.000000587
     52        6           0.000002061   -0.000001746   -0.000000902
     53        6          -0.000003406    0.000004928    0.000002172
     54        6          -0.000006936   -0.000002599    0.000003337
     55        6           0.000001319    0.000009159   -0.000005041
     56        6          -0.000006361   -0.000009587    0.000002065
     57        6          -0.000008267    0.000008928    0.000001576
     58        6          -0.000004699   -0.000006696    0.000001611
     59        6           0.000003729    0.000001224    0.000004532
     60        6          -0.000002757   -0.000003290    0.000003779
     61        6           0.000007629    0.000022573   -0.000015004
     62        6           0.000004691   -0.000011915    0.000005268
     63        6          -0.000010971   -0.000001413    0.000013729
     64        1          -0.000000662    0.000003391   -0.000008154
     65        1           0.000002937   -0.000006580   -0.000000604
     66        1           0.000003445   -0.000002883   -0.000001095
     67        6          -0.000020499   -0.000000971    0.000012886
     68        1           0.000002299    0.000001026    0.000001564
     69        1           0.000008023    0.000003739   -0.000003763
     70        1           0.000005524    0.000000246   -0.000009899
     71        6          -0.000015865    0.000007629   -0.000003677
     72        1           0.000003956   -0.000002169    0.000002498
     73        1           0.000000924   -0.000006343    0.000000930
     74        6          -0.000000668   -0.000004591    0.000003221
     75        1           0.000000881    0.000001254    0.000001175
     76        1           0.000002710   -0.000001487   -0.000000312
 -------------------------------------------------------------------
 Cartesian Forces:  Max     0.000022573 RMS     0.000004517
 Z-matrix is all fixed cartesians, so copy forces.
 Leave Link  716 at Fri May 31 12:09:45 2024, MaxMem=   104857600 cpu:               0.1 elap:               1.6
 (Enter /mlatom/software/Gaussian/g16-avx2/l103.exe)

 GradGradGradGradGradGradGradGradGradGradGradGradGradGradGradGradGradGrad
 Berny optimization.
 Search for a local minimum.
 Step number   1 out of a maximum of    2
 All quantities printed in internal units (Hartrees-Bohrs-Radians)
 Second derivative matrix not updated -- analytic derivatives used.
 ITU=  0
     Eigenvalues ---    0.00051   0.00074   0.00091   0.00142   0.00172
     Eigenvalues ---    0.00480   0.00588   0.00959   0.01120   0.01386
     Eigenvalues ---    0.01673   0.02440   0.02881   0.02980   0.03050
     Eigenvalues ---    0.03080   0.03505   0.03795   0.04283   0.04329
     Eigenvalues ---    0.04842   0.05000   0.05373   0.05450   0.05802
     Eigenvalues ---    0.06001   0.06034   0.06161   0.06382   0.06422
     Eigenvalues ---    0.06428   0.06514   0.06522   0.06713   0.06940
     Eigenvalues ---    0.07059   0.07395   0.08346   0.08784   0.08894
     Eigenvalues ---    0.08962   0.09265   0.09434   0.09622   0.09934
     Eigenvalues ---    0.10441   0.10450   0.10537   0.10684   0.10840
     Eigenvalues ---    0.10928   0.11644   0.12111   0.12140   0.12316
     Eigenvalues ---    0.12387   0.12525   0.13118   0.13277   0.13511
     Eigenvalues ---    0.13570   0.14144   0.14236   0.14331   0.14368
     Eigenvalues ---    0.14471   0.14495   0.14775   0.14850   0.15069
     Eigenvalues ---    0.15398   0.15689   0.15716   0.16702   0.17005
     Eigenvalues ---    0.17224   0.17520   0.19053   0.20073   0.21075
     Eigenvalues ---    0.21297   0.21410   0.21558   0.21565   0.22616
     Eigenvalues ---    0.22896   0.23072   0.23234   0.23652   0.23682
     Eigenvalues ---    0.23752   0.23980   0.24430   0.24468   0.24795
     Eigenvalues ---    0.25170   0.25225   0.25235   0.25870   0.25896
     Eigenvalues ---    0.25921   0.25955   0.25987   0.26095   0.26131
     Eigenvalues ---    0.26187   0.26254   0.26343   0.26962   0.27014
     Eigenvalues ---    0.27142   0.27277   0.28142   0.28781   0.28782
     Eigenvalues ---    0.29507   0.29703   0.30065   0.30194   0.30402
     Eigenvalues ---    0.31226   0.32466   0.32555   0.32770   0.36381
     Eigenvalues ---    0.38007   0.41790   0.42139   0.42675   0.42949
     Eigenvalues ---    0.44710   0.45053   0.45064   0.46229   0.48507
     Eigenvalues ---    0.50874   0.53054   0.54200   0.54829   0.57328
     Eigenvalues ---    0.57887   0.57968   0.58320   0.58740   0.59316
     Eigenvalues ---    0.61153   0.61855   0.62972   0.63270   0.65529
     Eigenvalues ---    0.67042   0.67388   0.68947   0.69098   0.69153
     Eigenvalues ---    0.71049   0.71365   0.71538   0.72744   0.73559
     Eigenvalues ---    0.73749   0.74602   0.75969   0.76402   0.76525
     Eigenvalues ---    0.77571   0.77711   0.78155   0.78347   0.78593
     Eigenvalues ---    0.79768   0.80747   0.81299   0.81482   0.81782
     Eigenvalues ---    0.82104   0.82262   0.83032   0.83055   0.83920
     Eigenvalues ---    0.85278   0.86659   0.86778   0.87202   0.87323
     Eigenvalues ---    0.87354   0.87714   0.88046   0.89148   0.90171
     Eigenvalues ---    0.91338   0.93610   0.96822   0.96836   0.97497
     Eigenvalues ---    0.97622   0.97674   0.98576   0.98802   1.00223
     Eigenvalues ---    1.00351   1.01653   1.01864   1.01986   1.09521
     Eigenvalues ---    1.11069   1.11470   1.12312   1.13840   1.15986
     Eigenvalues ---    1.16450   1.16592   1.17019   1.17367   1.17947
     Eigenvalues ---    1.18206   1.18651   1.18917   1.19100   1.20394
     Eigenvalues ---    1.22096   1.33752
 Angle between quadratic step and forces=  83.37 degrees.
 Linear search not attempted -- first point.
 B after Tr=    -0.000014    0.000006    0.000006
         Rot=    1.000000    0.000003    0.000003    0.000001 Ang=   0.00 deg.
 Variable       Old X    -DE/DX   Delta X   Delta X   Delta X     New X
                                 (Linear)    (Quad)   (Total)
    X1       -3.70621   0.00000   0.00000   0.00008   0.00010  -3.70611
    Y1        4.34835   0.00000   0.00000  -0.00001  -0.00001   4.34834
    Z1       -4.47571  -0.00000   0.00000  -0.00004  -0.00008  -4.47579
    X2       -1.02996  -0.00000   0.00000   0.00008   0.00011  -1.02984
    Y2        4.35690  -0.00000   0.00000  -0.00002  -0.00004   4.35686
    Z2       -5.05232  -0.00000   0.00000   0.00000  -0.00002  -5.05235
    X3        0.11201  -0.00000   0.00000   0.00009   0.00012   0.11213
    Y3        2.21758  -0.00000   0.00000  -0.00004  -0.00006   2.21751
    Z3       -6.09319   0.00000   0.00000   0.00005   0.00005  -6.09314
    X4       -1.40106  -0.00000   0.00000   0.00009   0.00012  -1.40095
    Y4        0.00058  -0.00000   0.00000  -0.00003  -0.00005   0.00053
    Z4       -6.62803   0.00000   0.00000   0.00005   0.00005  -6.62798
    X5       -3.98161   0.00000   0.00000   0.00009   0.00011  -3.98150
    Y5        0.00053   0.00000   0.00000  -0.00001  -0.00003   0.00050
    Z5       -6.09767   0.00000   0.00000  -0.00000  -0.00002  -6.09768
    X6       -5.15889  -0.00000   0.00000   0.00007   0.00009  -5.15880
    Y6        2.21592  -0.00000   0.00000  -0.00000  -0.00001   2.21591
    Z6       -4.99319  -0.00000   0.00000  -0.00005  -0.00008  -4.99328
    X7       -4.07309   0.00000   0.00000   0.00004   0.00006  -4.07304
    Y7        5.72044  -0.00000   0.00000  -0.00000   0.00000   5.72045
    Z7       -2.13187  -0.00000   0.00000  -0.00005  -0.00010  -2.13197
    X8       -1.61649  -0.00000   0.00000   0.00003   0.00004  -1.61645
    Y8        6.56458  -0.00000   0.00000  -0.00001  -0.00001   6.56458
    Z8       -1.26027   0.00000   0.00000  -0.00001  -0.00005  -1.26031
    X9        0.25298   0.00000   0.00000   0.00005   0.00008   0.25305
    Y9        5.71064   0.00000   0.00000  -0.00000  -0.00001   5.71062
    Z9       -3.07297  -0.00000   0.00000   0.00001  -0.00001  -3.07298
   X10        2.60355   0.00000   0.00000   0.00003   0.00005   2.60360
   Y10        4.85090  -0.00000   0.00000  -0.00000  -0.00002   4.85088
   Z10       -2.22909  -0.00000   0.00000   0.00007   0.00006  -2.22902
   X11        2.56949   0.00001   0.00000   0.00009   0.00011   2.56960
   Y11        1.39700   0.00000   0.00000  -0.00003  -0.00006   1.39694
   Z11       -5.23095  -0.00000   0.00000   0.00006   0.00008  -5.23087
   X12        0.11202  -0.00000   0.00000   0.00007   0.00008   0.11210
   Y12       -2.21650   0.00000   0.00000  -0.00003  -0.00006  -2.21656
   Z12       -6.09357   0.00000   0.00000   0.00007   0.00009  -6.09348
   X13       -1.02994  -0.00000   0.00000   0.00004   0.00004  -1.02990
   Y13       -4.35601   0.00000   0.00000  -0.00003  -0.00005  -4.35606
   Z13       -5.05308  -0.00000   0.00000   0.00004   0.00007  -5.05302
   X14       -3.70620   0.00000   0.00000   0.00003   0.00003  -3.70616
   Y14       -4.34757  -0.00000   0.00000  -0.00001  -0.00002  -4.34759
   Z14       -4.47647  -0.00000   0.00000   0.00000   0.00001  -4.47646
   X15       -5.15888  -0.00000   0.00000   0.00005   0.00006  -5.15882
   Y15       -2.21505   0.00000   0.00000  -0.00000  -0.00001  -2.21506
   Z15       -4.99358  -0.00000   0.00000  -0.00002  -0.00004  -4.99362
   X16       -7.03720  -0.00000   0.00000   0.00002   0.00002  -7.03718
   Y16       -1.36868   0.00000   0.00000   0.00002   0.00003  -1.36866
   Z16       -3.18880   0.00000   0.00000  -0.00006  -0.00009  -3.18889
   X17       -7.03720   0.00000   0.00000   0.00003   0.00004  -7.03716
   Y17        1.36923  -0.00000   0.00000   0.00001   0.00002   1.36925
   Z17       -3.18856   0.00000   0.00000  -0.00007  -0.00012  -3.18868
   X18       -7.38983  -0.00000   0.00000  -0.00000  -0.00000  -7.38984
   Y18        2.68579  -0.00000   0.00000   0.00003   0.00005   2.68584
   Z18       -0.93460   0.00000   0.00000  -0.00008  -0.00014  -0.93474
   X19       -5.87744  -0.00000   0.00000   0.00001   0.00001  -5.87743
   Y19        4.90463  -0.00000   0.00000   0.00002   0.00004   4.90467
   Z19       -0.39512   0.00000   0.00000  -0.00007  -0.00013  -0.39525
   X20       -1.06157   0.00000   0.00000  -0.00001  -0.00002  -1.06159
   Y20        6.56429   0.00000   0.00000   0.00001   0.00003   6.56431
   Z20        1.30999   0.00000   0.00000   0.00000  -0.00003   1.30996
   X21       -2.93765  -0.00000   0.00000  -0.00005  -0.00007  -2.93771
   Y21        5.71987   0.00000   0.00000   0.00002   0.00005   5.71992
   Z21        3.11910  -0.00000   0.00000  -0.00003  -0.00007   3.11902
   X22       -5.29847   0.00000   0.00000  -0.00003  -0.00005  -5.29851
   Y22        4.90441   0.00000   0.00000   0.00003   0.00006   4.90447
   Z22        2.28335   0.00000   0.00000  -0.00006  -0.00012   2.28324
   X23       -6.45248   0.00000   0.00000  -0.00007  -0.00009  -6.45257
   Y23        2.68536   0.00000   0.00000   0.00004   0.00009   2.68544
   Z23        3.39930   0.00000   0.00000  -0.00007  -0.00012   3.39919
   X24       -7.74856  -0.00000   0.00000  -0.00004  -0.00006  -7.74863
   Y24        1.31602  -0.00000   0.00000   0.00004   0.00008   1.31610
   Z24        1.41124  -0.00000   0.00000  -0.00008  -0.00013   1.41110
   X25       -7.74856  -0.00000   0.00000  -0.00006  -0.00009  -7.74864
   Y25       -1.31627   0.00000   0.00000   0.00004   0.00008  -1.31620
   Z25        1.41101  -0.00000   0.00000  -0.00007  -0.00011   1.41090
   X26       -7.38983  -0.00000   0.00000  -0.00003  -0.00004  -7.38987
   Y26       -2.68563   0.00000   0.00000   0.00003   0.00005  -2.68558
   Z26       -0.93507   0.00000   0.00000  -0.00006  -0.00008  -0.93515
   X27       -5.87743  -0.00000   0.00000  -0.00004  -0.00007  -5.87750
   Y27       -4.90457   0.00000   0.00000   0.00003   0.00005  -4.90452
   Z27       -0.39597   0.00000   0.00000  -0.00003  -0.00003  -0.39600
   X28       -4.07308   0.00000   0.00000  -0.00002  -0.00003  -4.07311
   Y28       -5.72007  -0.00000   0.00000   0.00001   0.00002  -5.72005
   Z28       -2.13287  -0.00000   0.00000   0.00001   0.00002  -2.13285
   X29        2.56949   0.00001   0.00000   0.00008   0.00009   2.56958
   Y29       -1.39607  -0.00000   0.00000  -0.00005  -0.00008  -1.39615
   Z29       -5.23120   0.00000   0.00000   0.00008   0.00011  -5.23109
   X30        1.38908  -0.00001   0.00000  -0.00010  -0.00015   1.38894
   Y30       -5.70775   0.00000   0.00000   0.00002   0.00004  -5.70772
   Z30        2.18591   0.00000   0.00000   0.00009   0.00014   2.18605
   X31        3.17749   0.00000   0.00000  -0.00003  -0.00006   3.17743
   Y31       -4.84326  -0.00001   0.00000  -0.00005  -0.00005  -4.84331
   Z31        0.44600  -0.00001   0.00000   0.00011   0.00016   0.44616
   X32        4.72361   0.00001   0.00000  -0.00006  -0.00009   4.72352
   Y32       -2.68446   0.00002   0.00000   0.00002   0.00001  -2.68444
   Z32        0.97787  -0.00000   0.00000   0.00011   0.00016   0.97803
   X33        4.39826   0.00000   0.00000  -0.00008  -0.00012   4.39814
   Y33       -1.39615   0.00000   0.00000  -0.00000   0.00001  -1.39614
   Z33        3.20506  -0.00000   0.00000   0.00011   0.00015   3.20521
   X34        2.51155   0.00001   0.00000  -0.00010  -0.00015   2.51140
   Y34       -2.21817   0.00000   0.00000   0.00001   0.00003  -2.21813
   Z34        5.00009  -0.00000   0.00000   0.00009   0.00013   5.00021
   X35       -1.63417   0.00000   0.00000  -0.00013  -0.00018  -1.63435
   Y35       -4.34808   0.00000   0.00000   0.00003   0.00007  -4.34801
   Z35        5.10057  -0.00000   0.00000   0.00004   0.00006   5.10063
   X36       -2.93763  -0.00000   0.00000  -0.00011  -0.00016  -2.93778
   Y36       -5.72040  -0.00000   0.00000   0.00002   0.00005  -5.72035
   Z36        3.11810  -0.00000   0.00000   0.00002   0.00004   3.11814
   X37       -1.06155  -0.00000   0.00000  -0.00008  -0.00012  -1.06167
   Y37       -6.56450  -0.00000   0.00000   0.00000   0.00002  -6.56449
   Z37        1.30885   0.00000   0.00000   0.00006   0.00010   1.30895
   X38       -1.61648  -0.00000   0.00000  -0.00004  -0.00006  -1.61654
   Y38       -6.56436   0.00000   0.00000   0.00001   0.00001  -6.56435
   Z38       -1.26141   0.00000   0.00000   0.00005   0.00008  -1.26132
   X39        0.25299   0.00000   0.00000  -0.00000  -0.00001   0.25298
   Y39       -5.71008  -0.00000   0.00000  -0.00004  -0.00006  -5.71014
   Z39       -3.07396  -0.00000   0.00000   0.00006   0.00010  -3.07386
   X40        2.60355   0.00000   0.00000  -0.00001  -0.00002   2.60353
   Y40       -4.85048   0.00000   0.00000  -0.00006  -0.00007  -4.85055
   Z40       -2.22992  -0.00000   0.00000   0.00010   0.00015  -2.22977
   X41        4.72359   0.00001   0.00000  -0.00002  -0.00004   4.72355
   Y41        2.68431  -0.00002   0.00000  -0.00006  -0.00006   2.68425
   Z41        0.97833  -0.00000   0.00000   0.00009   0.00011   0.97844
   X42        4.39827  -0.00000   0.00000  -0.00008  -0.00011   4.39816
   Y42        1.39562  -0.00000   0.00000  -0.00002  -0.00001   1.39561
   Z42        3.20531  -0.00000   0.00000   0.00009   0.00012   3.20542
   X43        2.51155   0.00001   0.00000  -0.00008  -0.00012   2.51143
   Y43        2.21731  -0.00000   0.00000   0.00001   0.00004   2.21735
   Z43        5.00047  -0.00000   0.00000   0.00008   0.00009   5.00055
   X44        1.35428  -0.00000   0.00000  -0.00011  -0.00016   1.35411
   Y44       -0.00053   0.00000   0.00000   0.00002   0.00006  -0.00047
   Z44        6.11267   0.00000   0.00000   0.00008   0.00010   6.11277
   X45       -1.21592   0.00000   0.00000  -0.00013  -0.00018  -1.21610
   Y45       -0.00058  -0.00000   0.00000   0.00003   0.00008  -0.00050
   Z45        6.69430   0.00000   0.00000   0.00003   0.00003   6.69433
   X46       -2.74362  -0.00000   0.00000  -0.00014  -0.00020  -2.74382
   Y46       -2.21617  -0.00000   0.00000   0.00004   0.00008  -2.21608
   Z46        6.17328  -0.00000   0.00000   0.00002   0.00002   6.17329
   X47       -5.29845   0.00000   0.00000  -0.00008  -0.00012  -5.29858
   Y47       -4.90481  -0.00000   0.00000   0.00004   0.00007  -4.90474
   Z47        2.28250   0.00000   0.00000  -0.00002  -0.00002   2.28248
   X48       -6.45247  -0.00000   0.00000  -0.00009  -0.00014  -6.45261
   Y48       -2.68596  -0.00000   0.00000   0.00005   0.00009  -2.68587
   Z48        3.39884   0.00000   0.00000  -0.00004  -0.00006   3.39877
   X49       -5.19962   0.00000   0.00000  -0.00012  -0.00017  -5.19979
   Y49       -1.36939  -0.00000   0.00000   0.00005   0.00010  -1.36929
   Z49        5.30549   0.00000   0.00000  -0.00003  -0.00005   5.30544
   X50       -5.19963   0.00000   0.00000  -0.00010  -0.00015  -5.19977
   Y50        1.36846   0.00000   0.00000   0.00005   0.00010   1.36856
   Z50        5.30572   0.00000   0.00000  -0.00004  -0.00007   5.30565
   X51       -2.74363  -0.00000   0.00000  -0.00012  -0.00016  -2.74379
   Y51        2.21510   0.00000   0.00000   0.00004   0.00009   2.21518
   Z51        6.17366  -0.00000   0.00000  -0.00000  -0.00003   6.17363
   X52       -1.63418   0.00000   0.00000  -0.00008  -0.00012  -1.63430
   Y52        4.34720  -0.00000   0.00000   0.00002   0.00006   4.34726
   Z52        5.10133  -0.00000   0.00000  -0.00000  -0.00003   5.10130
   X53        1.04139  -0.00000   0.00000  -0.00007  -0.00010   1.04129
   Y53        4.35626   0.00000   0.00000   0.00002   0.00005   4.35631
   Z53        4.52048   0.00000   0.00000   0.00006   0.00005   4.52053
   X54        1.38906  -0.00001   0.00000  -0.00004  -0.00005   1.38901
   Y54        5.70738  -0.00000   0.00000  -0.00002  -0.00000   5.70738
   Z54        2.18690   0.00000   0.00000   0.00004   0.00003   2.18693
   X55        3.17748   0.00000   0.00000   0.00001   0.00001   3.17749
   Y55        4.84321   0.00001   0.00000   0.00000   0.00000   4.84322
   Z55        0.44684  -0.00001   0.00000   0.00007   0.00007   0.44691
   X56        3.80284  -0.00001   0.00000  -0.00001  -0.00001   3.80283
   Y56       -2.69405  -0.00001   0.00000  -0.00007  -0.00009  -2.69414
   Z56       -3.35397   0.00000   0.00000   0.00011   0.00016  -3.35381
   X57        3.80285  -0.00001   0.00000   0.00001   0.00002   3.80287
   Y57        2.69466   0.00001   0.00000  -0.00002  -0.00004   2.69462
   Z57       -3.35350   0.00000   0.00000   0.00010   0.00011  -3.35339
   X58        1.04141  -0.00000   0.00000  -0.00012  -0.00017   1.04123
   Y58       -4.35703  -0.00001   0.00000   0.00000   0.00003  -4.35700
   Z58        4.51973   0.00000   0.00000   0.00009   0.00013   4.51986
   X59        5.67381   0.00000   0.00000  -0.00003  -0.00004   5.67377
   Y59       -1.51443   0.00000   0.00000  -0.00003  -0.00005  -1.51448
   Z59       -1.48911   0.00000   0.00000   0.00012   0.00017  -1.48894
   X60        5.67381  -0.00000   0.00000  -0.00002  -0.00002   5.67379
   Y60        1.51472  -0.00000   0.00000  -0.00005  -0.00007   1.51465
   Z60       -1.48885   0.00000   0.00000   0.00011   0.00014  -1.48871
   X61       10.24045   0.00001   0.00000   0.00014   0.00013  10.24058
   Y61        1.27251   0.00002   0.00000   0.00005   0.00003   1.27254
   Z61       -0.17483  -0.00002   0.00000  -0.00016  -0.00010  -0.17493
   X62       10.24046   0.00000   0.00000   0.00012   0.00010  10.24056
   Y62       -1.27264  -0.00001   0.00000   0.00003   0.00001  -1.27263
   Z62       -0.17510   0.00001   0.00000  -0.00011  -0.00003  -0.17513
   X63       11.72927  -0.00001   0.00000   0.00003   0.00002  11.72929
   Y63        2.97397  -0.00000   0.00000   0.00000  -0.00002   2.97395
   Z63        1.54541   0.00001   0.00000  -0.00003   0.00004   1.54545
   X64       12.92757  -0.00000   0.00000  -0.00249  -0.00249  12.92508
   Y64        4.28151   0.00000   0.00000   0.00227   0.00224   4.28375
   Z64        0.46765  -0.00001   0.00000  -0.00009  -0.00003   0.46762
   X65       10.45391   0.00000   0.00000  -0.00002  -0.00004  10.45387
   Y65        4.14014  -0.00001   0.00000  -0.00242  -0.00243   4.13771
   Z65        2.70102  -0.00000   0.00000   0.00237   0.00242   2.70345
   X66       12.94345   0.00000   0.00000   0.00243   0.00240  12.94585
   Y66        1.91589  -0.00000   0.00000   0.00004   0.00003   1.91591
   Z66        2.83463  -0.00000   0.00000  -0.00225  -0.00217   2.83246
   X67       11.72872  -0.00002   0.00000   0.00057   0.00053  11.72925
   Y67       -2.97431  -0.00000   0.00000  -0.00000  -0.00002  -2.97433
   Z67        1.54543   0.00001   0.00000  -0.00054  -0.00044   1.54499
   X68       12.94513   0.00000   0.00000   0.00073   0.00069  12.94582
   Y68       -1.91641   0.00000   0.00000  -0.00008  -0.00010  -1.91650
   Z68        2.83269   0.00000   0.00000  -0.00062  -0.00052   2.83217
   X69       10.45286   0.00001   0.00000   0.00101   0.00096  10.45382
   Y69       -4.13784   0.00000   0.00000  -0.00040  -0.00041  -4.13825
   Z69        2.70323  -0.00000   0.00000  -0.00052  -0.00043   2.70280
   X70       12.92447   0.00001   0.00000   0.00059   0.00056  12.92503
   Y70       -4.28435   0.00000   0.00000   0.00041   0.00038  -4.28397
   Z70        0.46793  -0.00001   0.00000  -0.00108  -0.00097   0.46696
   X71        8.41871  -0.00002   0.00000  -0.00008  -0.00009   8.41862
   Y71       -2.49881   0.00001   0.00000  -0.00005  -0.00008  -2.49889
   Z71       -1.98758  -0.00000   0.00000   0.00010   0.00018  -1.98740
   X72        8.92037   0.00000   0.00000  -0.00008  -0.00007   8.92030
   Y72       -2.08007  -0.00000   0.00000  -0.00026  -0.00030  -2.08036
   Z72       -3.95677   0.00000   0.00000   0.00006   0.00014  -3.95663
   X73        8.41465   0.00000   0.00000  -0.00006  -0.00008   8.41457
   Y73       -4.56086  -0.00001   0.00000  -0.00006  -0.00008  -4.56094
   Z73       -1.78847   0.00000   0.00000   0.00027   0.00035  -1.78812
   X74        8.41870  -0.00000   0.00000  -0.00005  -0.00005   8.41865
   Y74        2.49911  -0.00000   0.00000   0.00001  -0.00001   2.49910
   Z74       -1.98709   0.00000   0.00000   0.00003   0.00008  -1.98702
   X75        8.41474   0.00000   0.00000  -0.00013  -0.00012   8.41462
   Y75        4.56113   0.00000   0.00000   0.00002  -0.00000   4.56112
   Z75       -1.78756   0.00000   0.00000   0.00012   0.00015  -1.78741
   X76        8.92048   0.00000   0.00000  -0.00016  -0.00015   8.92033
   Y76        2.08083  -0.00000   0.00000   0.00009   0.00005   2.08087
   Z76       -3.95635  -0.00000   0.00000  -0.00001   0.00004  -3.95631
         Item               Value     Threshold  Converged?
 Maximum Force            0.000023     0.000450     YES
 RMS     Force            0.000005     0.000300     YES
 Maximum Displacement     0.002490     0.001800     NO 
 RMS     Displacement     0.000414     0.001200     YES
 Predicted change in Energy=-2.469492D-08
 GradGradGradGradGradGradGradGradGradGradGradGradGradGradGradGradGradGrad

 Leave Link  103 at Fri May 31 12:09:52 2024, MaxMem=   104857600 cpu:               0.1 elap:               5.3
 (Enter /mlatom/software/Gaussian/g16-avx2/l9999.exe)
 1\1\GINC-B003\Freq\RExternal='/mlatom/software/miniconda3/bin/python /
 mlatom/software/mlatom/mlatom/\ZDO\C66H10\UNKNOWN\31-May-2024\0\\#p fr
 eq external='/mlatom/software/miniconda3/bin/python /mlatom/software/m
 latom/mlatom/interfaces/gaussian_interface.py model_predict_kwargs'\\1
 279dcb9-7814-4b80-89bc-e6a67e2e93d4\\0,1\C,-1.9612415976,2.3010491319,
 -2.3684452112\C,-0.5450296385,2.3055715061,-2.6735750428\C,0.059272780
 3,1.1734917257,-3.224375433\C,-0.7414099329,0.0003076878,-3.5074014844
 \C,-2.1069757908,0.0002814656,-3.2267459083\C,-2.7299663132,1.17261442
 59,-2.642284215\C,-2.1553887004,3.0271283883,-1.1281385249\C,-0.855410
 9428,3.47382822,-0.6669037397\C,0.1338690921,3.0219385569,-1.626144798
 3\C,1.3777376599,2.566983347,-1.179581381\C,1.3597147875,0.7392619171,
 -2.7681008144\C,0.0592769119,-1.1729231575,-3.2245801191\C,-0.54502244
 6,-2.3051001542,-2.6739768042\C,-1.9612343735,-2.3006348408,-2.3688459
 872\C,-2.7299632493,-1.1721552394,-2.6424889214\C,-3.7239261165,-0.724
 2748016,-1.6874394517\C,-3.7239278719,0.724564182,-1.6873127705\C,-3.9
 105315337,1.421256949,-0.4945686746\C,-3.1102091161,2.5954192104,-0.20
 90881176\C,-0.5617592466,3.4736713601,0.6932192581\C,-1.5545348665,3.0
 268246098,1.6505540557\C,-2.8038274642,2.5953000617,1.2082992967\C,-3.
 4145052575,1.421030805,1.7988346389\C,-4.1003628071,0.6964073286,0.746
 7934507\C,-4.1003604599,-0.6965427187,0.7466720087\C,-3.9105280247,-1.
 4211757567,-0.4948164617\C,-3.1102018203,-2.5953851551,-0.2095401208\C
 ,-2.1553796961,-3.0269304694,-1.1286649011\C,1.3597163685,-0.738768141
 4,-2.7682311871\C,0.7350707659,-3.0204134301,1.1567350828\C,1.68145537
 82,-2.5629434031,0.2360143533\C,2.4996261863,-1.4205535759,0.517465980
 1\C,2.3274590786,-0.7388108727,1.6960433342\C,1.3290565523,-1.17380349
 83,2.6459325619\C,-0.8647653906,-2.3009042494,2.6991065793\C,-1.554525
 1499,-3.0271079555,1.6500266157\C,-0.561748292,-3.4737859098,0.6926155
 304\C,-0.855402246,-3.4737095767,-0.6675080039\C,0.1338764351,-3.02164
 6567,-1.6266675798\C,1.3777410687,-2.566763585,-1.1800208106\C,2.49961
 66639,1.420476752,0.5177110679\C,2.3274640914,0.7385312181,1.696174610
 6\C,1.3290532176,1.1733481927,2.6461338073\C,0.7166527671,-0.000279552
 2,3.2346881417\C,-0.6434355411,-0.0003057413,3.5424707916\C,-1.4518630
 593,-1.1727456104,3.2667573565\C,-2.8038201699,-2.5955122685,1.2078469
 582\C,-3.4145004546,-1.4213473914,1.7985868484\C,-2.7515229883,-0.7246
 480089,2.8075420403\C,-2.7515246762,0.7241575627,2.8076672679\C,-1.451
 8661634,1.1721787091,3.2669608365\C,-0.8647703764,2.3004375573,2.69950
 54826\C,0.5510811456,2.3052332434,2.3921355307\C,0.7350608529,3.020215
 6718,1.1572589664\C,1.6814515768,2.5629175754,0.2364568367\C,2.0123760
 258,-1.4256287038,-1.7748418544\C,2.0123800105,1.4259547537,-1.7745983
 38\C,0.5510881152,-2.3056430209,2.3917372039\C,3.0024495751,-0.8014028
 726,-0.7880049672\C,3.0024522287,0.8015542695,-0.7878641881\C,5.419010
 6457,0.6733830744,-0.0925164448\C,5.4190166877,-0.673451032,-0.0926585
 047\C,6.206862957,1.5737559978,0.8177962601\H,6.8409766455,2.265678253
 9,0.2474684404\H,5.5319725085,2.1908680843,1.429318752\H,6.8493788853,
 1.0138434493,1.5000242198\C,6.206570445,-1.5739356428,0.8178082895\H,6
 .850269088,-1.0141191488,1.4989928445\H,5.5314155403,-2.1896498231,1.4
 304896526\H,6.8393349592,-2.2671815991,0.2476173672\C,4.4549894875,-1.
 3223138833,-1.0517808767\H,4.7204591611,-1.1007240302,-2.0938335688\H,
 4.4528393499,-2.4135016447,-0.9464170165\C,4.4549839933,1.322474104,-1
 .0515246124\H,4.452889715,2.4136434779,-0.945938579\H,4.7205134763,1.1
 011263322,-2.0936108701\\Version=ES64L-G16RevA.03\HF=-2521.2174949\RMS
 D=0.000e+00\RMSF=4.517e-06\ZeroPoint=0.5258424\Thermal=0.5537952\Dipol
 e=0.,0.,0.\PG=C01 [X(C66H10)]\NImag=0\\0.55785614,0.15822296,0.4783570
 8,-0.05427836,0.19063069,0.38656735,-0.22058120,-0.00020488,0.04313771
 ,0.57471776,-0.00886950,-0.08064944,-0.02454704,-0.06594265,0.47747594
 ,0.02169704,-0.02607341,-0.07612132,-0.02014968,0.24132822,0.38058531,
 -0.01439176,0.02454776,0.01982462,-0.15914926,0.07476551,0.02568679,0.
 54880816,0.04255116,0.00319550,-0.00629423,0.07763448,-0.23541735,-0.1
 0241015,-0.08369338,0.62719971,0.02040986,0.00487440,-0.00273371,0.022
 90837,-0.09648093,-0.09301249,0.05372749,0.14822064,0.23918508,-0.0232
 9362,-0.00756491,0.00293670,0.03339949,-0.00938453,-0.00263016,-0.1370
 2598,-0.04353537,-0.01661514,0.68801302,-0.01561290,-0.00932962,0.0022
 7907,0.00771581,-0.04049604,-0.02082612,-0.06568283,-0.18248928,-0.036
 00894,0.00000237,0.54260832,0.00140262,-0.00321057,0.00061423,0.002612
 17,-0.00981455,-0.00669289,-0.01491086,-0.02329259,-0.05629887,-0.0206
 5408,0.00003158,0.18154341,0.02740141,0.00516071,-0.01220718,-0.021476
 91,0.00518636,0.00632824,-0.03602191,-0.03559928,-0.01080353,-0.316514
 64,-0.00000498,0.05535384,0.62841314,-0.01711498,-0.04202302,-0.016554
 39,0.01621413,-0.00655855,-0.00401327,-0.02114080,0.01860470,0.0026053
 1,-0.00000535,-0.12242454,-0.00000600,0.00001587,0.53046906,-0.0176253
 4,-0.01226591,-0.00001118,0.00849505,-0.00545231,-0.00142925,0.0065095
 5,0.00952746,0.00144185,0.05863217,-0.00000604,-0.05254221,-0.17947568
 ,0.00002390,0.25315467,-0.16836098,-0.11239183,0.00494758,-0.02784718,
 -0.01915211,-0.00949923,-0.00043866,0.00052922,0.00300042,-0.02614944,
 0.02264130,0.00607651,-0.11176184,0.04410187,0.04010315,0.45661020,-0.
 11434015,-0.24001200,-0.06482778,-0.04290534,0.00142340,0.01183696,-0.
 00701518,-0.02450947,-0.01040483,0.03776452,0.01888257,-0.00541122,0.0
 2947739,-0.17748590,-0.03846109,0.13980815,0.62584776,0.00686986,-0.06
 165348,-0.08763977,-0.01068415,0.01315336,0.01029467,-0.00471153,-0.01
 211333,-0.00294853,0.02148137,-0.00522670,-0.00617790,0.04236697,-0.05
 601492,-0.08095298,-0.14230463,0.09957564,0.33442876,-0.09459859,-0.01
 415779,0.01543018,-0.02132311,0.01740873,0.02650874,-0.00392040,-0.002
 80646,0.00006707,-0.00077946,0.00039493,-0.00071302,0.00000665,-0.0018
 2482,0.00154907,0.01623010,-0.00639212,-0.01886593,0.57295269,-0.00285
 943,-0.10195909,-0.07166512,0.01484910,0.00144594,-0.00795766,-0.00153
 985,0.00710458,0.00011055,-0.00313737,-0.00088336,0.00198141,-0.002725
 52,-0.00286776,-0.00383052,-0.00798372,-0.02784552,-0.01263797,0.14667
 903,0.28268927,0.03509353,-0.07173031,-0.17616346,0.03579629,-0.013584
 39,-0.02034892,-0.00230133,0.00872725,0.00470687,-0.00119990,-0.002828
 47,0.00061025,-0.00225142,0.00029126,0.00089746,-0.02942049,-0.0324334
 9,-0.00265684,-0.12778221,0.07629903,0.56261629,-0.00292003,-0.0190582
 0,-0.02637821,0.01315795,0.00609475,0.01044175,0.00369067,-0.00775929,
 -0.00330946,0.00247288,-0.00085338,-0.00052557,0.00230784,0.00077905,-
 0.00042533,0.00740153,0.00889250,0.00079718,-0.19558185,-0.05182536,-0
 .04013148,0.53424162,-0.01194810,-0.01060608,-0.01832222,0.00279098,-0
 .01072931,-0.02274286,-0.00522122,0.00401248,-0.00246786,-0.00005517,-
 0.00209901,-0.00024497,-0.00041523,-0.00152926,0.00024693,0.00325038,0
 .00337287,-0.00459095,-0.03829788,-0.06622932,-0.02414183,0.02009041,0
 .19725394,-0.02432968,-0.02664659,-0.02688901,0.00666558,-0.03243376,-
 0.04256326,-0.00860895,0.00482186,0.00142898,-0.00134706,-0.00097203,-
 0.00036233,-0.00016626,-0.00127533,-0.00041229,0.00556507,0.00077059,-
 0.00286345,-0.02314948,-0.02221531,-0.11017039,0.03357913,0.08879191,0
 .68369639,-0.04554158,-0.02176472,-0.01693532,-0.13048244,-0.01908474,
 -0.04458771,0.03022097,-0.00773237,0.00239740,0.00031684,0.00187060,-0
 .00087523,0.00014771,-0.00175569,0.00070591,-0.00227732,0.00674253,0.0
 0421422,-0.05566850,-0.00480634,0.01414456,-0.15809369,0.02630865,0.04
 501501,0.66046768,-0.01666421,0.00185406,-0.00148773,-0.02928804,-0.10
 727887,-0.07360508,0.00378470,-0.02873962,-0.01535195,0.00111524,-0.00
 224868,-0.00439222,0.00332868,-0.00145001,-0.00020064,0.00089645,0.007
 58571,0.00054328,0.00660615,0.00757398,0.00191911,0.03945105,-0.066338
 28,-0.04289754,-0.10333202,0.28936413,-0.02521842,-0.00576928,0.004011
 34,-0.06252019,-0.07952314,-0.15381919,0.01626812,-0.03307594,-0.01750
 113,0.00190181,-0.00076267,0.00048037,0.00133852,-0.00276891,-0.000849
 11,0.00480176,0.00713793,0.00329170,0.01488397,0.00384447,0.00833172,0
 .05950537,-0.03726101,-0.14876516,0.08654843,0.13823999,0.47782111,0.0
 1065577,0.00048716,-0.00298164,-0.02687150,-0.02216240,-0.03294692,-0.
 01931907,0.01159915,-0.00225215,-0.00011252,0.00255285,0.00189595,-0.0
 0069847,0.00197282,0.00035870,-0.00144291,-0.00575134,-0.00350208,0.00
 784436,0.00467865,0.00418354,-0.03881388,0.01368370,0.02027369,-0.2596
 7559,0.08254240,-0.06829951,0.52219868,-0.00769064,0.00040855,-0.00227
 472,-0.00012414,0.01632391,0.01808468,0.01939617,-0.01159810,-0.000840
 51,-0.00078653,-0.00177616,-0.00017111,0.00052630,-0.00151129,-0.00167
 933,0.00072809,0.00222759,0.00206494,-0.00322587,0.00027582,-0.0035466
 4,0.02126802,-0.00529577,0.00304373,0.08710456,-0.09012294,-0.00779638
 ,-0.21286216,0.36436635,0.00125051,-0.00318786,-0.00264664,-0.02975579
 ,0.00771994,-0.00500461,0.00458349,-0.00539785,-0.00206209,-0.00198356
 ,-0.00082047,-0.00002227,0.00158194,0.00085559,-0.00060926,0.00013443,
 0.00105056,0.00023430,0.00740964,-0.00038666,-0.00030623,0.00505203,0.
 00652415,0.03025608,-0.07608911,-0.00434189,-0.13103913,0.12089848,0.0
 7102592,0.53389961,0.00052829,0.00299205,-0.00106310,-0.01348156,0.041
 56010,0.02328567,-0.19201553,0.03253966,-0.05148868,-0.04453667,-0.021
 08296,-0.01344286,0.01090601,-0.00670594,-0.00547381,-0.00019119,0.003
 54078,0.00355768,-0.00117902,0.00084026,0.00113578,-0.00294615,0.00088
 547,0.00165624,-0.02102343,-0.00388052,-0.02013677,0.02341844,-0.03061
 680,-0.00811881,0.47986409,0.00060400,-0.00183218,-0.00235411,0.029940
 45,-0.00814469,0.00327761,0.06148991,-0.10416184,0.00325237,-0.0208666
 5,0.00462986,-0.00455091,-0.00299033,-0.00355087,-0.00034365,0.0000499
 0,-0.00170620,-0.00041270,0.00089441,-0.00000244,0.00168618,0.00140977
 ,-0.00036536,-0.00259369,-0.00278884,-0.00341168,-0.00066040,-0.001344
 07,-0.02580893,-0.03529538,0.01606378,0.54755396,0.00301670,-0.0018457
 7,0.00086862,0.00528589,0.01873247,0.01062149,-0.05354112,-0.00352896,
 -0.07155285,-0.02193069,-0.00785760,-0.00123149,0.00460563,-0.00201428
 ,0.00106140,-0.00212112,-0.00017080,0.00052133,0.00090912,0.00052927,0
 .00121930,-0.00212072,0.00238808,0.00048880,-0.01634295,-0.00667051,-0
 .01390739,0.02197507,-0.04215326,-0.02542177,0.22782046,0.13693962,0.3
 8632262,-0.00230733,-0.00339646,0.00021118,0.00276117,-0.00645316,-0.0
 0378466,0.01237051,0.00302677,0.00002328,-0.13702619,0.06568506,-0.014
 89935,-0.03602181,0.02113946,0.00651326,-0.00293171,-0.00038262,0.0000
 2853,0.00084621,0.00192377,0.00126382,-0.00130078,-0.00187356,-0.00167
 969,0.00037419,-0.00027259,0.00034723,0.00331162,-0.00116992,0.0011493
 0,-0.01273468,-0.02971408,-0.00688268,0.54880923,0.00113511,0.00159304
 ,-0.00156669,-0.00756251,0.00307823,0.00268805,-0.00302666,-0.06266095
 ,-0.00474374,0.04353802,-0.18249863,0.02327037,0.03560087,0.01860706,-
 0.00952446,0.00129213,0.00107097,0.00267525,0.00147340,-0.00146632,-0.
 00135791,-0.00035993,0.00038988,0.00008330,-0.00125390,0.00041968,-0.0
 0055814,0.00086039,-0.00298705,-0.00293129,-0.02433565,-0.03180818,-0.
 01172495,0.08368557,0.62725127,-0.00003970,0.00134321,0.00029800,0.000
 03026,-0.00407987,0.00124560,0.00002283,0.00473185,0.00501337,-0.01660
 749,0.03598659,-0.05628852,-0.01079726,-0.00260238,0.00143968,0.003905
 39,-0.00359856,0.00105795,0.00031700,-0.00030661,-0.00010711,-0.000404
 75,-0.00038892,-0.00016626,0.00094457,0.00060957,-0.00030901,0.0016738
 9,-0.00017149,-0.00034076,-0.00364076,-0.00762878,0.00337215,0.0537428
 5,-0.14815252,0.23913419,-0.00247558,-0.00165700,-0.00030893,0.0038272
 7,-0.00228478,-0.00072077,0.00276116,0.00756250,0.00003158,0.03339954,
 -0.00771608,0.00261077,-0.02147683,-0.01621560,0.00849221,-0.00152269,
 0.00280795,0.00156325,-0.00018089,-0.00024906,0.00008538,0.00005351,-0
 .00031141,-0.00025445,0.00023730,0.00078521,0.00057583,0.00002150,0.00
 020485,0.00012585,-0.00498049,0.00106204,-0.00171464,-0.15914874,-0.07
 763850,0.02289464,0.57471657,0.00006687,0.00076480,0.00117886,0.002284
 92,-0.00362514,-0.00142765,0.00645388,0.00307806,0.00408024,0.00938525
 ,-0.04050140,0.00980867,-0.00518744,-0.00656032,0.00545147,-0.00260760
 ,0.00081834,-0.00082054,-0.00079960,0.00051747,0.00012735,0.00019591,0
 .00074011,0.00071556,0.00092707,-0.00056606,0.00016910,-0.00025646,0.0
 0109187,0.00064895,-0.00140476,0.00894904,0.00076599,-0.07477029,-0.23
 545282,0.09645635,0.06594776,0.47755998,0.00110640,-0.00072286,-0.0005
 3461,-0.00072037,0.00142704,-0.00013155,-0.00378354,-0.00268773,0.0012
 4582,-0.00262871,0.02082027,-0.00668755,0.00632725,0.00401246,-0.00142
 762,0.00063845,0.00096022,-0.00008338,0.00007658,-0.00018254,-0.000096
 37,-0.00004294,-0.00039209,-0.00032897,-0.00001323,0.00048894,0.000326
 39,-0.00007294,-0.00015943,-0.00003702,-0.00253434,-0.00614337,0.00143
 518,0.02567377,0.10238569,-0.09297791,-0.02013812,-0.24131018,0.380500
 70,0.00421174,0.00342636,-0.00139121,-0.00247559,-0.00006706,0.0011064
 0,-0.00230732,-0.00113510,-0.00003991,-0.02329371,0.01561260,0.0014053
 5,0.02740134,0.01711823,-0.01762236,0.00329734,-0.01084174,-0.00085528
 ,0.00007323,-0.00044060,-0.00044779,0.00002556,0.00020691,0.00012570,-
 0.00005543,0.00015838,0.00000886,0.00004205,-0.00000883,0.00010937,-0.
 00146880,-0.00115112,0.00004233,-0.01439171,-0.04255495,0.02040251,-0.
 22058113,0.00886545,0.02169840,0.55785710,-0.00342608,-0.00409736,0.00
 052617,0.00165703,0.00076489,0.00072311,0.00339642,0.00159304,-0.00134
 299,0.00756427,-0.00932975,0.00320883,-0.00515832,-0.04202792,0.012258
 52,-0.00419635,0.00482725,0.00566348,-0.00043070,-0.00036901,0.0006227
 3,-0.00002578,0.00084474,0.00083927,0.00072587,0.00041688,-0.00022636,
 -0.00031733,-0.00002402,-0.00009699,-0.00249654,0.00138695,0.00014452,
 -0.02455124,0.00319503,-0.00487329,0.00019691,-0.08065811,0.02607265,-
 0.15821335,0.47842199,-0.00139181,-0.00052689,-0.00004883,-0.00030864,
 -0.00117865,-0.00053469,0.00021175,0.00156689,0.00029804,0.00293809,-0
 .00228075,0.00061437,-0.01220814,0.01654695,-0.00000613,0.00312362,0.0
 0147065,-0.00031528,0.00012862,0.00073665,0.00058857,-0.00016931,-0.00
 053211,-0.00039793,-0.00003023,-0.00030524,-0.00009303,-0.00000985,-0.
 00025731,-0.00010675,0.00137672,-0.00068848,-0.00043312,0.01982028,0.0
 0629534,-0.00273349,0.04313768,0.02454633,-0.07611258,-0.05430517,-0.1
 9061400,0.38650009,0.00329730,0.00419581,0.00312437,-0.00152268,0.0026
 0747,0.00063889,-0.00293166,-0.00129281,0.00390519,-0.02614928,-0.0226
 4251,0.00607256,-0.11176166,-0.04410869,0.04009533,0.01017750,0.001834
 29,-0.00386265,0.00082620,0.00093606,-0.00034632,-0.00107555,0.0010708
 6,0.00165874,0.00047869,-0.00167979,-0.00133178,-0.00009016,-0.0000000
 8,-0.00001517,-0.00148348,-0.00242955,0.00062214,-0.00043863,-0.000529
 61,0.00300024,-0.02784740,0.01915358,-0.00949584,-0.16836172,0.1123911
 8,0.00496698,0.45661351,0.01084189,0.00482857,-0.00146971,-0.00280822,
 0.00081834,-0.00096009,0.00038264,0.00107084,0.00359863,-0.03776831,0.
 01888053,0.00541559,-0.02948478,-0.17750274,0.03844440,-0.00183343,-0.
 05897874,-0.00453814,0.00007650,-0.00031825,-0.00120165,0.00120512,0.0
 0074725,-0.00018573,-0.00207209,-0.00131670,-0.00030484,0.00063122,-0.
 00000868,0.00011849,-0.00164244,0.00045413,-0.00104486,0.00701604,-0.0
 2451341,0.01040109,0.04290704,0.00142795,-0.01183850,0.11433917,-0.240
 03327,0.06480126,-0.13978380,0.62588155,-0.00085336,-0.00566256,-0.000
 31652,0.00156276,0.00082070,-0.00008340,0.00002859,-0.00267525,0.00105
 810,0.02147472,0.00523117,-0.00617603,0.04236177,0.05599827,-0.0809365
 1,-0.00386300,0.00452644,0.00783979,-0.00215853,-0.00125348,0.00019661
 ,0.00147313,-0.00044998,-0.00101899,-0.00094426,0.00026624,0.00072859,
 0.00038645,0.00007670,0.00015417,0.00119619,0.00068441,-0.00019653,-0.
 00471038,0.01210953,-0.00294464,-0.01067657,-0.01315494,0.01029036,0.0
 0688949,0.06162696,-0.08761779,-0.14232893,-0.09952521,0.33439395,-0.0
 0172718,-0.00036770,0.00470020,-0.00093183,-0.00119952,-0.00128910,-0.
 00010255,-0.00074683,-0.00147220,0.00883861,-0.00439360,0.00181044,-0.
 02444361,-0.01646013,0.02425612,-0.00449807,-0.02030405,0.00574500,0.0
 0010830,0.00116801,-0.00052326,0.00012263,-0.00121058,-0.00125837,-0.0
 0076231,0.00096716,0.00147023,0.00054457,0.00005256,0.00066650,0.00138
 682,0.00018028,-0.00005348,-0.00016614,0.00292371,-0.00267340,-0.00092
 489,0.00417351,0.00219894,-0.02021737,0.02938314,-0.00957547,-0.130359
 62,0.02913654,0.07698754,0.28793177,0.00409452,0.01073910,0.00652246,-
 0.00078829,0.00177534,0.00060676,-0.00212729,0.00076349,0.00009453,-0.
 00425083,-0.00347867,0.00160435,-0.01526810,0.00630639,0.01136860,-0.0
 2826996,-0.03428748,0.02282518,0.00044002,-0.00011251,-0.00455412,-0.0
 0192618,-0.00150190,-0.00026965,0.00142328,0.00059867,-0.00033891,0.00
 026758,0.00014580,0.00061405,0.00022121,-0.00277270,-0.00003568,-0.000
 11248,-0.00218577,0.00071532,0.00166959,-0.00227510,0.00168282,0.02791
 155,-0.01241822,-0.01274126,0.04642597,-0.10741486,-0.02266245,-0.0382
 8054,0.56915718,0.00320721,-0.00123579,-0.00100072,0.00056502,0.000556
 26,0.00000752,-0.00091077,0.00144703,0.00063302,-0.00747425,0.00359585
 ,0.00231815,0.03300549,0.01664585,-0.02201427,0.01132141,0.02543561,-0
 .00212401,0.00201364,0.00132390,-0.00126770,-0.00120106,0.00008402,0.0
 0121386,0.00141762,-0.00056729,-0.00107842,-0.00036971,-0.00002846,-0.
 00025663,-0.00054316,-0.00004240,0.00021939,0.00241528,-0.00099276,0.0
 0065416,-0.00239842,0.00028567,0.00129612,0.00580715,-0.03010949,0.017
 76415,0.07993697,-0.00744298,-0.13425359,-0.18055196,-0.10810637,0.560
 93293,-0.02021710,-0.02938147,-0.00958067,-0.00092495,-0.00417393,0.00
 219824,-0.00016606,-0.00292325,-0.00267394,0.00883857,0.00439331,0.001
 81124,-0.02444369,0.01645581,0.02425897,-0.13035913,-0.02914994,0.0769
 8200,-0.00568617,0.00026602,0.01549502,-0.00159884,0.00050051,-0.00048
 592,-0.00066475,0.00032616,0.00028134,0.00030279,-0.00015973,-0.000842
 96,-0.00216255,0.00004509,0.00026757,-0.00010252,0.00074708,-0.0014720
 5,-0.00093184,0.00119975,-0.00128888,-0.00172714,0.00036685,0.00470026
 ,-0.00449821,0.02030310,0.00574863,-0.05959883,-0.00953533,0.02131972,
 0.28790021,-0.02791252,-0.01242587,0.01273591,-0.00166920,-0.00227480,
 -0.00168345,0.00011210,-0.00218583,-0.00071584,0.00425216,-0.00347771,
 -0.00160535,0.01526225,0.00631127,-0.01136356,-0.04643996,-0.10742036,
 0.02266732,-0.00148446,-0.00108981,0.00175744,-0.00082660,0.00057869,-
 0.00202904,-0.00108010,0.00003802,0.00222709,-0.00004110,-0.00016407,-
 0.00067646,-0.00014184,0.00217504,0.00026738,0.00212743,0.00076376,-0.
 00009451,0.00078816,0.00177554,-0.00060646,-0.00409515,0.01074002,-0.0
 0652037,0.02826815,-0.03427890,-0.02283085,0.00953196,-0.22356245,-0.0
 0707297,0.03831126,0.56911987,0.00580217,0.03010423,0.01777163,-0.0023
 9869,-0.00028629,0.00129578,0.00241526,0.00099228,0.00065423,-0.007473
 52,-0.00359688,0.00231724,0.03300820,-0.01664082,-0.02201915,0.0799284
 8,0.00744781,-0.13424815,0.00859231,-0.00749865,-0.02410507,0.00381241
 ,0.00276053,-0.00039243,0.00059730,0.00084667,0.00153425,-0.00092712,-
 0.00009227,0.00008799,0.00078136,0.00026626,0.00009465,-0.00091040,-0.
 00144700,0.00063275,0.00056515,-0.00055596,0.00000731,0.00320646,0.001
 23786,-0.00100163,0.01132638,-0.02544114,-0.00213243,0.02132140,0.0070
 4971,-0.09023173,-0.18054517,0.10810766,0.56097293,-0.00144565,-0.0096
 6523,-0.00392539,-0.00036041,0.00086420,-0.00081778,0.00010254,-0.0016
 9328,0.00003271,-0.00095918,0.00096887,0.00054997,-0.00073164,-0.00067
 789,0.00464066,-0.00296446,0.01246289,0.00866436,-0.02476376,-0.011231
 66,0.01647310,-0.00191729,-0.00444944,0.00198351,-0.00053867,-0.000471
 13,-0.00075788,0.00008918,0.00059302,0.00060694,0.00039806,0.00021004,
 -0.00019736,-0.00010040,-0.00042460,0.00029297,0.00089977,-0.00006912,
 -0.00017691,-0.00088630,0.00267157,-0.00140867,0.00312046,-0.00174532,
 0.00038156,0.00231557,0.00831299,-0.00911328,-0.06031707,-0.01012772,0
 .04580822,0.24423639,-0.00226955,-0.01854337,-0.01812811,-0.00416584,-
 0.00094035,0.00121931,-0.00048939,-0.00250620,-0.00080080,0.00545421,0
 .00306364,-0.00161221,-0.00638727,0.00553389,0.00557627,0.02200272,0.0
 2569493,-0.01053815,-0.02777579,-0.01194987,0.03041234,0.00051187,0.00
 073711,0.00221088,-0.00134651,-0.00029129,0.00046677,0.00072739,0.0005
 0362,0.00042090,0.00003027,-0.00034966,-0.00014478,-0.00073386,0.00078
 615,-0.00013442,0.00025504,-0.00083886,0.00009803,0.00104658,-0.001410
 49,-0.00061694,-0.00319610,-0.00408277,0.00136004,0.01139411,-0.021792
 82,-0.02509036,-0.00821713,-0.16739294,-0.09568114,0.12711659,0.511498
 27,-0.00045749,-0.00952206,-0.01103853,-0.00137123,-0.00234422,0.00029
 662,-0.00233631,-0.00060939,-0.00018184,0.00408542,0.00108142,-0.00226
 802,-0.00187200,0.00874335,0.00294450,0.02809192,-0.00163250,-0.036728
 34,0.00987212,0.01534009,0.02229500,0.00271273,-0.00028925,-0.00103466
 ,-0.00003554,0.00203209,0.00152155,0.00050434,-0.00015580,-0.00021197,
 -0.00053681,-0.00026864,0.00015625,0.00048896,0.00024984,-0.00032706,-
 0.00053715,-0.00022344,0.00018332,0.00088012,-0.00651530,0.00262902,-0
 .00761578,0.00586061,0.00903243,-0.00293464,-0.04725613,0.00524746,0.0
 4952557,-0.09768662,-0.26661918,-0.04709667,0.08963675,0.66116703,0.00
 078497,0.02305032,0.03086259,0.00969667,-0.00168923,-0.00230990,0.0000
 2349,0.00533072,0.00331388,-0.00123266,-0.00157971,-0.00012785,0.00021
 151,-0.00350116,-0.00269528,-0.01639884,-0.01142176,0.01075319,-0.1948
 1991,-0.07962770,0.10106710,-0.03619228,-0.00818628,0.00816979,0.00107
 218,-0.00496050,-0.00500733,-0.00340366,0.00032032,-0.00109776,0.00074
 620,0.00025854,0.00062613,-0.00027669,-0.00046494,-0.00017649,-0.00013
 758,0.00028862,0.00003098,-0.00007637,0.00072200,0.00010684,0.00098063
 ,-0.00037232,-0.00102733,0.00157677,0.00268713,0.00020933,0.00797330,-
 0.00447617,-0.02743718,-0.10451324,-0.08241940,-0.00152276,0.43204165,
 0.00985696,0.01550707,0.01559142,0.00620420,0.00053633,-0.00573958,0.0
 0066188,0.00248187,0.00218252,-0.00221264,-0.00157538,-0.00060382,0.00
 068849,-0.00224914,-0.00036024,-0.01738453,-0.01147002,0.00568404,-0.0
 8272421,-0.08937138,0.03002567,-0.01769796,-0.00486836,0.00981587,0.00
 028623,0.00019704,-0.00401500,-0.00029854,-0.00035467,0.00052421,0.000
 09177,-0.00018402,-0.00013291,-0.00010904,0.00013196,0.00022126,-0.000
 72586,0.00040688,-0.00009956,0.00056691,0.00066183,-0.00024384,0.00041
 427,-0.00077164,-0.00006081,-0.00268354,-0.00111238,-0.00362173,0.0094
 8870,-0.01745627,-0.03772150,-0.07542183,-0.16334660,-0.01420623,0.218
 59333,0.37512448,0.02574881,-0.00311325,-0.03035456,-0.00560040,-0.002
 45392,-0.00219270,0.00081503,-0.00108870,-0.00119009,-0.00153532,0.001
 46175,0.00035997,0.00207109,0.00040416,0.00061816,0.00189203,0.0007767
 3,-0.00299428,0.10358293,0.02816965,-0.21064560,0.02856080,0.01315755,
 0.02751690,-0.01057096,0.00122522,0.00640656,0.00506526,0.00039067,0.0
 0443163,0.00046050,-0.00084847,-0.00049206,-0.00014426,0.00062248,0.00
 042488,-0.00068592,0.00027151,0.00005632,0.00062733,-0.00010900,-0.000
 32324,-0.00203690,-0.00155530,0.00052278,0.00113357,-0.00204657,-0.002
 76516,-0.01086441,-0.02941449,-0.00480032,-0.01285370,-0.03347511,-0.1
 0455768,-0.08428556,-0.03296063,0.60929275,-0.00486327,-0.00130854,-0.
 00205791,-0.00095583,0.00416179,0.00723451,0.00325270,-0.00302716,-0.0
 0202781,0.00034960,0.00104293,0.00058902,-0.00038599,-0.00085366,-0.00
 040224,0.00156801,0.00046125,-0.00129866,0.00413419,-0.00382105,-0.029
 87660,-0.13141657,-0.00101964,-0.04281630,0.02889978,-0.00335534,0.009
 57038,-0.01310135,0.00244198,-0.01680297,-0.00190630,-0.00115566,-0.00
 064478,-0.00006393,-0.00061152,-0.00029865,0.00002530,0.00000383,-0.00
 000316,0.00004006,-0.00015386,-0.00001171,0.00004166,0.00091836,0.0003
 4723,0.00042276,0.00035803,0.00023255,-0.00064809,0.00163667,0.0019708
 6,-0.00061184,-0.00253729,-0.00122448,-0.00423460,-0.00085226,0.013221
 88,0.53516579,-0.00129926,0.00151976,-0.00285715,0.00024335,0.00136891
 ,-0.00286029,0.00067637,-0.00055889,0.00071907,0.00025713,0.00026023,-
 0.00011620,-0.00034560,0.00044980,0.00019073,-0.00049582,-0.00113725,-
 0.00029991,0.00222838,-0.00165222,-0.00148470,-0.00012908,-0.03972215,
 0.00219899,-0.00212160,-0.00206871,-0.00087285,0.00495885,0.00004483,0
 .00137230,0.00056413,0.00006671,-0.00086665,0.00018070,0.00013416,0.00
 010079,-0.00000623,-0.00017141,0.00001167,0.00000844,-0.00018992,0.000
 00575,-0.00010409,0.00006325,0.00005710,0.00032131,0.00007488,-0.00007
 424,-0.00099648,-0.00005402,0.00055154,0.00112401,-0.00008556,0.000552
 39,-0.00373967,0.00051892,0.00480450,-0.01891806,0.19765243,-0.0007819
 3,0.00667953,0.01166443,0.00676590,0.00546224,0.00859625,0.00504741,-0
 .00241982,-0.00124655,0.00055054,-0.00038569,-0.00050517,-0.00067770,0
 .00038405,0.00018403,-0.00663521,-0.00441445,-0.00040576,-0.04558934,-
 0.01649735,-0.01813332,-0.04482872,-0.00183429,-0.32512584,0.02400516,
 -0.01686546,-0.04347159,-0.00898474,0.00051529,-0.01798251,-0.00172549
 ,0.00225770,-0.00049864,0.00032452,0.00111145,0.00044008,-0.00000798,-
 0.00034770,0.00001965,-0.00000764,-0.00033256,0.00001816,-0.00016911,0
 .00062374,0.00033958,0.00055180,0.00023982,-0.00027221,0.00208849,0.00
 159124,-0.00175781,0.00429460,0.00246653,-0.00071126,0.00163687,0.0018
 8458,-0.02757701,0.03408799,-0.08966246,0.68365836,-0.00146215,-0.0000
 8897,0.00341781,0.00153279,0.00142531,0.00115717,0.00076377,-0.0001262
 6,-0.00026861,0.00014395,-0.00029951,-0.00012708,-0.00024016,-0.000059
 31,0.00041034,-0.00204482,-0.00045887,0.00226661,-0.02346230,-0.010770
 02,0.00021246,0.02871146,0.00270498,0.02424496,0.00089195,-0.00228692,
 -0.00127313,-0.00006875,0.00119198,0.00120445,0.00004797,-0.00041462,-
 0.00040345,-0.00000601,0.00029321,0.00012680,-0.00004769,0.00004336,0.
 00001039,0.00009425,-0.00016305,-0.00007831,0.00001090,0.00064133,0.00
 020208,0.00000374,0.00029528,-0.00038325,0.00092339,-0.00041463,-0.006
 32413,0.00805931,0.00899348,0.00271524,-0.01220407,-0.00044484,-0.0463
 4532,-0.15745857,-0.02493718,0.04446641,0.66765833,-0.00003887,0.00067
 029,0.00318933,0.00006881,0.00008684,0.00099762,0.00018338,-0.00022374
 ,-0.00049138,0.00004886,-0.00015700,-0.00020341,-0.00022660,-0.0002249
 1,0.00022746,-0.00093730,-0.00067331,0.00008636,-0.01230986,-0.0036213
 6,-0.00111382,0.00334787,-0.00166502,0.01656137,0.00231213,0.00174381,
 -0.00163964,-0.00083414,0.00019718,0.00142571,-0.00012647,0.00034751,0
 .00035063,-0.00004194,-0.00003495,0.00000008,-0.00006011,0.00009641,0.
 00001164,0.00008851,-0.00015203,-0.00007212,0.00004692,0.00001920,-0.0
 0015091,-0.00000789,0.00099963,0.00000681,0.00121337,-0.00061758,-0.00
 434306,0.00124254,0.00482433,0.00288108,0.00526926,0.00488456,-0.01944
 536,-0.03802609,-0.06628777,0.04179247,0.10213148,0.28270787,-0.000201
 43,-0.00221488,-0.00039865,0.00245663,0.00038789,-0.00090297,-0.000962
 34,-0.00060724,-0.00021836,0.00010485,0.00109177,0.00035885,-0.0000171
 6,0.00013457,0.00070544,0.00090199,0.00235983,0.00020658,0.00890094,0.
 00611215,-0.00335294,0.00862005,0.00039821,-0.04265338,-0.00110913,0.0
 0167289,-0.00441817,-0.00249846,-0.00001240,-0.00234817,-0.00026306,0.
 00049029,-0.00005238,-0.00005282,-0.00054468,-0.00016242,-0.00012788,0
 .00029873,0.00002163,0.00009968,-0.00022664,-0.00006361,-0.00005986,0.
 00091789,0.00041900,-0.00000586,-0.00028791,-0.00074986,-0.00094652,-0
 .00113755,0.00003502,-0.00199256,0.00161341,-0.00487531,-0.02430616,-0
 .01679525,-0.00672298,0.06158075,0.03792128,-0.14865853,0.08008953,-0.
 13018087,0.46809664,-0.00107227,-0.00043231,0.00397646,0.00187581,0.00
 034648,0.00073308,-0.00066639,0.00021464,0.00028147,-0.00011570,-0.000
 29125,0.00004388,0.00074595,0.00089677,-0.00033516,-0.00033822,-0.0018
 5765,-0.00145855,0.01532921,0.01283331,0.01429888,-0.01380814,-0.00542
 892,-0.00786067,0.00109668,0.00098900,-0.00336932,0.00011917,-0.001040
 04,-0.00108910,0.00024592,-0.00024612,0.00003226,0.00007530,0.00025560
 ,0.00004680,0.00013321,-0.00011458,-0.00005887,-0.00027672,0.00024416,
 0.00012452,-0.00037017,-0.00099227,0.00062718,-0.00027625,-0.00061352,
 0.00005503,-0.00024076,-0.00202788,0.00366608,-0.00781800,-0.01667987,
 -0.02614629,-0.08636412,-0.02741183,-0.02463054,-0.03916020,-0.0128891
 6,0.02210526,-0.27484179,-0.08415508,-0.07214949,0.52575684,-0.0023535
 8,0.00104825,-0.00145302,0.00079947,-0.00015005,0.00129369,-0.00014357
 ,0.00002864,-0.00000674,-0.00057033,0.00023476,0.00043930,0.00111943,0
 .00065964,-0.00149786,0.00049439,-0.00020270,0.00080804,0.00653493,0.0
 0488311,0.01549511,-0.00154373,0.00049967,-0.00136649,-0.00137704,0.00
 025723,-0.00003601,0.00096454,-0.00046964,-0.00091769,0.00023075,-0.00
 007352,-0.00006553,0.00026027,-0.00004822,-0.00009727,0.00043270,-0.00
 021209,-0.00019375,-0.00079743,0.00048173,0.00032118,-0.00118857,-0.00
 136248,0.00148897,0.00105951,-0.00078446,-0.00193971,-0.00423927,-0.00
 325295,0.00080902,-0.00974240,-0.00768331,-0.02361025,-0.02299737,-0.0
 6971728,0.01567285,-0.02017312,-0.00486776,-0.00163029,-0.08779506,-0.
 08940018,0.00685515,0.21278720,0.37526104,0.00136658,0.00313203,-0.002
 24271,0.00056908,-0.00055078,-0.00096903,0.00053668,0.00036124,0.00094
 065,-0.00028602,0.00041127,0.00014075,0.00018204,-0.00209467,-0.001579
 41,0.00451143,0.00194941,-0.00082695,0.03632092,0.01551983,-0.03420167
 ,-0.01948890,-0.00279605,-0.01800573,0.00205394,-0.00129710,-0.0026485
 6,-0.00144229,0.00099027,-0.00274255,-0.00070899,0.00076700,0.00015447
 ,0.00030346,-0.00042528,-0.00020742,0.00035989,-0.00016132,-0.00012884
 ,-0.00057013,0.00015581,0.00025159,0.00024885,0.00172809,0.00049148,-0
 .00007801,-0.00088208,0.00176628,-0.00501305,0.00327595,0.01157273,-0.
 02203218,-0.02985320,-0.02481276,-0.03388613,-0.00478902,-0.21534508,0
 .00167285,-0.00863386,0.03048297,-0.07460265,0.00730406,-0.13093880,0.
 12232617,-0.06030795,0.51543480,0.00023497,0.00075609,-0.00026067,0.00
 001681,-0.00068865,-0.00150717,0.00023208,-0.00000801,0.00011209,0.000
 17657,-0.00010444,-0.00005031,-0.00034060,-0.00101789,0.00052269,0.000
 18218,0.00197375,0.00088295,0.00557218,-0.00006386,-0.00275231,-0.0017
 8954,0.00079977,-0.00379654,-0.00054307,0.00011044,0.00205896,0.000207
 05,-0.00022079,-0.00040990,-0.00016137,0.00003232,-0.00005134,-0.00005
 003,0.00008842,0.00001393,-0.00003941,0.00001758,0.00003870,0.00019801
 ,-0.00022859,-0.00022253,0.00035357,0.00051006,-0.00028504,0.00030698,
 -0.00172750,-0.00110450,0.00121392,0.00247775,0.00556401,0.00376594,0.
 00278463,-0.01856601,0.00739715,0.00087869,0.00741755,-0.00351062,-0.0
 0391909,-0.00085948,-0.02667141,-0.01658839,0.00575178,-0.09912568,-0.
 06286260,0.01037984,0.35097659,0.00188665,0.00155096,-0.00002811,-0.00
 031670,-0.00051880,-0.00145559,0.00015684,0.00000486,0.00006009,0.0001
 8965,0.00001990,-0.00013311,-0.00122194,-0.00158961,0.00135337,0.00043
 331,0.00128908,0.00114524,0.00752241,0.00481819,-0.00519070,-0.0033418
 2,-0.00008772,-0.00118383,-0.00048909,0.00025640,0.00143874,-0.0000945
 0,-0.00007437,0.,-0.00010277,0.00005396,0.00000638,-0.00002541,-0.0000
 1162,0.00004796,0.00027130,-0.00000393,-0.00033502,-0.00021056,-0.0002
 2154,0.00019584,0.00088315,0.00093402,-0.00190478,0.00023197,-0.002671
 69,0.00285905,-0.00262376,0.00298286,0.00566432,0.00304264,0.01170809,
 -0.00001180,-0.00285728,-0.00768422,0.03409938,-0.00044295,0.00074887,
 -0.00221300,-0.03787409,-0.01195849,-0.01621681,-0.06125480,-0.1634320
 0,0.06454741,0.07875423,0.51164865,0.00137828,-0.00010702,-0.00098311,
 -0.00176433,-0.00121101,-0.00074026,-0.00108556,0.00043944,0.00021269,
 -0.00083790,0.00078741,0.00024841,0.00011656,0.00156815,0.00065016,0.0
 0126684,0.00000978,-0.00072085,-0.00745939,-0.00312357,-0.00239593,0.0
 0171553,-0.00097400,0.00045286,0.00219688,0.00091429,0.00010072,-0.000
 79772,0.00007583,0.00005925,0.00059864,-0.00021556,-0.00008894,0.00047
 302,-0.00045961,-0.00013834,0.00033214,-0.00032289,-0.00012783,-0.0004
 5885,0.00057989,0.00025634,0.00036287,-0.00200594,-0.00141859,0.001558
 76,-0.00265333,0.00104878,-0.00030172,0.01065152,0.00368033,-0.0084701
 6,-0.00124848,-0.05579209,0.01152550,0.02553292,-0.04002316,-0.0015743
 2,0.00210564,0.00058452,0.01233829,-0.00932666,0.02416352,-0.00095424,
 0.04410119,-0.10991523,0.18795414,-0.13411188,0.55442661,0.00046383,0.
 00200948,-0.00040129,-0.00083891,0.00013344,0.00156323,0.00064444,-0.0
 0021293,-0.00036406,-0.00008067,0.00025635,-0.00001212,-0.00021502,0.0
 0001671,-0.00058272,0.00141047,-0.00165004,0.00342005,0.00092764,-0.00
 414953,-0.00320633,-0.00116254,0.00018822,0.00142365,0.00019850,-0.000
 56879,-0.00144875,0.00064434,-0.00045122,-0.00030402,-0.00032903,0.000
 12072,0.00012093,0.00015077,-0.00003503,0.00012421,-0.00005166,0.00007
 318,-0.00025035,-0.00011719,0.00004230,0.00077559,0.00018676,-0.000941
 98,-0.00114206,0.00151357,-0.00037879,0.00245166,-0.00026859,0.0080928
 2,0.00184806,-0.05445558,-0.01868805,0.00588835,-0.00570427,-0.0167667
 2,0.01061680,-0.00099579,0.00026787,0.00004119,0.00613547,-0.00311641,
 0.00415330,-0.01424271,-0.02497534,-0.00364101,-0.08732071,-0.04213318
 ,-0.05229110,0.21219216,-0.00184889,0.00035575,0.00116317,-0.00039060,
 0.00068955,0.00153104,0.00015592,-0.00028407,-0.00031047,0.00064098,-0
 .00011230,-0.00053312,-0.00058607,0.00236867,-0.00038667,0.00200556,0.
 00000622,-0.00221833,0.00110380,-0.00109201,-0.00799466,-0.00086687,-0
 .00034376,-0.00019445,-0.00017917,-0.00044333,-0.00147654,0.00067984,-
 0.00038587,-0.00027747,-0.00005373,0.00021802,0.00012619,0.00001707,0.
 00015430,-0.00009208,-0.00017129,-0.00006853,0.00069560,-0.00136374,-0
 .00084543,0.00232099,-0.00086397,-0.00013347,0.00423721,-0.00053654,-0
 .02330936,0.00667111,0.00686918,0.03207759,0.00571258,-0.02427173,-0.1
 2720238,0.04298664,-0.02578377,-0.03603126,0.02347003,-0.00070722,-0.0
 0034061,0.00053237,0.00430025,-0.00108561,0.00681992,-0.03318275,-0.03
 604724,-0.01073165,-0.03987945,-0.12722893,-0.02912035,0.08948942,0.68
 916261,-0.00023674,-0.00407141,-0.00225350,0.00214571,0.00129953,-0.00
 003636,-0.00028547,-0.00004925,-0.00013927,-0.00005652,-0.00095324,0.0
 0046492,0.00063092,0.00107875,-0.00136347,-0.00092897,-0.00208130,-0.0
 0384937,-0.00732348,-0.00158898,0.00822861,-0.00031416,-0.00021560,0.0
 0222811,-0.00172400,-0.00124306,-0.00101468,0.00000897,0.00018774,0.00
 018078,0.00045148,0.00001577,-0.00006035,-0.00102239,0.00047543,0.0000
 1451,-0.00023000,0.00033314,0.00035272,-0.00156322,0.00204815,-0.00150
 398,0.00263829,-0.00107643,-0.00139292,-0.00082537,0.01799672,-0.00911
 278,0.01066096,-0.01583677,-0.04585804,0.02013396,0.06071153,-0.189501
 69,0.01518034,0.02349403,0.00114157,0.00177607,0.00011736,0.00206453,0
 .00826800,0.00315989,0.00302259,-0.00819406,-0.01447146,0.00966936,-0.
 06654149,-0.04759014,-0.15668446,0.06910364,-0.01929738,0.51665121,-0.
 00011720,-0.00004243,0.00077559,-0.00005166,-0.00007314,-0.00025037,0.
 00015077,0.00003501,0.00012422,-0.00008067,-0.00025635,-0.00001217,-0.
 00021503,-0.00001662,-0.00058272,0.00018676,0.00094219,-0.00114188,-0.
 00109779,-0.00019333,0.00123408,0.00065776,0.00020742,0.00023702,-0.00
 006602,-0.00002138,0.00011165,-0.00016661,-0.00000134,0.00000941,-0.00
 023613,-0.00015581,-0.00001321,0.00064444,0.00021300,-0.00036403,-0.00
 083892,-0.00013371,0.00156319,0.00046384,-0.00200940,-0.00040164,0.001
 41048,0.00164945,0.00342032,-0.00026860,-0.00809320,0.00184663,0.00151
 359,0.00037843,0.00245172,-0.00095344,0.00366234,0.00208887,0.00209179
 ,-0.00179093,-0.00057630,0.00012648,0.00001766,-0.00045575,-0.00065122
 ,-0.00042333,0.00048067,0.00067018,-0.00412167,-0.00155123,-0.00005524
 ,-0.00543448,0.00661324,-0.04398134,0.00228028,-0.01717856,0.21220335,
 0.00136401,-0.00084466,-0.00232087,0.00017132,-0.00006835,-0.00069567,
 -0.00001690,0.00015437,0.00009210,-0.00064097,-0.00011256,0.00053302,0
 .00058595,0.00236880,0.00038731,0.00086353,-0.00013290,-0.00423701,-0.
 00270280,-0.00171706,0.00636782,0.00032354,-0.00004959,0.00069600,0.00
 084331,0.00037306,0.00003530,-0.00035019,0.00000521,0.00004116,0.00009
 912,0.00002433,-0.00003962,-0.00015587,-0.00028413,0.00031045,0.000390
 22,0.00069003,-0.00153089,0.00184893,0.00035523,-0.00116271,-0.0020054
 1,0.00000549,0.00221903,-0.00687110,0.03207578,-0.00569902,0.00053674,
 -0.02330506,-0.00667354,-0.00811177,-0.03251810,0.04104257,0.00664374,
 0.00992024,0.00304852,0.00000224,-0.00005210,-0.00077084,-0.00508853,-
 0.00170569,-0.00467894,0.00479028,0.00993400,-0.00552162,-0.02435705,-
 0.03252072,-0.03404313,-0.00227632,-0.33280343,0.00047693,-0.08950293,
 0.68915540,-0.00156298,-0.00204804,-0.00150474,-0.00022996,-0.00033322
 ,0.00035254,-0.00102238,-0.00047541,0.00001444,-0.00005663,0.00095314,
 0.00046518,0.00063103,-0.00107809,-0.00136360,0.00263843,0.00107667,-0
 .00139348,-0.00049420,0.00062320,0.00311675,0.00070843,0.00040712,-0.0
 0035044,-0.00077855,-0.00030612,0.00014643,0.00018317,0.00002201,0.000
 02957,0.00051093,0.00026229,0.00001557,-0.00028550,0.00004923,-0.00013
 920,0.00214579,-0.00129941,-0.00003684,-0.00023644,0.00407187,-0.00225
 297,-0.00092935,0.00208198,-0.00384857,0.01065975,0.01585040,-0.045856
 27,-0.00082523,-0.01799919,-0.00911710,0.00463503,0.02122526,0.0191288
 1,0.00157854,0.00603554,-0.00401254,-0.00092633,-0.00045751,0.00018081
 ,0.00221003,-0.00048236,0.00267271,-0.00370659,-0.00475503,-0.00258874
 ,0.00407145,-0.02084070,0.01821857,-0.01717895,-0.00051416,-0.11969499
 ,0.06908824,0.01932759,0.51665783,-0.00088629,-0.00267132,-0.00140915,
 0.00089976,0.00006915,-0.00017690,-0.00010041,0.00042454,0.00029305,-0
 .00095918,-0.00096898,0.00054980,-0.00073164,0.00067708,0.00464077,0.0
 0312045,0.00174529,0.00038187,-0.00034701,-0.00042254,0.00043855,-0.00
 015657,0.00012029,0.00022505,-0.00011175,-0.00017431,-0.00006681,-0.00
 014946,-0.00004460,-0.00005589,0.00036557,0.00030955,0.00002643,0.0001
 0255,0.00169331,0.00003300,-0.00036041,-0.00086411,-0.00081789,-0.0014
 4575,0.00966595,-0.00392370,-0.00296439,-0.01246451,0.00866209,-0.0603
 1713,0.01012002,0.04580973,0.00231559,-0.00831133,-0.00911477,0.000216
 34,-0.00266013,0.00639611,0.00057614,0.00237005,0.00013521,-0.00006902
 ,-0.00015629,-0.00004184,-0.00013574,-0.00018655,-0.00007757,-0.000155
 06,0.00071743,0.00035535,0.00176504,-0.00115485,-0.00284319,-0.0009534
 7,0.00811102,0.00463652,-0.05445573,0.02426838,0.02013819,0.24423586,-
 0.00104673,-0.00141173,0.00061622,-0.00025495,-0.00083888,-0.00009821,
 0.00073377,0.00078618,0.00013461,-0.00545493,0.00306352,0.00161315,0.0
 0638758,0.00553639,-0.00557582,0.00319747,-0.00408148,-0.00136232,0.00
 215315,0.00076829,-0.00072188,0.00013759,0.00073248,0.00017053,0.00103
 448,0.00043275,-0.00009718,-0.00030863,-0.00005439,-0.00007494,-0.0001
 9568,0.00005192,0.00002230,0.00048981,-0.00250645,0.00080039,0.0041660
 8,-0.00094052,-0.00121954,0.00226968,-0.01854814,0.01812673,-0.0220077
 2,0.02569271,0.01054908,0.00820881,-0.16742648,0.09569828,-0.01139353,
 -0.02180552,0.02508563,0.00265901,-0.00209429,-0.00516939,-0.00208330,
 0.00022546,0.00083767,0.00089942,0.00031744,-0.00025706,-0.00042189,-0
 .00039691,0.00075815,0.00029819,-0.00013254,-0.00242758,0.00087334,-0.
 00481807,-0.00086929,-0.00366265,-0.03250718,-0.02123429,0.01868718,-0
 .12718421,-0.06070062,-0.12710920,0.51152879,0.00087991,0.00651457,0.0
 0263027,-0.00053719,0.00022327,0.00018335,0.00048910,-0.00024964,-0.00
 032708,0.00408448,-0.00108047,-0.00226794,-0.00187087,-0.00874292,0.00
 294202,-0.00761520,-0.00586291,0.00903117,0.00042300,-0.00166363,-0.00
 285910,0.00007109,-0.00020833,-0.00034305,-0.00038578,-0.00006547,0.00
 011448,0.00017047,0.00006159,0.00007480,-0.00081673,-0.00058811,-0.000
 01595,-0.00233624,0.00060896,-0.00018159,-0.00137052,0.00234404,0.0002
 9682,-0.00045710,0.00952076,-0.01103376,0.02808810,0.00164341,-0.03672
 624,0.04952672,0.09770371,-0.26658511,-0.00293677,0.04725146,0.0052600
 8,0.00639657,0.00517412,-0.02905464,-0.00093842,-0.00373137,-0.0021419
 5,0.00051740,0.00018241,0.00006381,0.00032872,0.00043562,0.00078941,-0
 .00099196,-0.00105942,0.00102445,0.00239081,-0.00043290,0.00077185,0.0
 0208836,-0.04105157,0.01911795,0.00589162,-0.04297569,-0.18951963,-0.0
 4711830,-0.08966275,0.66113526,-0.00007636,-0.00072202,0.00010672,-0.0
 0013758,-0.00028863,0.00003093,-0.00027669,0.00046497,-0.00017641,-0.0
 0123266,0.00157972,-0.00012756,0.00021150,0.00350163,-0.00269467,0.000
 98063,0.00037251,-0.00102727,0.00008324,0.00020256,0.00005406,0.000018
 57,-0.00001769,-0.00007113,0.00006669,0.00009917,0.00000837,0.00007615
 ,0.00011513,0.00007649,0.00038821,0.00029652,0.00006540,0.00002350,-0.
 00533128,0.00331297,0.00969661,0.00168966,-0.00230958,0.00078510,-0.02
 305575,0.03085854,-0.01639892,0.01141988,0.01075519,0.00797331,0.00448
 102,-0.02743651,0.00157679,-0.00268716,0.00020887,0.00057615,0.0020834
 4,-0.00093806,0.00022662,0.00036849,0.00016284,0.00005639,0.00003757,0
 .00001140,-0.00004275,-0.00005581,0.00003863,0.00003760,-0.00017524,-0
 .00061373,0.00028622,-0.00127907,0.00132494,0.00209182,-0.00664404,0.0
 0157740,-0.00570436,0.02578122,0.01518488,-0.10451384,0.08241995,-0.00
 150854,0.43204367,-0.00056702,0.00066175,0.00024402,0.00072598,0.00040
 692,0.00009963,0.00010907,0.00013211,-0.00022131,0.00221291,-0.0015752
 4,0.00060348,-0.00068885,-0.00224914,0.00035974,-0.00041391,-0.0007719
 2,0.00006058,0.00047439,0.00056272,-0.00007363,-0.00038855,-0.00044364
 ,0.00001455,-0.00057857,-0.00028074,0.00001955,0.00017895,0.00013067,0
 .00010687,0.00013142,0.00016369,0.00000950,-0.00066203,0.00248205,-0.0
 0218187,-0.00620319,0.00053490,0.00574007,-0.00986148,0.01550918,-0.01
 558332,0.01738423,-0.01146884,-0.00568552,-0.00948676,-0.01746796,0.03
 771921,0.00268335,-0.00111337,0.00362202,-0.00237007,0.00022497,0.0037
 3175,-0.00036851,-0.00257422,-0.00003664,-0.00041395,-0.00034067,0.000
 21957,0.00067408,0.00058128,-0.00039280,0.00023070,0.00138752,0.000084
 23,-0.00109062,-0.00013181,-0.00066669,0.00179101,0.00992180,-0.006033
 10,0.01676494,-0.03602304,-0.02350046,0.07542427,-0.16335435,0.0141961
 3,-0.21857892,0.37511227,0.00062724,0.00010918,-0.00032318,-0.00068580
 ,-0.00027146,0.00005629,-0.00014425,-0.00062254,0.00042473,-0.00153493
 ,-0.00146209,0.00035982,0.00207097,-0.00040463,0.00061814,-0.00203697,
 0.00155505,0.00052307,0.00013977,0.00027135,-0.00041719,-0.00000251,0.
 00012093,0.00025021,0.00020568,0.00006556,0.00001041,-0.00017572,-0.00
 016944,-0.00012708,-0.00094460,-0.00080678,-0.00000670,0.00081492,0.00
 108933,-0.00119029,-0.00560142,0.00245441,-0.00219136,0.02574709,0.003
 12129,-0.03035663,0.00189502,-0.00077818,-0.00299536,-0.01086619,0.029
 41228,-0.00478872,0.00113405,0.00204685,-0.00276418,0.00013480,-0.0008
 3725,-0.00214146,0.00016277,0.00003580,0.00221500,-0.00024892,-0.00024
 058,0.00008085,0.00055907,0.00049050,-0.00008957,-0.00063061,0.0001710
 6,-0.00270333,-0.00001834,-0.00209088,0.00058320,-0.00057597,-0.003046
 13,-0.00401411,0.01061979,-0.02347643,0.00113343,-0.01284081,0.0334649
 2,-0.10454935,-0.08432460,0.03291984,0.60930520,0.00007323,0.00043068,
 0.00012870,-0.00018089,0.00079959,0.00007672,0.00084621,-0.00147343,0.
 00031674,-0.00077946,-0.00039481,-0.00071307,0.00000662,0.00182455,0.0
 0154937,0.00082621,-0.00007613,-0.00215855,0.00003357,-0.00023915,-0.0
 0022899,-0.00000565,-0.00006270,-0.00002061,0.00012997,-0.00012990,-0.
 00006222,-0.00004447,-0.00025701,-0.00010527,-0.00155343,-0.00004244,-
 0.00044892,-0.00392043,0.00280646,0.00006752,-0.02132285,-0.01741342,0
 .02650566,-0.09459867,0.01415530,0.01543220,0.01623009,0.00639554,-0.0
 1886482,-0.00568620,0.00148294,0.00859255,0.00010830,-0.00044038,0.002
 01357,-0.00034701,-0.00215323,0.00042263,0.00008324,-0.00047441,0.0001
 3969,-0.00009450,-0.00007259,-0.00003988,0.00010544,0.00012890,0.00004
 616,-0.00027562,-0.00077620,-0.00047438,-0.00007183,0.00069919,0.00006
 272,-0.00109779,0.00270291,-0.00049373,0.00092762,-0.00110253,-0.00732
 371,-0.02476395,0.02777409,0.00987700,-0.19482131,0.08270622,0.1035984
 1,0.57295507,0.00044068,-0.00036877,-0.00073681,0.00024904,0.00051746,
 0.00018264,-0.00192398,-0.00146663,0.00030639,0.00313760,-0.00088346,-
 0.00198167,0.00272592,-0.00286837,0.00382989,-0.00093602,-0.00031867,0
 .00125337,0.00023918,0.00056729,0.00059231,-0.00011593,-0.00039384,-0.
 00037068,-0.00033338,-0.00036518,-0.00010769,0.00006625,-0.00013157,-0
 .00004550,0.00147534,0.00022777,0.00029938,0.00154015,0.00710613,-0.00
 011015,-0.01485529,0.00144203,0.00796143,0.00285350,-0.10198376,0.0716
 7736,0.00798889,-0.02785323,0.01263353,-0.00026867,-0.00109085,0.00750
 266,-0.00116792,-0.00011306,-0.00132369,0.00042246,0.00076786,0.001664
 25,-0.00020257,0.00056275,-0.00027118,0.00024398,0.00019500,0.00014043
 ,-0.00017888,-0.00021100,-0.00008234,0.00025351,0.00058120,0.00042276,
 0.00034906,-0.00039817,0.00031943,0.00019310,-0.00171585,-0.00062404,0
 .00415009,-0.00109362,0.00158736,0.01122883,-0.01194181,-0.01534609,0.
 07961021,-0.08936089,-0.02814841,-0.14665705,0.28271511,-0.00044771,-0
 .00062289,0.00058834,0.00008543,-0.00012725,-0.00009636,0.00126348,0.0
 0135768,-0.00010682,-0.00119938,0.00282820,0.00061040,-0.00225096,-0.0
 0029191,0.00089808,-0.00034648,0.00120153,0.00019704,-0.00022895,-0.00
 059216,-0.00028320,0.00010820,0.00029189,0.00019669,0.00006841,0.00019
 762,0.00007161,0.00000380,0.00013199,0.00006480,-0.00125012,0.00006187
 ,-0.00005630,-0.00230101,-0.00872688,0.00470538,0.03579356,0.01358828,
 -0.02034511,0.03509361,0.07174252,-0.17613749,-0.02941921,0.03242901,-
 0.00264898,0.01549496,-0.00175335,-0.02410407,-0.00052347,0.00455431,-
 0.00126714,0.00043863,0.00072251,-0.00285869,0.00005402,0.00007380,-0.
 00041722,0.00001579,0.00000560,-0.00002694,-0.00010172,-0.00014860,-0.
 00001729,0.00004594,-0.00007864,0.00014363,0.00046806,0.00051461,0.000
 72580,0.00123412,-0.00636866,0.00311554,-0.00320561,0.00799301,0.00823
 029,0.01647513,-0.03041823,0.02228704,0.10108210,-0.03000453,-0.210656
 29,-0.12780817,-0.07634728,0.56258905,-0.00146879,0.00249629,0.0013771
 5,-0.00498056,0.00140519,-0.00253413,-0.01273492,0.02433652,-0.0036366
 1,-0.04453720,0.02108545,-0.01343942,0.01090599,0.00670688,-0.00547265
 ,-0.00148352,0.00164224,0.00119649,-0.00155343,-0.00147514,-0.00125037
 ,0.00080288,0.00165762,0.00162444,0.00063293,-0.00175186,-0.00002310,-
 0.00134890,0.00369755,-0.00095823,-0.07468104,-0.01043933,-0.02167775,
 -0.19201680,-0.03253188,-0.05149498,-0.01348138,-0.04156402,0.02327857
 ,0.00052842,-0.00299181,-0.00106366,-0.00019123,-0.00354138,0.00355706
 ,-0.00216252,0.00014168,0.00078137,0.00138682,-0.00022109,-0.00054321,
 0.00036557,0.00019583,-0.00081670,0.00038821,-0.00013126,-0.00094464,-
 0.00006228,-0.00028657,-0.00062033,0.00001796,0.00004078,0.00026481,-0
 .00012317,0.00009051,0.00048109,0.00006554,0.00001643,-0.00027532,-0.0
 0023613,-0.00009921,0.00051092,-0.00032903,0.00005365,0.00045149,0.000
 39805,-0.00003017,-0.00053682,0.00074621,-0.00009185,0.00046048,-0.001
 17903,-0.00084048,0.00113566,0.47985706,0.00115111,0.00138683,0.000688
 79,-0.00106153,0.00894783,0.00614463,0.02971632,-0.03181175,0.00762308
 ,0.02087037,0.00462771,0.00455189,0.00298960,-0.00355128,0.00034284,0.
 00242949,0.00045407,-0.00068431,0.00004250,0.00022782,-0.00006184,-0.0
 0005079,-0.00096451,-0.00096767,0.00021741,0.00014466,-0.00341456,-0.0
 0702567,0.00349385,0.00204744,0.01044270,-0.19827455,-0.00064673,-0.06
 148269,-0.10416230,-0.00325873,-0.02994177,-0.00814149,-0.00328081,-0.
 00060443,-0.00183293,0.00235366,-0.00004953,-0.00170630,0.00041234,-0.
 00004510,0.00217513,-0.00026591,-0.00018030,-0.00277271,0.00004189,-0.
 00030955,0.00005182,0.00058812,-0.00029653,0.00016355,0.00080681,-0.00
 001491,0.00002771,0.00034029,0.00010795,-0.00008518,-0.00037266,0.0001
 6365,-0.00005129,-0.00045314,-0.00004910,-0.00001881,0.00018192,0.0001
 5581,0.00002437,-0.00026229,-0.00012074,0.00021804,-0.00001572,-0.0002
 1000,-0.00034973,0.00026855,-0.00025864,-0.00018420,0.00084852,-0.0008
 9460,-0.00000210,-0.00168635,-0.01610121,0.54760188,0.00004251,-0.0001
 4418,-0.00043302,-0.00171485,-0.00076471,0.00143610,-0.00687771,0.0117
 1917,0.00337574,-0.02192754,0.00785858,-0.00122930,0.00460615,0.002013
 50,0.00106180,0.00062254,0.00104500,-0.00019647,-0.00044893,-0.0002993
 3,-0.00005636,0.00022377,0.00016088,0.00036869,-0.00031258,0.00057036,
 -0.00009366,-0.00420893,-0.00271339,-0.00120071,-0.02167575,0.00062258
 ,-0.06239723,-0.05355209,0.00352281,-0.07155256,0.00528094,-0.01873571
 ,0.01061771,0.00301658,0.00184532,0.00086931,-0.00212116,0.00017040,0.
 00052142,0.00026755,-0.00026702,0.00009456,-0.00005351,0.00003515,0.00
 021941,0.00002637,-0.00002229,-0.00001585,0.00006535,-0.00000947,-0.00
 000657,-0.00029667,0.00014612,0.00024688,0.00008110,-0.00003338,-0.000
 05885,0.00000481,-0.00000189,-0.00004010,-0.00000570,-0.00000274,0.000
 01908,-0.00001318,0.00003962,0.00001553,0.00012091,-0.00012614,-0.0000
 6037,-0.00019740,0.00014469,0.00015633,0.00062608,0.00013297,-0.000491
 90,0.00090893,-0.00052948,0.00121892,0.22782002,-0.13691145,0.38628057
 ,0.00001752,-0.00010199,-0.00000577,0.00000909,-0.00000574,0.00000587,
 0.00018631,-0.00009120,0.00010371,0.00007397,-0.00030722,0.00022703,0.
 00014352,-0.00065895,0.00016241,-0.00004560,0.00052003,-0.00020280,0.0
 0000002,0.00000015,-0.00000008,-0.00003004,0.00002371,-0.00002078,0.00
 002941,-0.00003385,0.00001926,-0.00001263,-0.00001060,0.00002331,0.000
 05768,0.00061199,-0.00004929,-0.00220946,-0.00126513,0.00026833,-0.002
 50668,0.00131023,-0.00237728,0.00003942,0.00110375,-0.00091617,0.00100
 920,-0.00006490,0.00013892,0.00023505,-0.00047447,0.00040841,-0.000167
 81,0.00040302,-0.00028646,-0.00011992,0.00046033,-0.00042204,-0.000000
 10,-0.00026282,0.00017573,-0.00000048,0.00006798,-0.00004905,0.0001036
 8,0.00026913,-0.00009155,-0.00002219,0.00053689,-0.00019046,0.00009549
 ,-0.00098583,0.00039266,0.00022117,-0.00075186,0.00074796,0.00118251,-
 0.00044256,0.00072767,-0.00205024,0.00105402,-0.00123701,0.00092775,0.
 00123496,-0.00365691,0.00087585,-0.00278885,-0.00135371,0.00216773,-0.
 00068653,0.00318846,0.56375885,-0.00003798,0.00008327,0.00001282,0.000
 02516,-0.00002708,0.00000758,0.00020761,-0.00038120,0.00022010,0.00004
 584,-0.00024196,0.00007331,0.00001895,-0.00011922,0.00013376,-0.000008
 17,-0.00005230,0.00001922,0.,-0.00000012,0.00000013,-0.00010651,0.0000
 9435,-0.00010606,0.00006079,-0.00007674,0.00005145,-0.00003763,-0.0000
 0429,0.00024467,0.00014669,0.00077078,0.00022960,-0.00023964,-0.000607
 85,0.00081996,-0.00122761,0.00083738,-0.00300293,-0.00011175,0.0000197
 9,-0.00072924,0.00034832,-0.00016524,0.00024229,-0.00028250,0.00034349
 ,-0.00029526,0.00006659,-0.00012610,0.00007505,0.00005228,-0.00015899,
 0.00018440,-0.00000297,0.00013074,-0.00009425,0.00010275,-0.00035554,0
 .00029477,0.00015588,-0.00033731,0.00011785,-0.00005677,-0.00028387,0.
 00010313,0.00013163,0.00043466,-0.00013199,-0.00010868,0.00037463,-0.0
 0028981,0.00000929,-0.00044652,-0.00136638,0.00027339,0.00025810,0.000
 87576,-0.00135329,0.00024492,-0.00074117,0.00281939,0.00175057,0.00057
 469,0.00143746,-0.00071721,0.00167360,0.15259483,0.28988299,0.00010277
 ,-0.00028507,-0.00003363,-0.00002502,0.00004362,0.00000093,-0.00012007
 ,-0.00017956,0.00003393,-0.00000729,-0.00031859,0.00053895,0.00021474,
 -0.00093561,0.00037359,-0.00005103,0.00041440,-0.00011531,0.,0.0000000
 8,0.00000010,-0.00001460,0.00001802,-0.00003016,-0.00002619,0.00007016
 ,0.00001298,-0.00006330,0.00033526,-0.00003900,-0.00032040,-0.00092651
 ,-0.00041106,-0.00001106,-0.00196062,0.00063878,-0.00130786,0.00194479
 ,-0.00111436,-0.00168246,-0.00089907,0.00063773,0.00029218,0.00056652,
 -0.00058824,0.00007974,-0.00015814,-0.00035872,-0.00025636,0.00026648,
 0.00012452,0.00006685,-0.00013782,0.00007172,-0.00000356,0.00007529,-0
 .00005832,0.00005553,-0.00024138,0.00019230,0.00002910,-0.00022963,0.0
 0008285,0.00000922,-0.00022269,0.00010151,0.00007531,0.00033831,-0.000
 09475,-0.00014677,0.00038230,-0.00014244,0.00044479,-0.00141408,-0.001
 99996,-0.00108391,0.00110394,0.00159331,0.00162821,-0.00059419,-0.0025
 3384,-0.00110083,-0.00052499,-0.00441545,0.00066229,0.00314240,-0.0025
 9251,-0.12461670,0.08362843,0.57333225,-0.00000505,-0.00006828,0.00000
 689,-0.00002452,0.00008849,-0.00001467,-0.00007967,-0.00147664,0.00025
 646,-0.00010830,0.00176230,-0.00091025,0.00026752,-0.00061849,0.000180
 19,-0.00004793,0.00034412,-0.00010047,0.00000087,-0.00000056,-0.000000
 54,-0.00000977,0.00000550,0.00000880,0.00000701,0.00013049,0.00004459,
 -0.00021638,0.00062941,-0.00033427,-0.00072703,-0.00061521,-0.00009974
 ,-0.00189126,-0.00278063,0.00207670,-0.00299521,-0.00105938,-0.0038501
 8,0.00207624,0.00040714,-0.00152691,-0.00100702,0.00016367,0.00032498,
 0.00052565,-0.00047342,-0.00035974,-0.00027841,0.00023939,0.00017145,0
 .00011597,-0.00035304,0.00000028,-0.00000015,0.00000023,0.00000012,-0.
 00002111,0.00004777,-0.00004196,0.00000624,-0.00007767,0.00002181,0.00
 007881,-0.00012026,0.00008313,-0.00015560,0.00025719,-0.00006559,-0.00
 020925,0.00033992,-0.00007975,0.00066676,-0.00072887,-0.00023573,0.000
 64406,0.00007893,0.00053582,0.00024358,-0.00124235,-0.00008199,0.00051
 083,0.00135520,0.00163566,0.00416144,-0.00098545,0.00100005,-0.1838816
 9,-0.07748608,0.09236224,0.43196702,0.00017995,-0.00006823,0.00000501,
 -0.00047099,0.00006243,-0.00009009,0.00003017,-0.00108778,0.00055735,0
 .00067787,0.00014569,0.00029878,-0.00027287,0.00015369,-0.00009599,0.0
 0008106,0.00002176,-0.00000768,-0.00004204,0.00002330,0.00001547,-0.00
 004756,0.00002030,-0.00014330,0.00000943,0.00012488,0.00032823,-0.0006
 6108,0.00069514,0.00025788,-0.00014951,-0.00050049,-0.00047063,0.00001
 405,-0.00052765,0.00055940,-0.00023465,0.00121812,0.00282846,0.0006672
 8,-0.00012600,-0.00150668,-0.00003576,0.00011201,0.00002763,0.00024654
 ,-0.00008000,-0.00004343,0.00009243,-0.00005518,-0.00003751,0.00000125
 ,-0.00000723,0.00000185,0.00000106,-0.00000017,-0.00000005,0.00014816,
 -0.00023501,0.00007969,0.00023368,-0.00010220,0.00001357,-0.00016916,0
 .00012927,-0.00010518,0.00006610,-0.00005394,0.00003764,0.00001143,0.0
 0000478,0.00002064,0.00049020,-0.00038678,-0.00001525,0.00023224,-0.00
 007427,-0.00002213,0.00137175,-0.00046303,0.00044607,-0.00102103,0.000
 19900,0.00054592,-0.00361550,0.00003770,0.00274064,-0.08255928,-0.0910
 8502,0.02909331,0.22234274,0.36865324,-0.00013984,0.00002251,0.0000083
 3,0.00036376,0.00000548,0.00006234,-0.00024069,-0.00177503,0.00032699,
 -0.00083346,0.00197872,-0.00121522,0.00029123,-0.00039154,0.00013949,-
 0.00008380,0.00014266,-0.00004657,0.00003276,-0.00001831,-0.00001201,-
 0.00008217,0.00009275,-0.00000837,0.00004387,0.00011541,-0.00010199,0.
 00005113,-0.00010346,-0.00077667,0.00060422,0.00115618,0.00093168,-0.0
 0194857,-0.00014227,0.00071846,0.00091124,-0.00160187,0.00176938,-0.00
 186592,-0.00028127,0.00001375,-0.00038210,-0.00033714,0.00092426,0.000
 65812,-0.00065087,-0.00010442,-0.00040713,0.00036678,0.00012994,0.0000
 3418,-0.00006859,-0.00003612,-0.00000015,0.00000017,0.00000031,0.00006
 242,-0.00016247,0.00016976,0.00010886,-0.00000083,0.00000473,-0.000166
 91,0.00017178,-0.00012966,0.00016022,-0.00019750,0.00007970,0.00010094
 ,-0.00011024,0.00007115,0.00007998,0.00002940,0.00015440,0.00014572,-0
 .00003972,-0.00037550,-0.00018161,-0.00043986,-0.00320864,-0.00245942,
 0.00098739,-0.00257683,0.00937158,-0.00367415,0.00948703,0.10056324,0.
 03112466,-0.20828578,-0.07783696,-0.02579270,0.62671643,-0.00012179,0.
 00016445,0.00002324,0.00009911,-0.00010801,0.00000391,-0.00000737,0.00
 107458,-0.00041591,0.00014155,-0.00151371,0.00028436,0.00024631,-0.000
 37733,-0.00013514,-0.00024091,0.00026761,0.00003233,-0.00000098,0.0000
 1054,0.00004640,0.00000176,0.00004676,-0.00000265,-0.00002016,0.000016
 22,-0.00012592,-0.00003588,-0.00091978,0.00008919,-0.00032961,-0.00079
 636,0.00128560,-0.00103174,0.00134253,-0.00130580,0.00039844,0.0007467
 3,0.00145095,0.00069619,-0.00016428,0.00054905,0.00076343,-0.00022886,
 -0.00024503,-0.00042589,0.00014858,0.00017364,0.00020229,-0.00014484,-
 0.00007310,-0.00000026,0.00000007,0.00000005,0.00008994,0.00000122,0.0
 0003368,0.00004766,-0.00029234,0.00015134,0.00001708,0.00010990,-0.000
 08455,-0.00014993,0.00005921,-0.00007108,-0.00018772,0.00010045,-0.000
 08949,0.00021570,-0.00016995,0.00015087,-0.00039841,0.00039523,0.00006
 215,-0.00052533,0.00020288,-0.00012353,0.00083663,-0.00023058,0.000102
 41,-0.00205893,-0.00023697,-0.00109803,0.00051263,-0.00349094,-0.00210
 645,-0.02754326,-0.01277011,0.01653565,-0.11434067,-0.08646972,-0.0139
 5227,0.30913928,0.00011046,-0.00001336,0.00007012,-0.00009617,-0.00005
 823,0.00012723,-0.00021682,0.00065352,-0.00019471,0.00022974,-0.001083
 74,0.00060876,-0.00004186,0.00010405,-0.00008563,0.00000411,0.00001423
 ,-0.00001349,0.00002424,-0.00002355,-0.00008498,0.00034118,-0.00036335
 ,0.00005825,-0.00072688,-0.00014766,-0.00057465,0.00084736,0.00109896,
 0.00067360,0.00037993,-0.00128459,-0.00120965,-0.00112303,0.00084309,-
 0.00185211,0.00024132,0.00080415,-0.00052552,0.00047093,-0.00031914,0.
 00120243,0.00015932,-0.00008291,-0.00006905,-0.00010645,0.00006320,0.0
 0003023,0.00001734,-0.00002102,-0.00000443,0.00000028,0.00000004,-0.00
 000007,-0.00024762,-0.00000479,-0.00007254,-0.00032708,0.00068816,-0.0
 0016345,-0.00043856,0.00015857,0.00001701,0.00025703,-0.00006229,0.000
 08970,0.00011665,-0.00002503,0.00004319,0.00000348,-0.00003181,-0.0000
 0863,-0.00028391,0.00020766,-0.00000355,-0.00020384,0.00008289,-0.0000
 2956,-0.00008271,-0.00007101,-0.00003775,-0.00093206,0.00016764,-0.000
 83032,-0.00339817,0.00133824,-0.00101312,-0.02947589,-0.01523902,0.031
 38908,-0.08902939,-0.17272836,-0.03498233,0.13195990,0.49209365,-0.000
 16426,0.00026481,0.00006124,0.00031218,-0.00017325,0.00007642,-0.00032
 005,0.00144083,-0.00057659,-0.00027176,-0.00130106,0.00001847,0.000363
 62,-0.00062943,-0.00011232,-0.00037035,0.00034573,0.00004803,-0.000100
 53,0.00005058,-0.00000107,0.00000485,0.00008554,0.00019744,0.00037437,
 0.00005759,0.00046978,-0.00124336,-0.00096335,-0.00034825,-0.00013010,
 0.00152949,0.00156114,-0.00076630,-0.00004469,0.00061590,0.00013669,0.
 00079447,0.00033183,0.00052160,0.00097482,-0.00149626,0.00086354,-0.00
 033556,-0.00020630,-0.00055494,0.00020204,0.00013319,0.00026372,-0.000
 17798,-0.00009754,-0.00000021,0.00000001,0.00000021,-0.00002351,0.0000
 0062,-0.00002876,0.00003212,0.00032005,-0.00050047,-0.00036009,0.00004
 085,0.00009965,0.00018100,-0.00007541,0.00008585,0.00021051,-0.0000974
 5,0.00009443,-0.00014396,0.00009196,-0.00010896,-0.00005040,-0.0000147
 4,-0.00000513,-0.00014258,0.00003343,0.00026124,0.00036892,0.00002708,
 -0.00032322,-0.00062554,-0.00061424,0.00125846,0.00082095,-0.00225407,
 -0.00058826,0.00598825,0.01410395,0.02566870,0.00590997,-0.00593113,-0
 .09659073,-0.08932961,0.14817400,0.64255589,-0.00006185,-0.00001932,-0
 .00008061,-0.00001204,-0.00000418,-0.00013034,-0.00008339,-0.00001082,
 -0.00002046,-0.00012052,0.00010346,-0.00009039,-0.00003594,0.00002162,
 -0.00001543,0.00003553,-0.00000111,0.00000334,-0.00013753,0.00005264,-
 0.00023630,0.00036044,-0.00032925,0.00057704,0.00016208,-0.00005864,0.
 00011325,-0.00081408,0.00031161,-0.00007687,-0.00027133,0.00051509,-0.
 00116259,0.00026349,0.00000722,-0.00011044,-0.00021294,-0.00042276,-0.
 00004133,0.00005922,-0.00006147,0.00011212,-0.00010597,0.00007208,-0.0
 0006095,0.00017747,-0.00015348,0.00010999,-0.00000004,0.00000006,-0.00
 000002,0.00016267,0.00001592,0.00020904,-0.00028749,0.00008270,-0.0003
 6634,0.00014825,0.00134159,-0.00144537,-0.00058700,-0.00128329,0.00154
 766,0.00065560,-0.00011502,0.00064327,0.00059377,0.00018672,0.00053746
 ,-0.00038126,-0.00010468,-0.00033190,-0.00049914,0.00010191,-0.0002533
 8,-0.00035915,0.00009822,-0.00047694,0.00049105,-0.00023968,0.00055902
 ,0.00028697,0.00027232,0.00009583,0.00019237,0.00030680,-0.00062473,-0
 .00552362,0.00072920,0.01594120,0.01055242,0.00893705,-0.00884536,-0.0
 6764149,-0.00937984,0.05284275,0.29225326,0.00017624,0.00003466,0.0001
 9616,-0.00001559,-0.00005143,0.00024144,0.00030470,-0.00032373,0.00026
 668,-0.00002314,0.00018653,-0.00004720,-0.00000206,0.00003835,-0.00000
 824,-0.00008890,-0.00000947,-0.00001587,0.00030660,-0.00009382,0.00030
 259,-0.00039404,0.00014393,-0.00042020,-0.00076070,0.00053114,-0.00038
 183,0.00120245,-0.00058274,0.00090837,-0.00148834,-0.00099884,-0.00098
 614,0.00092051,-0.00003862,0.00082419,0.00044514,-0.00016807,0.0005903
 6,0.00032228,-0.00013012,0.00042806,-0.00011244,0.00007335,-0.00006269
 ,0.00015496,-0.00012997,0.00008280,-0.00000002,0.00000005,-0.00000001,
 -0.00011920,-0.00001863,-0.00014457,0.00031909,-0.00005074,0.00034633,
 0.00029346,-0.00095145,0.00088109,0.00045311,0.00008158,-0.00004185,-0
 .00066196,0.00017609,-0.00061850,-0.00051578,0.00005164,-0.00040483,0.
 00024882,0.00002436,0.00017353,-0.00010404,0.00021753,0.00006348,-0.00
 012294,0.00005605,-0.00018217,0.00053126,-0.00007546,0.00059724,0.0005
 9105,0.00035564,0.00025555,-0.00095139,0.00041893,-0.00244119,0.001282
 00,-0.00295234,-0.00042132,-0.01261989,-0.02466458,-0.03377753,0.00100
 922,-0.16987976,-0.12999745,0.04452781,0.54555362,-0.00004288,-0.00001
 592,-0.00003888,-0.00001587,0.00008114,-0.00012378,-0.00038961,0.00008
 376,-0.00001304,-0.00038210,0.00035743,-0.00020005,-0.00011172,0.00003
 411,-0.00004070,0.00018018,-0.00000740,0.00001593,-0.00009253,0.000021
 72,0.00008157,0.00036006,-0.00005812,-0.00012777,-0.00029330,0.0004257
 8,-0.00037862,0.00110141,-0.00068964,0.00045941,0.00113817,-0.00112462
 ,-0.00113612,0.00178198,0.00029108,0.00095813,0.00107956,-0.00047658,0
 .00112389,-0.00027577,-0.00013721,0.00012011,-0.00020505,0.00008325,-0
 .00006537,0.00012048,-0.00008968,0.00002722,-0.00000005,0.00000004,0.,
 -0.00005927,-0.00000421,-0.00007810,0.00012127,-0.00003547,0.00012545,
 0.00006304,-0.00091449,0.00120333,0.00063420,0.00090882,-0.00093881,-0
 .00034518,0.00006017,-0.00026767,-0.00029529,-0.00005959,-0.00024590,0
 .00019256,0.00000422,0.00015966,0.00007781,0.00009224,0.00010883,0.000
 16610,-0.00003424,0.00010479,-0.00022216,0.00003464,-0.00008287,0.0003
 9372,0.00029612,-0.00027582,-0.00119508,0.00218779,-0.00411718,0.01209
 745,-0.00685059,-0.02671617,-0.03382680,-0.04488509,-0.01013994,0.0597
 9656,-0.10019666,-0.30464274,-0.18679303,0.12500010,0.56997353,0.00001
 188,0.00000381,0.00001731,-0.00003708,0.00000494,-0.00005035,0.0000082
 9,0.00000098,0.00000490,0.00000143,-0.00004053,0.00003724,0.00002716,-
 0.00005882,0.00003897,0.,0.00000007,-0.00000011,-0.00006184,-0.0000379
 5,0.00000670,0.00000495,0.00012842,-0.00012566,0.00013370,-0.00006085,
 0.00001439,0.00010105,-0.00002966,0.00062066,0.00007521,-0.00010639,0.
 00021518,0.00006583,0.00009901,-0.00002329,-0.00025518,-0.00004586,0.0
 0029275,0.00011144,-0.00000092,-0.00015837,-0.00008507,0.00010705,-0.0
 0014317,-0.00013622,0.00016436,-0.00026975,0.00006306,-0.00014495,0.00
 031888,-0.00024835,-0.00004191,-0.00042305,-0.00010459,0.00027751,-0.0
 0035053,-0.00018145,-0.00167157,0.00177660,-0.00003681,0.00196112,-0.0
 0137397,-0.00001618,-0.00019451,0.00035696,-0.00042898,-0.00061492,-0.
 00044277,0.00046697,0.00005209,0.00081817,0.00075326,-0.00026872,-0.00
 012065,0.00059920,-0.00012070,0.00091316,-0.00071118,0.00013401,0.0001
 9974,0.00105117,-0.00036348,0.00037194,-0.00008111,0.00047438,-0.00085
 121,0.01508782,-0.00930397,-0.03035999,-0.01697193,-0.01730386,0.00223
 576,-0.00175563,0.02725412,0.03086228,-0.13049531,-0.05641334,0.079795
 72,0.45260027,-0.00014138,-0.00003099,-0.00016421,0.00004469,0.0000590
 6,0.00020867,0.00002335,0.00009100,0.00006176,0.00000624,-0.00004087,0
 .00004045,0.00005915,-0.00008823,0.00005921,0.00000009,0.00000009,0.00
 000005,0.00046522,-0.00003267,0.00036267,-0.00096269,0.00012981,-0.000
 74751,0.00002551,-0.00038077,-0.00018194,0.00076490,-0.00102690,-0.001
 92386,0.00010299,-0.00034608,0.00011387,0.00001016,0.00022394,-0.00023
 731,-0.00011750,-0.00000780,0.00039583,0.00063132,-0.00014219,0.000550
 92,-0.00010568,0.00011348,-0.00013851,-0.00008745,0.00009843,-0.000106
 38,-0.00000439,-0.00001961,-0.00002606,0.00027003,-0.00001137,0.000381
 45,0.00040609,-0.00004919,0.00028141,-0.00045776,0.00054504,0.00000994
 ,0.00184893,-0.00145976,0.00064449,-0.00069839,0.00013807,-0.00038424,
 -0.00047357,0.00078373,-0.00004831,-0.00022984,0.00015395,-0.00041918,
 0.00017232,-0.00028284,-0.00013179,0.00019095,0.00000295,0.00039649,-0
 .00005847,0.00003362,0.00041370,-0.00009908,-0.00021438,-0.00060380,-0
 .00005831,-0.00004558,-0.00006174,-0.00726668,-0.02853074,-0.03306727,
 -0.01158770,-0.01141085,-0.00119459,0.01372262,0.02469503,-0.00534671,
 -0.02999733,-0.10424066,0.00920551,0.13740818,0.62590981,0.00006028,0.
 00001167,0.00006549,0.00002379,-0.00004278,-0.00005124,-0.00007379,0.0
 0010389,-0.00013083,-0.00000127,-0.00007565,0.00004992,0.00014190,-0.0
 0017759,0.00011895,-0.00000030,0.00000014,-0.00000010,-0.00015751,0.00
 001576,-0.00010175,0.00047092,-0.00016796,0.00034849,-0.00011629,0.000
 21667,0.00012058,-0.00027123,0.00060432,-0.00000286,-0.00001189,0.0001
 7312,0.00006892,-0.00019468,0.00024198,-0.00064000,-0.00005593,0.00003
 273,0.00038562,0.00054687,-0.00009271,0.00043155,-0.00013302,0.0001386
 6,-0.00015024,-0.00008472,0.00009310,-0.00008938,0.00000569,-0.0000289
 5,0.00002640,0.00003573,-0.00003284,0.00005953,-0.00009261,-0.00001876
 ,-0.00002700,0.00037284,0.00119453,-0.00116374,-0.00026586,-0.00059380
 ,0.00065057,0.00036680,-0.00015270,0.00018313,-0.00024511,0.00042389,0
 .00000578,-0.00032914,0.00007711,-0.00030030,-0.00004220,-0.00021727,-
 0.00024870,-0.00028263,0.00011750,-0.00014996,0.00045932,-0.00006131,0
 .00097651,-0.00021273,-0.00035338,-0.00050140,0.00031819,-0.00118262,0
 .00106247,-0.01775782,-0.01257092,-0.00188971,0.00952752,0.00657880,-0
 .00564575,0.01154188,-0.01576896,-0.03822174,0.07806232,0.02969412,-0.
 13040166,-0.15147547,0.10207040,0.33116415,-0.00011610,-0.00013886,0.0
 0017902,0.00000005,0.00000004,0.,-0.00001278,0.00007505,-0.00003418,0.
 00000541,-0.00010996,0.00011440,0.00018960,0.00003299,-0.00024912,0.00
 004889,0.00032253,-0.00016353,0.00005908,0.00010997,-0.00015515,0.0000
 4064,0.00000842,-0.00000796,-0.00002132,0.00003291,-0.00009435,0.00003
 061,-0.00011058,0.00008098,-0.00002853,-0.00004635,-0.00001534,0.00001
 474,0.00034993,-0.00035187,-0.00226031,-0.00014170,0.00125624,0.001667
 50,-0.00011889,-0.00137103,-0.00037169,0.00012627,-0.00009712,-0.00014
 085,0.00076949,0.00023776,-0.00004593,-0.00081309,0.00043183,0.0004646
 8,-0.00027364,0.00036522,-0.00001892,-0.00085919,0.00069282,-0.0000425
 4,0.00041617,-0.00029094,0.00030713,-0.00071668,0.00058798,-0.00039861
 ,0.00061935,-0.00059680,-0.00008730,0.00121672,0.00034930,-0.00005125,
 -0.00220593,0.00091052,0.00023930,0.00216454,-0.00089221,-0.00039800,-
 0.00172961,-0.00165070,-0.00326281,0.00153778,-0.00086840,-0.00240779,
 0.00135953,0.00116441,0.00013199,0.00006265,0.00033576,-0.02117854,0.0
 1444248,0.03680955,0.00936754,0.00627379,-0.00705911,-0.00095081,-0.00
 453427,0.00010979,-0.00013455,-0.00183457,-0.00304381,-0.02748061,-0.0
 4132900,-0.00843190,0.56942314,0.00008365,0.00008003,-0.00015180,0.,-0
 .00000002,0.00000016,0.00000203,-0.00003323,0.00001338,0.00000212,0.00
 010225,-0.00008375,-0.00010438,0.00004426,0.00006866,-0.00000730,0.000
 01724,-0.00007078,-0.00005424,-0.00015204,0.00027473,-0.00000725,-0.00
 018511,0.00035941,-0.00001849,0.00007588,-0.00028917,0.00006267,-0.000
 04448,-0.00003199,0.00000902,0.00004447,-0.00002385,0.00003514,-0.0001
 4056,0.00007499,-0.00006748,0.00015562,0.00016482,-0.00026344,0.000241
 40,-0.00028637,0.00010516,0.00002931,-0.00018290,0.00027980,-0.0002536
 6,0.00068873,0.00006027,-0.00000996,0.00020671,-0.00044847,-0.00022164
 ,-0.00043447,0.00015848,0.00048208,-0.00024253,-0.00037822,0.00084731,
 -0.00074772,-0.00062108,-0.00038445,-0.00038676,0.00069580,0.00066454,
 -0.00020250,0.00513697,-0.00142539,0.00483547,-0.00080668,-0.00084462,
 -0.00187998,-0.00350750,0.00035089,-0.00287366,-0.00072242,0.00154330,
 0.00022560,0.00167436,0.00105871,0.00265600,-0.00083246,0.00067480,-0.
 00204862,-0.00000268,-0.00012689,0.00013454,0.01732533,0.00193414,-0.0
 1428044,-0.00176700,0.00035278,-0.00269976,0.00084516,-0.00138276,-0.0
 0205054,-0.00333449,-0.00177796,-0.00069375,-0.02052651,0.00324363,0.0
 1473497,-0.06489233,0.47827664,-0.00007748,-0.00010358,0.00010749,0.00
 000005,0.00000011,-0.00000004,0.00002445,-0.00023430,0.00009912,-0.000
 16018,0.00043856,-0.00029089,-0.00006746,0.00038021,-0.00040161,0.0000
 3650,0.00050151,-0.00026730,0.00002239,0.00002877,-0.00002844,0.000000
 58,-0.00000893,0.00001487,0.00000127,-0.00000211,0.00000877,-0.0000172
 5,0.00005574,-0.00002794,0.00008076,0.00024357,-0.00005943,0.00036174,
 -0.00077060,0.00050881,0.00010941,-0.00017622,0.00090681,-0.00042862,0
 .00036578,-0.00224418,0.00011557,-0.00048855,0.00057012,0.00005951,0.0
 0045228,0.00064990,-0.00015012,-0.00051627,0.00037040,0.00012782,-0.00
 009128,-0.00000999,-0.00000179,0.00003711,-0.00000636,0.00000847,0.000
 39291,-0.00033979,0.00000468,-0.00048417,0.00038039,-0.00007439,-0.000
 01116,-0.00000526,0.00264156,0.00013151,0.00183176,-0.00143085,-0.0015
 4974,-0.00156445,-0.00072171,0.00028924,-0.00202442,-0.00000731,0.0007
 5363,-0.00035551,-0.00349482,-0.00229497,-0.00003773,-0.00253855,0.002
 89527,0.00060280,-0.00011359,-0.00045894,-0.00004376,0.02846549,-0.008
 15170,-0.02047201,-0.00264253,-0.00549934,-0.00064875,-0.00084458,0.00
 109978,-0.00066373,0.00149186,-0.00170274,0.00174922,-0.00840463,0.011
 73071,0.01024604,-0.02870547,0.23873112,0.37486750,0.00009425,0.000163
 06,-0.00007829,-0.00004769,-0.00004336,0.00001038,-0.00000601,-0.00029
 323,0.00012675,0.00014395,0.00029954,-0.00012704,-0.00024016,0.0000592
 4,0.00041036,0.00001090,-0.00064137,0.00020197,0.00010544,0.00017890,-
 0.00010169,-0.00007392,-0.00006843,0.00006120,0.00000007,0.00000002,0.
 00000001,-0.00000709,0.00002319,-0.00001431,0.00001796,-0.00010795,0.0
 0008108,0.00076380,0.00012627,-0.00026854,0.00153279,-0.00142550,0.001
 15694,-0.00146214,0.00008835,0.00341785,-0.00204481,0.00045845,0.00226
 671,0.00092339,0.00041572,-0.00632405,0.00000374,-0.00029522,-0.000383
 30,-0.00013574,0.00042183,0.00032880,-0.00004274,-0.00067417,0.0005589
 5,-0.00000479,-0.00017668,0.00011089,0.00015298,0.00002638,0.00003197,
 -0.00007517,-0.00046228,-0.00029548,-0.00110507,-0.00225432,-0.0012227
 8,-0.00065122,0.00508817,0.00221091,0.00613553,-0.00430174,0.00826729,
 0.00805936,-0.00899393,0.00271369,-0.01220395,0.00045278,-0.04634533,-
 0.02346242,0.01076995,0.00021438,0.00004799,0.00041469,-0.00040337,-0.
 05535669,-0.00539524,0.01423415,0.00235898,0.00196409,-0.00903945,-0.0
 0059517,-0.00067280,-0.00052380,-0.00190093,-0.00008363,0.00016120,-0.
 00138506,0.00619414,0.00293699,-0.12754773,-0.01672671,-0.03739846,0.6
 6765934,-0.00008853,-0.00015208,0.00007211,0.00006013,0.00009646,-0.00
 001163,0.00004195,-0.00003505,-0.00000006,-0.00004888,-0.00015685,0.00
 020332,0.00022661,-0.00022485,-0.00022762,-0.00004691,0.00001933,0.000
 15085,-0.00012891,-0.00021104,0.00014856,0.00016412,0.00019443,-0.0002
 2772,-0.00000010,-0.00000012,0.00000011,-0.00000346,0.00001105,-0.0000
 0673,-0.00004083,-0.00008525,0.00003338,-0.00018320,-0.00022392,0.0004
 9138,-0.00006923,0.00008706,-0.00099747,0.00003888,0.00067049,-0.00318
 916,0.00093714,-0.00067287,-0.00008651,-0.00121319,-0.00061854,0.00434
 293,0.00000789,0.00099958,-0.00000650,0.00018656,-0.00039670,-0.000435
 84,0.00005580,0.00058129,-0.00049038,0.00004756,-0.00039140,0.00038387
 ,-0.00002638,0.00056219,-0.00063543,-0.00007220,0.00056129,0.00033188,
 -0.00030118,0.00076658,-0.00168882,0.00042323,-0.00170661,0.00048160,0
 .00311571,-0.00108388,-0.00316057,-0.00124213,0.00482503,-0.00287932,-
 0.00526511,0.00487825,0.01944721,0.01230834,-0.00362044,0.00111368,0.0
 0012652,0.00034765,-0.00035056,0.00589398,0.00769942,0.00158722,-0.004
 35157,0.00036396,0.00147664,-0.00085821,-0.00026160,0.00212125,-0.0007
 7530,-0.00004567,0.00062814,0.00154215,0.00706419,-0.00045232,-0.02694
 859,-0.10196009,-0.06639202,-0.10214436,0.28266189,0.00009967,0.000226
 62,-0.00006355,-0.00012787,-0.00029872,0.00002158,-0.00005281,0.000544
 69,-0.00016232,0.00010485,-0.00109185,0.00035869,-0.00001712,-0.000134
 72,0.00070537,-0.00005987,-0.00091796,0.00041886,0.00004614,0.00008231
 ,-0.00001725,0.00000547,0.00002469,-0.00004717,0.00000008,0.00000013,0
 .00000005,0.00000105,-0.00000315,0.00000207,0.00026480,0.00037265,-0.0
 0005877,-0.00096239,0.00060727,-0.00021822,0.00245661,-0.00038776,-0.0
 0090324,-0.00020143,0.00221506,-0.00039884,0.00090214,-0.00235995,0.00
 020614,-0.00094674,0.00113743,0.00003596,-0.00000586,0.00028822,-0.000
 74981,-0.00007754,-0.00075836,0.00078921,0.00003864,0.00039292,-0.0000
 8958,-0.00001736,-0.00023915,0.00019457,0.00003197,0.00063559,-0.00040
 024,-0.00020931,0.00012769,-0.00025851,-0.00123646,0.00023127,-0.00210
 694,0.00048073,0.00467819,0.00267360,0.00415384,-0.00682059,0.00302085
 ,-0.00199276,-0.00161172,-0.00487608,-0.02430716,0.01679713,-0.0067166
 6,0.00890310,-0.00611216,-0.00335394,-0.00026306,-0.00049022,-0.000052
 52,0.01478592,0.00445134,0.00836795,-0.00539099,-0.00476963,0.00583461
 ,-0.00086888,0.00055831,0.00186772,0.00014062,0.00186031,0.00145487,0.
 00511465,0.00673637,0.00247837,-0.05702191,-0.07107261,-0.14303508,0.0
 8007190,0.13015002,0.46814445,0.00004005,0.00015386,-0.00001168,0.0000
 2530,-0.00000384,-0.00000316,-0.00006393,0.00061157,-0.00029854,0.0003
 4963,-0.00104305,0.00058886,-0.00038599,0.00085372,-0.00040209,0.00004
 166,-0.00091842,0.00034707,-0.00009449,-0.00024398,0.00001575,0.000000
 06,0.00000009,-0.00000002,-0.00002904,0.00008797,0.00001527,0.00001549
 ,-0.00002752,0.00003321,-0.00006228,0.00001495,-0.00029666,0.00325263,
 0.00302758,-0.00202733,-0.00095584,-0.00416304,0.00723381,-0.00486316,
 0.00130885,-0.00205760,0.00156800,-0.00046102,-0.00129875,-0.00064810,
 -0.00163701,0.00197059,0.00042277,-0.00035808,0.00023249,-0.00006902,-
 0.00089952,0.00051725,0.00005639,0.00041399,-0.00024885,-0.00001169,0.
 00002945,-0.00002128,-0.00000479,-0.00004756,-0.00001737,0.00008568,0.
 00035915,0.00007714,-0.00029829,-0.00005837,-0.00009065,0.00012649,-0.
 00000208,-0.00092633,-0.00099580,0.00070689,0.00177620,-0.00061187,0.0
 0253753,-0.00122407,-0.00423466,0.00084994,0.01322211,0.00413416,0.003
 82612,-0.02987599,-0.00190637,0.00115577,-0.00064466,-0.19629978,-0.05
 410851,-0.03809353,-0.03644428,-0.01869652,0.02539396,-0.00046162,0.00
 303113,0.00330693,-0.00234538,-0.00258236,0.00267770,0.00776966,0.0089
 1635,0.00062762,0.01205430,0.00635587,0.00876180,-0.15745924,0.0380156
 9,0.06158777,0.53516954,-0.00000844,-0.00018997,-0.00000578,0.00000624
 ,-0.00017147,-0.00001170,-0.00018075,0.00013436,-0.00010085,-0.0002572
 1,0.00026013,0.00011635,0.00034572,0.00044990,-0.00019068,0.00010411,0
 .00006336,-0.00005714,0.00007260,0.00019502,-0.00000556,-0.00000007,-0
 .00000010,0.00000005,-0.00002775,0.00013743,0.00003650,0.00003087,0.00
 001810,0.00005453,0.00028668,0.00002780,-0.00014617,-0.00067726,-0.000
 55918,-0.00071894,-0.00024455,0.00136935,0.00285903,0.00129943,0.00152
 039,0.00285544,0.00049700,-0.00113807,0.00029980,0.00099612,-0.0000536
 6,-0.00055125,-0.00032140,0.00007491,0.00007430,0.00015630,0.00031743,
 -0.00018236,-0.00003757,-0.00034067,0.00024050,-0.00002944,0.00020037,
 -0.00015671,0.00017666,-0.00039138,0.00023905,0.00006552,-0.00044232,0
 .00010211,-0.00019355,0.00073203,-0.00013892,-0.00001758,-0.00005231,0
 .00045747,-0.00026788,-0.00034049,-0.00011778,-0.00112476,-0.00008504,
 -0.00055228,0.00373937,0.00052009,-0.00479955,-0.00222057,-0.00165534,
 0.00148754,-0.00056385,0.00006695,0.00086668,-0.03967098,-0.06639060,-
 0.02313092,-0.00985238,-0.00576183,0.01160694,-0.00347937,0.00242848,0
 .00060727,0.00007822,-0.00052143,0.00185074,0.00370532,0.00392197,-0.0
 0408621,0.00328090,-0.01060350,-0.02156101,0.02492980,-0.06627376,-0.0
 3790684,0.01891337,0.19762014,-0.00000764,0.00033252,0.00001821,-0.000
 00799,0.00034767,0.00001971,0.00032448,-0.00111149,0.00043986,0.000550
 48,0.00038585,-0.00050511,-0.00067764,-0.00038401,0.00018393,-0.000169
 08,-0.00062379,0.00033946,-0.00003986,-0.00014039,-0.00002697,0.000000
 01,0.00000002,0.00000004,0.00003164,-0.00019636,-0.00005713,-0.0000335
 9,-0.00009801,-0.00004172,-0.00062027,-0.00034032,0.00024678,0.0050473
 2,0.00241986,-0.00124618,0.00676584,-0.00546349,0.00859589,-0.00078173
 ,-0.00668135,0.01166378,-0.00663509,0.00441425,-0.00040492,0.00208867,
 -0.00159094,-0.00175817,0.00055175,-0.00023976,-0.00027223,-0.00004181
 ,0.00025710,0.00006383,0.00001139,-0.00021964,0.00008085,-0.00002129,0
 .00015676,-0.00012299,0.00011092,-0.00038398,0.00019455,0.00014523,-0.
 00014657,0.00018239,-0.00024340,0.00021180,-0.00019941,-0.00045575,0.0
 0077079,0.00018102,0.00004116,-0.00053280,0.00206441,0.00429438,-0.002
 46638,-0.00071179,0.00163761,-0.00187978,-0.02757813,-0.04558992,0.016
 50011,-0.01813009,-0.00172557,-0.00225766,-0.00049878,-0.02355943,-0.0
 2273664,-0.11141428,0.01050182,0.01112878,0.02822834,0.00158676,0.0017
 4392,0.00056028,-0.00053572,-0.00181605,-0.00079045,0.00564684,0.00111
 535,-0.00243547,0.00664089,-0.03210740,-0.04191012,0.04447148,-0.04177
 802,-0.14867271,0.03409136,0.08957814,0.68368751,0.00002556,0.00002581
 ,-0.00016931,0.00005351,-0.00019590,-0.00004297,-0.00130079,0.00035999
 ,-0.00040469,0.00247288,0.00085347,-0.00052541,0.00230784,-0.00077894,
 -0.00042548,-0.00107555,-0.00120538,0.00147292,-0.00000565,0.00011591,
 0.00010823,-0.00001471,-0.00003802,-0.00002790,0.00005043,-0.00003943,
 -0.00000357,-0.00000309,-0.00009392,0.00000174,0.00080290,0.00005081,0
 .00022377,0.00369063,0.00775986,-0.00330818,0.01315779,-0.00609645,0.0
 1044060,-0.00292011,0.01906278,-0.02637483,0.00740153,-0.00889254,0.00
 079557,-0.00159884,0.00082593,0.00381256,0.00012262,0.00192638,-0.0012
 0072,-0.00015657,-0.00013761,0.00007107,0.00001857,0.00038855,-0.00000
 244,0.00000006,0.00000007,0.00000001,-0.00007392,-0.00016412,0.0000054
 4,0.00014982,0.00046766,0.00021742,-0.00022485,-0.00092688,-0.00038543
 ,0.00065776,-0.00032366,0.00070837,-0.00116254,0.00086693,-0.00031400,
 -0.00191726,-0.00051235,0.00271263,-0.03619250,0.01769300,0.02856395,-
 0.19558257,0.05183252,-0.04012271,-0.00294628,-0.00140951,-0.00212088,
 0.00382668,-0.00431389,-0.03108566,-0.00502567,-0.00227246,0.01116097,
 0.00028976,-0.00247321,-0.00149505,-0.00057842,0.00172901,0.00036011,0
 .00127625,0.00180272,0.00100356,-0.00105565,0.00393764,0.00786797,0.02
 871144,-0.00334929,0.00861951,-0.13141680,0.00013664,-0.04482857,0.534
 24263,-0.00020694,0.00084479,0.00053232,0.00031145,0.00074017,0.000392
 28,0.00187385,0.00038983,0.00038902,0.00005542,-0.00209927,0.00024471,
 0.00041530,-0.00152943,-0.00024712,-0.00107117,0.00074714,0.00045030,0
 .00006271,-0.00039385,-0.00029199,0.00003802,0.00020155,0.00015574,-0.
 00013743,-0.00045012,-0.00022245,-0.00011858,-0.00024453,-0.00014108,-
 0.00165788,-0.00096459,-0.00016112,0.00522269,0.00401292,0.00246827,-0
 .00279208,-0.01073895,0.02274834,0.01195230,-0.01061388,0.01832496,-0.
 00325132,0.00337215,0.00459203,-0.00050042,0.00057882,-0.00276035,0.00
 121081,-0.00150191,-0.00008450,-0.00012033,0.00073248,0.00020852,0.000
 01771,-0.00044361,-0.00012105,-0.00000009,-0.00000010,-0.00000002,0.00
 006842,0.00019439,-0.00002464,-0.00013337,-0.00034093,-0.00020317,0.00
 021707,0.00031878,0.00010071,-0.00020746,-0.00004940,-0.00040706,-0.00
 018848,-0.00034382,0.00021515,0.00444904,0.00073748,0.00028959,0.00818
 479,-0.00486433,-0.01316328,0.03830199,-0.06623732,0.02414951,-0.00088
 587,-0.00036544,-0.00238824,0.00145760,-0.00219908,-0.00168122,-0.0041
 9726,-0.00011319,0.00344778,0.00164460,0.00065858,0.00007359,-0.000700
 49,-0.00013317,-0.00079346,-0.00036430,-0.00056437,0.00099144,-0.00001
 006,0.00150541,-0.00314977,-0.00270905,-0.00166201,-0.00039110,0.00102
 690,-0.03972322,0.00188352,-0.02009533,0.19728653,0.00012566,-0.000839
 05,-0.00039798,-0.00025439,-0.00071538,-0.00032903,-0.00167936,-0.0000
 8321,-0.00016620,-0.00134707,0.00097173,-0.00036214,-0.00016621,0.0012
 7514,-0.00041210,0.00165856,0.00018604,-0.00101888,-0.00002059,0.00037
 058,0.00019670,-0.00002789,-0.00015568,-0.00012056,0.00010389,0.000388
 19,0.00018699,0.00012101,0.00016013,0.00015298,0.00162415,0.00096742,0
 .00036882,-0.00860791,-0.00482140,0.00142856,0.00666513,0.03243915,-0.
 04255330,-0.02432767,0.02664937,-0.02688111,0.00556447,-0.00076942,-0.
 00286282,-0.00048603,0.00202923,-0.00039255,-0.00125816,0.00026917,0.0
 0121389,0.00022503,-0.00017034,-0.00034304,-0.00007113,-0.00001467,0.0
 0025019,-0.00000002,-0.00000005,0.00000004,0.00006121,0.00022776,-0.00
 004713,-0.00004249,0.00002797,-0.00001235,0.00017219,0.00014100,0.0002
 1978,0.00023699,-0.00069595,-0.00035063,0.00142361,0.00019401,0.002228
 17,0.00198430,-0.00221054,-0.00103498,0.00817119,-0.00982151,0.0275127
 8,-0.02314297,0.02222316,-0.11016234,0.00165620,0.00259359,0.00048884,
 -0.04528096,-0.01682254,-0.01861723,0.00231855,0.00162521,-0.02699498,
 0.00397983,0.00103408,-0.00144112,0.00199856,0.00155790,-0.00159803,-0
 .00621772,-0.00338697,0.00073758,0.00647568,0.00555537,0.00782981,0.02
 424437,-0.01655427,-0.04265622,-0.04281594,-0.00214986,-0.32512334,0.0
 3357559,-0.08887658,0.68366337,-0.00005542,-0.00072586,-0.00003036,0.0
 0023731,-0.00092707,-0.00001339,0.00037424,0.00125372,0.00094480,0.000
 31677,-0.00187039,-0.00087565,0.00014777,0.00175551,0.00070624,0.00047
 866,0.00207227,-0.00094390,0.00012997,0.00033337,0.00006846,0.00005043
 ,0.00013742,0.00010392,-0.00000786,0.00022511,0.00002693,0.00013549,0.
 00014871,0.00005686,0.00063287,-0.00021729,-0.00031257,0.03022090,0.00
 773192,0.00239894,-0.13048203,0.01909162,-0.04458393,-0.04554147,0.021
 76751,-0.01693167,-0.00227732,-0.00674329,0.00421302,-0.00066479,0.001
 08003,0.00059752,-0.00076230,-0.00142353,0.00141736,-0.00011175,-0.001
 03442,-0.00038595,0.00006669,0.00057854,0.00020578,-0.00002904,0.00002
 775,0.00003165,0.00000007,0.00000010,0.00000008,-0.00007461,-0.0002696
 2,-0.00016779,0.00004606,0.00047530,0.00043157,-0.00006602,-0.00084317
 ,-0.00077870,0.00019851,0.00017946,-0.00172397,-0.00053868,0.00134656,
 -0.00003532,0.00107235,-0.00028446,-0.01057106,-0.05566868,0.00480365,
 0.01414549,-0.02102329,0.00279142,-0.01634235,-0.02213731,-0.01008581,
 0.00023125,-0.01104068,-0.00132376,-0.04174606,0.00792006,0.00707718,0
 .00404948,0.00007571,-0.00190285,-0.00400060,-0.00165761,-0.00025284,0
 .00062906,0.00094082,0.00138886,0.00091552,0.00089192,-0.00231202,-0.0
 0110944,0.02889969,0.00211750,0.02400568,-0.15809406,-0.02631743,0.045
 01076,0.66046834,-0.00015839,0.00041677,0.00030533,-0.00078530,-0.0005
 6597,-0.00048910,0.00027260,0.00041966,-0.00060943,-0.00111554,-0.0022
 4965,0.00439178,-0.00332892,-0.00145053,0.00020056,0.00168003,-0.00131
 670,-0.00026660,0.00012992,-0.00036517,-0.00019769,0.00003942,-0.00045
 008,-0.00038829,-0.00022511,0.00092132,0.00063641,0.00036210,0.0006954
 4,0.00033423,0.00175187,0.00014420,-0.00057028,-0.00378731,-0.02874800
 ,0.01534990,0.02929792,-0.10730451,0.07361178,0.01666848,0.00185293,0.
 00148729,-0.00089730,0.00758702,-0.00054250,-0.00032621,0.00003858,-0.
 00084695,-0.00096742,0.00059850,0.00056759,0.00017432,0.00043272,0.000
 06552,-0.00009917,-0.00028073,-0.00006561,-0.00008797,0.00013740,0.000
 19639,-0.00000002,-0.00000012,-0.00000013,0.00003617,0.00013043,0.0000
 8688,-0.00002839,-0.00015848,-0.00018855,0.00002136,0.00037302,0.00030
 616,0.00056904,-0.00044381,0.00124315,0.00047123,-0.00029084,-0.002032
 39,0.00496143,0.00019658,-0.00122635,-0.00660896,0.00757502,-0.0019191
 8,0.00388381,-0.00341280,0.00667230,-0.01211217,-0.00448794,-0.0027261
 0,0.00427610,0.00641935,-0.01745847,0.00095491,0.00423902,0.00157016,0
 .00063518,-0.00074428,-0.00207667,-0.00034462,-0.00057594,-0.00088380,
 0.00017373,0.00001381,0.00071949,0.00228716,0.00174380,-0.00167190,0.0
 0335383,-0.00207174,0.01687284,-0.03946234,-0.06635291,0.04291274,0.10
 332064,0.28941309,0.00000883,0.00022646,-0.00009294,0.00057569,-0.0001
 6925,0.00032628,0.00034725,0.00055826,-0.00030902,0.00190163,0.0007622
 4,0.00048125,0.00133801,0.00276875,-0.00084858,-0.00133150,0.00030449,
 0.00072860,-0.00006220,0.00010761,0.00007159,-0.00000357,0.00022233,0.
 00018696,0.00002690,-0.00063618,-0.00038906,-0.00019388,-0.00036287,-0
 .00027022,-0.00002279,0.00341466,-0.00009317,0.01626739,0.03307398,-0.
 01749266,-0.06251456,0.07953008,-0.15379199,-0.02521563,0.00576896,0.0
 0401247,0.00480165,-0.00713724,0.00329039,0.00028123,-0.00222731,0.001
 53372,0.00147007,0.00033920,-0.00107827,-0.00006678,0.00009724,0.00011
 451,0.00000835,-0.00001960,0.00001040,0.00001525,-0.00003647,-0.000057
 10,0.00000001,-0.00000011,0.00000005,0.00001104,0.00004004,0.00001643,
 -0.00005508,-0.00006567,-0.00009468,0.00011165,-0.00003527,0.00014647,
 -0.00144865,0.00147663,-0.00101421,-0.00075783,-0.00046708,0.00152114,
 -0.00500653,0.00401392,0.00640713,0.01488292,-0.00384470,0.00833085,-0
 .02013593,0.00066176,-0.01390611,0.00942264,0.00708988,0.00067423,-0.0
 2452908,-0.01722917,-0.00733353,-0.00239462,0.00108996,-0.00194818,-0.
 00186026,-0.00264604,-0.00003024,0.00136208,0.00245497,0.00002387,0.00
 138576,0.00037851,-0.00042267,-0.00127270,0.00164074,-0.00441828,0.009
 57104,0.00088013,-0.04346872,0.05949856,0.03727598,-0.14875124,0.08656
 687,-0.13827127,0.47777349,0.00004206,0.00031733,-0.00000980,0.0000214
 9,0.00025649,-0.00007290,0.00331158,-0.00086062,0.00167376,-0.00011241
 ,-0.00255332,0.00189561,-0.00069857,-0.00197278,0.00035829,-0.00009016
 ,-0.00063130,0.00038634,-0.00004447,-0.00006625,0.00000379,-0.00000309
 ,0.00011856,0.00012103,0.00013549,-0.00036205,-0.00019394,-0.00016005,
 0.00041120,0.00017048,-0.00134890,0.00702632,-0.00420782,-0.01931909,-
 0.01159845,-0.00225449,-0.02687126,0.02216782,-0.03294262,0.01065557,-
 0.00048654,-0.00298179,-0.00144291,0.00575193,-0.00350104,0.00030284,0
 .00004121,-0.00092713,0.00054456,-0.00026749,-0.00036975,-0.00014947,0
 .00030861,0.00017053,0.00007615,-0.00017892,-0.00017575,0.00001549,-0.
 00003087,-0.00003359,-0.00000709,0.00000346,0.00000105,-0.00000005,0.0
 0000013,0.00000005,0.00007659,-0.00028945,-0.00005035,-0.00016661,0.00
 035017,0.00018323,0.00064433,-0.00067983,0.00000886,0.00008921,-0.0007
 2751,0.00050420,-0.00340358,0.00029765,0.00506538,0.00784442,-0.004679
 37,0.00418269,0.02341780,0.00134116,0.02197396,0.01382625,0.01127578,0
 .01526498,-0.08736193,-0.02706162,-0.03341154,-0.00967944,-0.01307628,
 -0.02727517,0.00085214,0.00095051,0.00260754,-0.00114350,-0.00232250,-
 0.00099937,0.00303513,0.00044290,0.00006299,-0.00006858,0.00083450,-0.
 00249852,-0.01310194,-0.00495751,-0.00898518,-0.03881387,-0.01368727,0
 .02027106,-0.25967604,-0.08253210,-0.06831483,0.52220070,0.00000881,-0
 .00002408,0.00025733,-0.00020489,0.00109197,0.00015961,0.00116976,-0.0
 0298755,0.00017105,0.00078680,-0.00177622,0.00017073,-0.00052655,-0.00
 151143,0.00167918,0.00000007,-0.00000865,-0.00007672,0.00025703,-0.000
 13155,-0.00013202,0.00009392,-0.00024452,-0.00016020,-0.00014873,0.000
 69543,0.00036302,-0.00041123,-0.00132644,0.00040001,-0.00369750,0.0034
 9371,0.00271408,-0.01939701,-0.01159918,0.00083890,0.00012925,0.016328
 42,-0.01808076,0.00769055,0.00040764,0.00227527,-0.00072819,0.00222815
 ,-0.00206464,0.00015989,-0.00016421,0.00009223,-0.00005267,0.00014590,
 0.00002852,0.00004461,-0.00005439,-0.00006161,-0.00011514,0.00013066,0
 .00016948,0.00002753,0.00001809,0.00009802,-0.00002319,0.00001105,0.00
 000315,0.00000078,-0.00000015,-0.00000032,0.00000055,-0.00000714,-0.00
 000208,0.00000133,0.00000522,-0.00002202,0.00045128,-0.00038588,-0.000
 18784,-0.00059312,0.00050366,0.00015592,-0.00032020,-0.00035454,-0.000
 39146,0.00322487,0.00027516,0.00354678,0.03061694,-0.02582073,0.042151
 61,0.00617303,0.00743331,0.01562846,-0.02356172,-0.07082816,0.01426750
 ,-0.00994043,-0.00541130,-0.02516202,-0.00465994,0.00083493,-0.0008481
 6,0.00004676,-0.00031434,-0.00073142,0.00094275,-0.00011715,0.00148077
 ,-0.00119221,0.00019745,0.00001291,-0.00243942,0.00004514,-0.00051183,
 -0.02126915,-0.00529412,-0.00305023,-0.08709262,-0.09012688,0.00780275
 ,0.21284214,0.36439401,0.00010938,0.00009699,-0.00010670,0.00012583,-0
 .00064878,-0.00003710,0.00114952,0.00293087,-0.00034026,-0.00198338,0.
 00082012,-0.00002210,0.00158184,-0.00085573,-0.00060911,-0.00001515,-0
 .00011853,0.00015413,-0.00010522,0.00004547,0.00006478,0.00000176,0.00
 014101,0.00015298,0.00005683,-0.00033405,-0.00027021,0.00017043,-0.000
 40033,0.00030563,-0.00095873,-0.00204692,-0.00120040,0.00458001,0.0053
 9633,-0.00206115,-0.02975584,-0.00771641,-0.00500917,0.00125208,0.0031
 8839,-0.00264562,0.00013426,-0.00105019,0.00023376,-0.00084291,0.00067
 640,0.00008811,0.00066648,-0.00061397,-0.00025673,-0.00005588,0.000074
 91,0.00007480,0.00007647,-0.00010683,-0.00012708,0.00003322,-0.0000545
 3,-0.00004171,-0.00001431,0.00000673,0.00000207,0.00000026,-0.00000020
 ,0.00000020,-0.00008482,0.00020687,0.00000281,0.00000940,-0.00004117,0
 .00002956,-0.00030393,0.00027736,0.00018080,0.00060685,-0.00042078,-0.
 00021202,-0.00109794,-0.00052503,0.00443148,0.00741031,0.00038683,-0.0
 0030545,-0.00811310,0.03529489,-0.02540760,0.03226092,0.01426379,-0.03
 274016,-0.02856769,-0.00199593,-0.22626801,-0.02863942,-0.03100989,-0.
 03127750,-0.00493134,0.00333999,0.01135877,0.00275873,0.00113558,0.000
 04724,0.00057191,0.00015455,-0.00094798,0.00120429,-0.00142510,-0.0023
 4833,-0.01680348,-0.00136911,-0.01798301,0.00504800,-0.00653043,0.0302
 5445,-0.07610495,0.00434847,-0.13103814,0.12093855,-0.07105684,0.53388
 357,0.00069614,0.00016419,0.00054906,0.00039860,-0.00074705,0.00145095
 ,-0.00103170,-0.00134232,-0.00130585,0.00014154,0.00151369,0.00028463,
 0.00024630,0.00037736,-0.00013507,0.00076345,0.00022891,-0.00024499,-0
 .00205898,0.00023713,-0.00109799,0.00028937,-0.00164508,0.00397934,0.0
 0792013,-0.00095464,-0.00239464,-0.00967965,0.00994705,-0.02863714,0.0
 0051293,0.00349146,-0.00210554,-0.00000738,-0.00107452,-0.00041611,0.0
 0009909,0.00010801,0.00000392,-0.00012179,-0.00016445,0.00002321,-0.00
 024091,-0.00026763,0.00003229,0.00020229,0.00014486,-0.00007308,-0.000
 42589,-0.00014861,0.00017362,-0.00052533,-0.00020286,-0.00012357,0.000
 83667,0.00023056,0.00010247,-0.00046173,0.00347931,0.00158723,-0.00059
 516,0.00085837,-0.00086888,-0.00021050,-0.00057594,0.00052818,0.000526
 29,0.00057759,0.00001927,-0.00039840,-0.00039525,0.00006208,0.00021570
 ,0.00016992,0.00015090,-0.00000026,-0.00000007,0.00000005,0.00008994,-
 0.00000122,0.00003368,-0.00000098,-0.00001055,0.00004640,-0.00032947,0
 .00079609,0.00128570,-0.00109969,-0.00048145,0.00060856,0.00069342,0.0
 0159261,0.00008428,-0.00049792,0.00017609,0.00417539,0.00569587,-0.002
 14050,-0.00641520,0.00165394,0.00000022,0.00126217,0.00081098,0.000015
 32,-0.00011444,0.00001704,-0.00010991,-0.00008458,0.00004761,0.0002922
 5,0.00015135,0.00000177,-0.00004675,-0.00000264,-0.00002014,-0.0000161
 8,-0.00012590,-0.00003587,0.00092007,0.00008953,0.30914605,-0.00047104
 ,-0.00031876,-0.00120224,-0.00024169,0.00080425,0.00052532,0.00112300,
 0.00084278,0.00185192,-0.00022970,-0.00108386,-0.00060895,0.00004180,0
 .00010393,0.00008567,-0.00015947,-0.00008299,0.00006907,0.00093217,0.0
 0016741,0.00083013,0.00247340,0.00065880,-0.00103364,-0.00707762,0.004
 23927,-0.00108872,0.01308155,-0.00541988,0.03101384,0.00339800,0.00133
 745,0.00101384,0.00021686,0.00065371,0.00019490,0.00009612,-0.00005823
 ,-0.00012726,-0.00011043,-0.00001331,-0.00007013,-0.00000405,0.0000142
 9,0.00001349,-0.00001738,-0.00002105,0.00000444,0.00010654,0.00006324,
 -0.00003024,0.00020387,0.00008289,0.00002953,0.00008264,-0.00007102,0.
 00003778,-0.00303154,0.00242863,-0.00174355,0.00067272,-0.00026098,-0.
 00055856,-0.00010538,0.00051438,-0.00047819,-0.00064703,-0.00036635,-0
 .00000390,0.00028392,0.00020766,0.00000359,-0.00000345,-0.00003179,0.0
 0000865,-0.00000028,0.00000004,0.00000007,0.00024762,-0.00000480,0.000
 07255,-0.00002421,-0.00002355,0.00008498,-0.00038005,-0.00128459,0.001
 20876,0.00067660,-0.00148933,0.00051109,0.00155052,0.00458671,0.000029
 45,-0.00017681,-0.01149554,0.00510880,-0.01143183,-0.02917715,0.028376
 29,0.00502907,-0.00266414,-0.00308692,0.00042763,-0.00043173,-0.000169
 20,0.00043854,0.00015853,-0.00001703,0.00032704,0.00068811,0.00016360,
 -0.00034118,-0.00036333,-0.00005835,0.00072687,-0.00014777,0.00057455,
 -0.00084718,0.00109875,-0.00067359,-0.13195273,0.49214277,0.00052147,-
 0.00097461,-0.00149666,0.00013704,-0.00079448,0.00033216,-0.00076581,0
 .00004477,0.00061660,-0.00027184,0.00130087,0.00001858,0.00036362,0.00
 062948,-0.00011220,0.00086354,0.00033559,-0.00020623,-0.00062542,0.000
 61404,0.00125870,-0.00149476,-0.00007315,-0.00144144,0.00404812,-0.001
 56890,-0.00194860,-0.02727190,0.02516585,-0.03126673,0.00082169,0.0022
 5411,-0.00058764,-0.00032004,-0.00144065,-0.00057683,0.00031221,0.0001
 7324,0.00007643,-0.00016428,-0.00026483,0.00006118,-0.00037036,-0.0003
 4574,0.00004797,0.00026372,0.00017800,-0.00009751,-0.00055493,-0.00020
 206,0.00013316,-0.00014255,-0.00003347,0.00026124,0.00036894,-0.000027
 03,-0.00032324,0.00330657,-0.00060705,0.00056007,-0.00052306,-0.002121
 99,0.00186729,0.00072857,0.00012372,-0.00016660,-0.00022407,-0.0002814
 8,0.00012236,-0.00005035,0.00001478,-0.00000513,-0.00014396,-0.0000919
 5,-0.00010898,-0.00000021,-0.00000001,0.00000021,-0.00002347,-0.000000
 62,-0.00002875,-0.00010052,-0.00005058,-0.00000106,-0.00013025,-0.0015
 2996,0.00156078,0.00019510,-0.00145110,-0.00142729,0.00168436,0.001962
 50,-0.00052495,0.00417564,-0.00510808,-0.00969942,0.00099345,0.0321283
 5,0.00212814,-0.00703072,-0.00590655,0.00768745,-0.00082649,0.00008330
 ,0.00028094,-0.00035996,-0.00004081,0.00009966,0.00003229,-0.00031973,
 -0.00050043,0.00000478,-0.00008565,0.00019740,0.00037453,-0.00005770,0
 .00046987,-0.00124334,0.00096407,-0.00034778,-0.08934494,-0.14820139,0
 .64251524,0.00005923,0.00006145,0.00011215,-0.00021294,0.00042276,-0.0
 0004125,0.00026350,-0.00000719,-0.00011042,-0.00012051,-0.00010345,-0.
 00009040,-0.00003593,-0.00002161,-0.00001543,-0.00010597,-0.00007207,-
 0.00006096,0.00028695,-0.00027235,0.00009575,-0.00057837,0.00070016,0.
 00199877,0.00007563,-0.00063472,-0.00186061,0.00085183,0.00466130,-0.0
 0493128,0.00019238,-0.00030680,-0.00062493,-0.00008339,0.00001081,-0.0
 0002046,-0.00001205,0.00000420,-0.00013035,-0.00006185,0.00001933,-0.0
 0008060,0.00003553,0.00000111,0.00000334,-0.00000004,-0.00000006,-0.00
 000002,0.00017746,0.00015346,0.00011001,-0.00035916,-0.00009814,-0.000
 47696,0.00049104,0.00023958,0.00055905,-0.00234533,-0.00007811,-0.0005
 3587,-0.00190113,0.00077541,0.00014079,0.00012292,0.00013647,-0.000749
 65,0.00063480,0.00008199,0.00032333,-0.00049914,-0.00010187,-0.0002533
 9,-0.00038125,0.00010473,-0.00033187,0.00016267,-0.00001595,0.00020903
 ,-0.00028750,-0.00008263,-0.00036634,-0.00013753,-0.00005260,-0.000236
 31,-0.00027127,-0.00051482,-0.00116249,0.00039300,0.00102070,-0.000542
 26,0.00017445,-0.00446422,0.00028137,0.00569762,0.01143181,0.00099600,
 -0.05469839,0.01294615,0.01855721,-0.00596553,-0.01637294,0.00814976,-
 0.00219381,-0.00263127,-0.00062046,-0.00058677,0.00128316,0.00154794,0
 .00014839,-0.00134121,-0.00144550,0.00036045,0.00032914,0.00057705,0.0
 0016212,0.00005865,0.00011333,-0.00081428,-0.00031160,-0.00007690,-0.0
 6764667,0.00937492,0.05283637,0.29225540,-0.00032225,-0.00013007,-0.00
 042812,-0.00044526,-0.00016805,-0.00059053,-0.00092079,-0.00003842,-0.
 00082432,0.00002319,0.00018658,0.00004725,0.00000207,0.00003835,0.0000
 0825,0.00011247,0.00007335,0.00006272,-0.00059109,0.00035574,-0.000255
 41,-0.00172893,-0.00013320,-0.00155765,0.00190346,-0.00074517,0.002645
 99,-0.00095067,0.00083512,-0.00334198,0.00095144,0.00041902,0.00244179
 ,-0.00030459,-0.00032366,-0.00026670,0.00001561,-0.00005137,-0.0002414
 4,-0.00017622,0.00003469,-0.00019614,0.00008887,-0.00000947,0.00001587
 ,0.00000002,0.00000005,0.00000001,-0.00015497,-0.00012997,-0.00008282,
 0.00012291,0.00005601,0.00018216,-0.00053120,-0.00007535,-0.00059723,0
 .00258150,-0.00052097,0.00181596,0.00008369,-0.00004531,-0.00186064,0.
 00060857,-0.00019361,0.00068344,0.00030964,-0.00034652,0.00015841,0.00
 010403,0.00021756,-0.00006346,-0.00024884,0.00002438,-0.00017354,0.000
 11921,-0.00001866,0.00014457,-0.00031912,-0.00005068,-0.00034636,-0.00
 030659,-0.00009376,-0.00030263,0.00148820,-0.00099918,0.00098634,-0.00
 122430,-0.00031274,-0.00318442,0.00657764,0.00313928,0.00013926,0.0021
 4366,-0.02916963,-0.03213630,-0.01294386,-0.19226842,0.00626506,-0.022
 68938,-0.03187619,0.01714724,-0.00051134,0.00146332,0.00103667,-0.0004
 5307,0.00008184,0.00004209,-0.00029303,-0.00095108,-0.00088129,0.00039
 387,0.00014377,0.00042019,0.00076081,0.00053115,0.00038204,-0.00120258
 ,-0.00058258,-0.00090848,-0.00102319,-0.16991875,0.13002115,-0.0445059
 8,0.54560202,-0.00027582,0.00013715,0.00012005,0.00107946,0.00047635,0
 .00112385,0.00178185,-0.00029125,0.00095798,-0.00038215,-0.00035735,-0
 .00020014,-0.00011172,-0.00003408,-0.00004070,-0.00020503,-0.00008322,
 -0.00006537,0.00039361,-0.00029601,-0.00027592,0.00035966,0.00079383,-
 0.00159818,-0.00400033,0.00207674,-0.00002963,0.00260733,0.00084604,0.
 01135824,-0.00119503,-0.00218687,-0.00411740,-0.00038966,-0.00008384,-
 0.00001310,-0.00001586,-0.00008112,-0.00012385,-0.00004290,0.00001593,
 -0.00003891,0.00018019,0.00000740,0.00001593,-0.00000005,-0.00000004,0
 .,0.00012044,0.00008965,0.00002722,0.00016612,0.00003423,0.00010483,-0
 .00022225,-0.00003464,-0.00008298,0.00267770,-0.00185037,-0.00079056,0
 .00016092,-0.00062818,0.00145448,-0.00090110,0.00008185,0.00012657,-0.
 00001531,0.00012113,-0.00007815,0.00007783,-0.00009222,0.00010880,0.00
 019251,-0.00000424,0.00015963,-0.00005925,0.00000422,-0.00007807,0.000
 12121,0.00003544,0.00012539,-0.00009258,-0.00002175,0.00008151,0.00113
 837,0.00112454,-0.00113583,-0.00057590,-0.00100804,-0.00001924,0.00279
 890,-0.00192858,-0.00348226,-0.00641666,-0.02838204,0.00211762,0.01855
 750,-0.00628461,-0.07979222,0.01367316,0.02108512,-0.00388443,0.000695
 19,0.00091663,-0.00013502,0.00063383,-0.00090880,-0.00093901,0.0000628
 2,0.00091390,0.00120318,0.00036011,0.00005817,-0.00012765,-0.00029311,
 -0.00042561,-0.00037862,0.00110130,0.00068929,0.00045919,0.05979951,0.
 10021900,-0.30460492,-0.18679598,-0.12500639,0.56993592,0.00011144,0.0
 0000094,-0.00015837,-0.00025519,0.00004581,0.00029273,0.00006583,-0.00
 009901,-0.00002331,0.00000143,0.00004052,0.00003725,0.00002717,0.00005
 882,0.00003898,-0.00008507,-0.00010703,-0.00014319,0.00105119,0.000363
 42,0.00037201,0.00127626,0.00036537,-0.00621760,-0.00165753,0.00034432
 ,0.00136232,-0.00114365,-0.00004741,0.00275918,-0.00008113,-0.00047426
 ,-0.00085129,0.00000830,-0.00000098,0.00000490,-0.00003708,-0.00000493
 ,-0.00005035,0.00001188,-0.00000381,0.00001730,0.,-0.00000007,-0.00000
 011,0.00006306,0.00014490,0.00031890,-0.00013622,-0.00016431,-0.000269
 78,0.00059921,0.00012055,0.00091318,-0.00071117,-0.00013406,0.00019973
 ,0.00777032,-0.00370691,0.00564673,-0.00138442,-0.00154328,0.00511455,
 -0.00171934,-0.00030095,-0.00056242,0.00087293,-0.00011356,0.00182554,
 0.00075326,0.00026873,-0.00012059,0.00046698,-0.00005223,0.00081817,-0
 .00024835,0.00004199,-0.00042304,-0.00010459,-0.00027745,-0.00035058,-
 0.00006184,0.00003795,0.00000671,0.00007520,0.00010635,0.00021512,-0.0
 0026914,0.00051216,-0.00043258,0.00148852,0.00076990,-0.00193443,0.001
 65353,-0.00502697,-0.00703185,-0.00596504,0.02268718,0.01367826,0.0115
 9832,-0.00001978,-0.00346594,-0.00179844,0.00367348,0.00072152,-0.0000
 3696,-0.00196098,-0.00137435,-0.00018158,0.00167114,0.00177682,0.00000
 499,-0.00012836,-0.00012564,0.00013369,0.00006084,0.00001439,0.0001011
 0,0.00002959,0.00062066,-0.00175433,-0.02726008,0.03085730,-0.13049750
 ,0.05640095,0.07980730,0.45259967,-0.00063142,-0.00014211,-0.00055102,
 0.00011752,-0.00000772,-0.00039588,-0.00001013,0.00022393,0.00023745,-
 0.00000624,-0.00004088,-0.00004047,-0.00005918,-0.00008826,-0.00005925
 ,0.00010570,0.00011348,0.00013855,0.00009913,-0.00021455,0.00060385,-0
 .00180297,-0.00056465,0.00338659,0.00025273,-0.00057567,-0.00245507,0.
 00232291,-0.00031447,-0.00113549,0.00005821,-0.00004582,0.00006134,-0.
 00002334,0.00009103,-0.00006173,-0.00004470,0.00005908,-0.00020865,0.0
 0014136,-0.00003101,0.00016419,-0.00000009,0.00000009,-0.00000005,0.00
 000439,-0.00001962,0.00002606,0.00008746,0.00009843,0.00010642,-0.0001
 9091,0.00000304,-0.00039647,0.00005840,0.00003368,-0.00041387,-0.00891
 646,0.00392133,-0.00111410,-0.00619464,0.00706530,-0.00673553,0.005304
 89,0.00248107,-0.00121222,-0.00134649,-0.00250268,0.00124636,-0.000172
 31,-0.00028290,0.00013179,0.00022990,0.00015389,0.00041926,-0.00027003
 ,-0.00001131,-0.00038146,-0.00040608,-0.00004915,-0.00028141,-0.000465
 19,-0.00003261,-0.00036267,-0.00010299,-0.00034605,-0.00011390,0.00061
 677,0.00052984,-0.00073465,-0.00192909,-0.00317460,-0.00244064,0.00000
 006,-0.00266468,0.00590667,0.01636948,-0.03186759,-0.02109229,0.000020
 64,-0.06123810,-0.00562134,-0.00150574,0.00149990,-0.00097539,-0.00184
 859,-0.00145962,-0.00064483,0.00045789,0.00054556,-0.00000940,0.000962
 53,0.00012959,0.00074738,-0.00002546,-0.00038073,0.00018191,-0.0007649
 1,-0.00102721,0.00192354,-0.01372729,0.02469094,0.00535709,0.02998747,
 -0.10423689,-0.00920025,-0.13738325,0.62593925,0.00054677,0.00009261,0
 .00043147,-0.00005588,-0.00003282,0.00038557,-0.00019465,-0.00024181,-
 0.00063994,-0.00000128,0.00007563,0.00004992,0.00014189,0.00017756,0.0
 0011897,-0.00013300,-0.00013861,-0.00015024,-0.00021274,0.00035344,-0.
 00050124,0.00100360,-0.00099203,0.00073848,0.00062903,0.00088363,0.000
 02367,-0.00099891,0.00073170,0.00004675,0.00031825,0.00118250,0.001062
 74,-0.00007380,-0.00010385,-0.00013087,0.00002377,0.00004279,-0.000051
 27,0.00006030,-0.00001169,0.00006551,-0.00000030,-0.00000014,-0.000000
 10,0.00000569,0.00002894,0.00002641,-0.00008470,-0.00009307,-0.0000893
 7,-0.00028266,-0.00011748,-0.00015005,0.00045933,0.00006115,0.00097644
 ,0.00062595,0.00408747,-0.00243495,0.00293616,0.00045306,0.00247740,-0
 .00310295,-0.00224413,0.00056403,-0.00057740,0.00093128,-0.00100680,-0
 .00004223,0.00021727,-0.00024864,-0.00032911,-0.00007703,-0.00030025,0
 .00003568,0.00003283,0.00005947,-0.00009268,0.00001876,-0.00002705,-0.
 00015759,-0.00001575,-0.00010181,-0.00001191,-0.00017319,0.00006894,-0
 .00094629,0.00074288,0.00046225,-0.00234894,-0.00015154,0.00145829,0.0
 0126222,0.00308437,0.00768856,0.00815249,-0.01715087,-0.00389097,-0.00
 346599,0.00561044,0.00736859,0.00073594,-0.00043530,-0.00003403,-0.000
 26607,0.00059349,0.00065059,0.00037299,-0.00119414,-0.00116389,0.00047
 105,0.00016789,0.00034860,-0.00011627,-0.00021674,0.00012061,-0.000271
 38,-0.00060439,-0.00000253,0.01153826,0.01578137,-0.03821874,0.0780673
 8,-0.02969035,-0.13040969,-0.15150127,-0.10201783,0.33112562,-0.000032
 27,-0.00003681,0.00003595,0.00004399,-0.00004164,-0.00018247,-0.000009
 27,0.00000965,0.00001681,-0.00000942,0.,-0.00000651,0.00000013,0.,-0.0
 0000008,0.00001314,0.00006838,0.00022881,0.00018484,0.00012872,-0.0000
 2621,-0.00023501,0.00028113,-0.00068142,0.00006098,-0.00000039,0.00022
 137,0.00035324,-0.00038777,0.00008655,-0.00000464,0.00002818,0.0002529
 7,-0.00000927,-0.00000965,0.00001681,0.00004399,0.00004167,-0.00018246
 ,-0.00003227,0.00003680,0.00003596,0.00001314,-0.00006841,0.00022880,-
 0.00006266,0.00001941,-0.00034944,-0.00006266,-0.00001935,-0.00034944,
 0.00052422,0.00022554,0.00071578,0.00001932,-0.00070137,0.00034009,0.0
 0267765,0.00009010,-0.00007344,0.00012615,-0.00365151,0.00138686,-0.00
 032291,-0.00176597,0.00185350,-0.00293851,0.00563365,-0.00378118,0.000
 03729,0.00080377,0.00024186,0.00003728,-0.00080381,0.00024171,0.000524
 22,-0.00022567,0.00071575,0.00001932,0.00070130,0.00034021,0.00018483,
 -0.00012872,-0.00002627,-0.00000468,-0.00002824,0.00025285,0.00000748,
 -0.00286120,-0.00175088,-0.00011507,0.00032244,0.00190648,-0.00066713,
 -0.00494664,-0.00495710,-0.02265769,0.01808004,0.03312552,-0.11070693,
 0.02890049,0.04073351,-0.02090877,0.00551060,0.00675581,0.00012614,0.0
 0365123,0.00138752,0.00267762,-0.00009005,-0.00007346,-0.00023497,-0.0
 0028099,-0.00068145,0.00006097,0.00000035,0.00022139,0.00035326,0.0003
 8779,0.00008666,-0.00066666,0.00494647,-0.00495405,-0.02266086,-0.0180
 8511,0.03312146,-0.11070654,-0.02890596,0.04072689,0.61582786,0.000266
 35,0.00010039,0.00034207,-0.00002426,0.00007556,0.00032400,-0.00000095
 ,-0.00004467,-0.00009897,0.,0.00000096,0.,0.,0.00000036,0.,-0.00004980
 ,-0.00008982,-0.00020751,-0.00072876,-0.00015586,-0.00087167,0.0010544
 2,0.00028685,-0.00007941,0.00006202,-0.00015576,-0.00047631,-0.0007537
 0,0.00006371,0.00251914,0.00003794,0.00018532,0.00034605,0.00000095,-0
 .00004468,0.00009895,0.00002426,0.00007560,-0.00032395,-0.00026631,0.0
 0010044,-0.00034200,0.00004979,-0.00008985,0.00020746,-0.00002264,0.00
 003575,-0.00008848,0.00002264,0.00003574,0.00008850,-0.00042301,0.0000
 1812,-0.00067482,-0.00042637,0.00023767,-0.00025035,-0.00022432,-0.002
 26291,0.00124013,0.00135087,-0.00075496,0.00236507,-0.00201224,-0.0015
 9038,-0.00067238,0.00043258,0.00306616,-0.00138898,0.00062683,-0.00011
 196,0.00076251,-0.00062689,-0.00011179,-0.00076261,0.00042302,0.000018
 01,0.00067484,0.00042638,0.00023759,0.00025039,0.00072871,-0.00015598,
 0.00087156,-0.00003795,0.00018535,-0.00034592,-0.00160502,-0.00162983,
 0.00012885,-0.00279268,-0.00122084,0.00085730,0.00017432,0.00686048,0.
 00929397,0.01530879,0.00436108,-0.01735085,0.04428776,-0.18282872,-0.0
 5919394,0.01476687,-0.00948480,-0.00424562,-0.00135110,-0.00075469,-0.
 00236510,0.00022443,-0.00226279,-0.00124056,-0.00105433,0.00028679,0.0
 0007941,-0.00006201,-0.00015584,0.00047621,0.00075365,0.00006426,-0.00
 251877,-0.00017486,0.00686354,-0.00929467,-0.01531480,0.00436076,0.017
 35766,-0.04429390,-0.18284315,0.05917499,0.00001477,0.54299730,-0.0002
 1859,-0.00007377,-0.00024581,-0.00001532,-0.00004315,-0.00021572,-0.00
 000281,0.00004381,0.00007402,0.00001534,0.,0.00000988,-0.00000069,0.,-
 0.00000050,0.00003193,0.00006099,0.00014809,0.00021388,0.00016338,0.00
 031856,-0.00067708,-0.00002074,0.00008143,0.00002725,0.00004723,0.0005
 3539,0.00019271,0.00043973,-0.00159680,0.00006579,-0.00012008,-0.00034
 585,-0.00000281,-0.00004384,0.00007402,-0.00001532,0.00004319,-0.00021
 577,-0.00021863,0.00007383,-0.00024585,0.00003194,-0.00006103,0.000148
 12,-0.00001623,0.00001245,-0.00009329,-0.00001623,-0.00001243,-0.00009
 327,-0.00007172,0.00004324,-0.00009569,0.00000587,-0.00016586,0.000003
 64,-0.00080606,0.00021400,-0.00055025,0.00091812,-0.00053059,-0.000334
 04,0.00045318,0.00146251,-0.00053270,-0.00025060,-0.00078023,-0.000302
 47,0.00020613,0.00022077,0.00034411,0.00020602,-0.00022084,0.00034394,
 -0.00007165,-0.00004322,-0.00009558,0.00000595,0.00016589,0.00000372,0
 .00021401,-0.00016346,0.00031868,0.00006583,0.00012019,-0.00034576,0.0
 0117817,-0.00341304,0.00082043,-0.00216409,-0.00003080,0.00044006,0.00
 466046,0.00335203,0.00482308,0.02318745,-0.01334432,-0.02248238,0.0390
 2437,-0.03837812,-0.08146903,0.00832353,-0.00589176,-0.00179635,0.0009
 1802,0.00053056,-0.00033430,-0.00080594,-0.00021421,-0.00055046,-0.000
 67729,0.00002074,0.00008144,0.00002727,-0.00004732,0.00053553,0.000192
 83,-0.00043944,-0.00159730,0.00466026,-0.00335176,0.00482027,0.0231868
 8,0.01334795,-0.02247724,0.03901557,0.03836046,-0.08145006,-0.17615233
 ,0.00002508,0.25346521,0.00020687,0.00012310,-0.00020942,0.00008104,-0
 .00001377,-0.00015991,-0.00002164,-0.00002822,-0.00007054,0.00000037,0
 .,0.00000042,-0.00012576,-0.00000002,0.00025045,0.00016261,0.00009619,
 -0.00052016,-0.00022329,-0.00030001,0.00043997,0.00010957,-0.00038915,
 0.00070066,0.00004015,0.00004133,-0.00007612,0.00018869,0.00007394,-0.
 00008676,0.00000460,-0.00000062,0.00005742,-0.00002164,0.00002823,-0.0
 0007053,0.00008104,0.00001380,-0.00015990,0.00020687,-0.00012306,-0.00
 020944,0.00016261,-0.00009610,-0.00052018,-0.00028304,0.00016388,0.000
 95923,-0.00028304,-0.00016404,0.00095920,-0.00041113,-0.00167048,0.000
 36501,0.00040856,0.00163805,-0.00108104,0.00209679,-0.00050506,-0.0009
 3878,0.00041841,-0.00088741,0.00245870,0.00053707,0.00076224,-0.002010
 63,-0.00115144,-0.00811969,0.00371587,-0.00043856,-0.00036866,-0.00106
 343,-0.00043856,0.00036885,-0.00106336,-0.00041114,0.00167042,0.000365
 29,0.00040858,-0.00163787,-0.00108131,-0.00022329,0.00029994,0.0004400
 4,0.00000461,0.00000061,0.00005744,-0.00080287,-0.00307118,-0.00147791
 ,-0.00154868,-0.00103484,-0.00117818,-0.00087725,0.00466777,0.00298640
 ,0.00892898,0.00272853,-0.00802692,-0.02754903,0.03593793,0.02413267,0
 .03397711,-0.00970957,-0.00321965,0.00041832,0.00088694,0.00245885,0.0
 0209673,0.00050514,-0.00093876,0.00010958,0.00038905,0.00070076,0.0000
 4016,-0.00004132,-0.00007614,0.00018864,-0.00007400,-0.00008694,-0.000
 87681,-0.00466860,0.00298499,0.00892784,-0.00272765,-0.00802659,-0.027
 54974,-0.03594323,0.02412650,-0.31375995,-0.00000474,0.06305981,0.6989
 4689,0.00012603,0.00004396,0.00035830,-0.00011913,0.00010092,0.0005160
 1,-0.00001730,-0.00008780,-0.00018303,0.,0.00000043,0.,0.,-0.00000853,
 -0.00000002,-0.00005449,-0.00001454,0.00004561,-0.00010299,-0.00022696
 ,-0.00008899,-0.00093074,0.00044552,0.00001292,0.00021788,-0.00011993,
 -0.00113124,0.00046112,0.00010883,-0.00054588,-0.00000913,0.00003992,0
 .00004026,0.00001730,-0.00008782,0.00018299,0.00011911,0.00010100,-0.0
 0051593,-0.00012603,0.00004403,-0.00035822,0.00005446,-0.00001451,-0.0
 0004555,-0.00009183,0.00010938,-0.00006217,0.00009187,0.00010939,0.000
 06208,-0.00157722,-0.00159193,-0.00100802,0.00168885,0.00066222,0.0015
 3831,0.00122625,-0.00150410,0.00084302,-0.00180912,-0.00284253,0.00047
 308,-0.00334047,-0.00225472,0.00108639,-0.00423620,0.00552623,-0.00767
 291,-0.00042882,0.00236717,-0.00098697,0.00042877,0.00236710,0.0009875
 8,0.00157723,-0.00159221,0.00100762,-0.00168877,0.00066263,-0.00153799
 ,0.00010298,-0.00022699,0.00008882,0.00000912,0.00003992,-0.00004023,0
 .00046563,-0.00151546,-0.00318143,-0.00129423,-0.00146867,0.00154297,0
 .00057305,0.00301242,0.00199678,0.00526680,-0.00359797,-0.00453115,0.0
 2027408,0.01867165,-0.00632374,0.00868643,-0.04205082,-0.02213922,0.00
 180963,-0.00284142,-0.00047344,-0.00122590,-0.00150375,-0.00084309,0.0
 0093066,0.00044551,-0.00001278,-0.00021787,-0.00012010,0.00113118,-0.0
 0046106,0.00010873,0.00054592,-0.00057300,0.00301239,-0.00199636,-0.00
 526728,-0.00359879,0.00452992,-0.02027420,0.01867015,0.00632834,-0.000
 00636,-0.12283590,-0.00000569,0.00000109,0.53047359,-0.00002676,0.0000
 1950,-0.00041862,0.00009915,-0.00007696,-0.00038961,0.00002242,0.00007
 740,0.00016564,-0.00000037,0.,-0.00000080,-0.00010165,-0.00000002,0.00
 020235,0.00015868,0.00011035,-0.00034861,0.00000818,-0.00011219,0.0006
 8805,0.00043313,-0.00003451,-0.00031690,-0.00001638,0.00013092,0.00048
 400,-0.00025661,-0.00009427,0.00020069,-0.00000299,-0.00000885,-0.0000
 7079,0.00002243,-0.00007744,0.00016566,0.00009916,0.00007705,-0.000389
 69,-0.00002678,-0.00001942,-0.00041868,0.00015869,-0.00011029,-0.00034
 864,-0.00025228,0.00015475,0.00062316,-0.00025226,-0.00015484,0.000623
 15,-0.00003698,-0.00072631,0.00072504,-0.00056966,0.00089936,-0.001239
 56,-0.00072875,-0.00004545,-0.00018274,-0.00132649,0.00461133,0.000472
 94,0.00273516,0.00005529,0.00030272,-0.00278367,-0.00243999,0.00335917
 ,0.00016319,0.00059957,-0.00114534,0.00016326,-0.00059895,-0.00114529,
 -0.00003671,0.00072591,0.00072534,-0.00056996,-0.00089904,-0.00123998,
 0.00000818,0.00011204,0.00068808,-0.00000300,0.00000886,-0.00007080,-0
 .00074499,0.00108677,0.00012726,0.00017638,-0.00142636,-0.00000324,0.0
 0020064,-0.00093592,-0.00103686,0.00200980,-0.00177183,0.00215145,0.00
 670177,-0.00593534,-0.00639536,0.00219723,-0.00906408,-0.00656003,-0.0
 0132607,-0.00461188,0.00047212,-0.00072889,0.00004528,-0.00018284,0.00
 043329,0.00003464,-0.00031690,-0.00001642,-0.00013103,0.00048420,-0.00
 025666,0.00009430,0.00020092,0.00020036,0.00093666,-0.00103677,0.00200
 919,0.00177116,0.00215229,0.00669786,0.00593977,-0.00639358,0.05978182
 ,-0.00000594,-0.05487592,-0.02262055,0.00003012,0.18232086,0.00004279,
 -0.00002245,-0.00017743,-0.00002822,0.00000429,0.00005147,0.00000002,0
 .00000008,0.,-0.00006240,-0.00004062,0.00006379,0.00021164,0.00006818,
 -0.00041307,0.00005481,0.00012500,-0.00028165,0.00002612,0.00010445,0.
 00023810,0.00001892,-0.00011081,0.00030027,0.00004459,0.00000885,-0.00
 000912,0.00000685,-0.00004043,0.00001917,-0.00001719,0.00003963,-0.000
 07112,0.00001353,-0.00003736,0.00006694,-0.00003788,-0.00004852,0.0002
 8804,-0.00021010,0.00017089,0.00024877,-0.00032145,-0.00017084,0.00081
 941,0.00069763,-0.00062154,0.00028359,-0.00011972,-0.00006373,0.000032
 05,0.00002190,0.00159009,-0.00101433,-0.00055300,-0.00169674,0.0002248
 5,-0.00225472,0.00116877,-0.00109937,0.00170157,0.00134464,-0.00030757
 ,0.00204622,0.00040578,0.00133505,0.00684560,-0.00346766,0.00860087,-0
 .00064615,-0.00253808,-0.00297691,-0.00042070,-0.00274608,-0.00062626,
 -0.00078276,0.00007836,-0.00123777,-0.00157516,-0.00011862,-0.00418534
 ,-0.00285246,0.00088829,0.00048681,-0.00000108,-0.00006748,0.00015607,
 -0.00456125,-0.00059675,-0.00112923,-0.00001678,-0.00005056,-0.0003534
 1,-0.00056331,0.00060174,-0.00040938,-0.00097780,0.00027682,0.00189020
 ,-0.00055966,-0.00538047,-0.00388894,-0.15892938,0.07683504,0.02739993
 ,0.03113682,0.00205259,0.01408585,0.00317327,-0.00490194,-0.00835473,0
 .00428179,0.00036703,0.00456733,0.00057781,0.00021166,-0.00082161,-0.0
 0056540,0.00002052,0.00123839,-0.00019929,0.00109142,0.00038031,-0.002
 15018,-0.00257694,0.00017168,-0.00336221,-0.00006251,-0.00184646,-0.03
 311040,-0.02325143,0.00618059,-0.13759434,-0.06317273,-0.01448555,0.54
 280943,-0.00008648,0.00001723,0.00059038,0.00011539,-0.00003750,-0.000
 29704,0.,0.00000009,0.00000017,-0.00003709,-0.00008963,0.00008367,-0.0
 0004235,-0.00001442,0.00014061,-0.00001129,0.00016417,0.00027753,0.000
 20547,0.00002039,-0.00110211,0.00057197,0.00006847,-0.00095475,-0.0002
 9947,-0.00005584,0.00059820,-0.00025942,0.00002693,0.00027418,-0.00000
 002,-0.00000646,0.00000099,0.00004170,0.00011331,-0.00017018,-0.000342
 99,-0.00016217,0.00085663,0.00031326,0.00002788,0.00039622,-0.00011968
 ,0.00010932,0.00014939,-0.00010069,0.00007957,-0.00058622,-0.00011673,
 -0.00014628,-0.00070001,0.00129410,0.00093481,0.00161486,-0.00161634,-
 0.00136404,-0.00116229,0.00117611,0.00074685,-0.00032455,0.00060078,-0
 .00032836,0.00106872,0.00029007,-0.00076344,0.00156617,-0.00401562,-0.
 00408836,-0.00461231,-0.00041294,-0.00013658,0.00136808,0.00064013,0.0
 0000960,-0.00257951,-0.00179082,0.00128923,0.00082993,0.00249977,-0.00
 020521,0.00100231,0.00138737,-0.00066955,0.00194890,0.00003138,0.00006
 861,-0.00009927,-0.00326359,0.00758534,0.00932716,0.00568582,0.0021474
 8,-0.00144887,-0.00146486,-0.00218342,-0.00056339,-0.00329635,-0.00158
 892,0.00116010,0.00197307,-0.02437538,-0.01228903,0.07719052,-0.239675
 06,-0.10617916,-0.00753508,-0.02781285,-0.03219420,-0.00775702,0.00335
 638,0.00437532,-0.00223887,-0.00113836,-0.00381532,-0.00029569,-0.0001
 6266,-0.00049925,0.00026539,0.00013162,0.00020621,0.00034524,0.0007858
 5,-0.00025915,-0.00119702,0.00039930,0.00152149,-0.00108194,0.00101127
 ,-0.00337535,-0.03657645,0.01873245,0.01066562,-0.04273197,-0.17748684
 ,-0.02285642,-0.08602237,0.62546152,0.00002301,-0.00006726,-0.00026145
 ,-0.00005664,0.00001607,0.00013548,0.00000009,0.,-0.00000010,-0.000134
 06,-0.00020938,0.00022335,0.00026614,0.00001900,-0.00039764,0.00008087
 ,0.00024785,-0.00038770,-0.00002479,0.00011724,0.00040346,-0.00020283,
 -0.00001092,0.00035832,0.00013063,0.00001716,-0.00020364,0.00007454,0.
 00001325,-0.00010001,0.00001031,-0.00002873,0.00004375,0.00007090,0.00
 016947,-0.00024822,-0.00028434,-0.00014272,0.00063824,0.00044549,0.000
 12150,0.00041800,-0.00043481,-0.00008691,0.00052505,0.00038760,-0.0003
 9599,-0.00051533,-0.00011342,-0.00028167,0.00048871,-0.00036804,0.0013
 6917,-0.00108510,-0.00015404,-0.00086509,0.00067402,-0.00091009,-0.000
 03785,0.00014976,0.00148081,0.00075927,-0.00064084,0.00033719,-0.00011
 876,-0.00055020,0.00060658,0.00008078,0.00529881,0.00080460,-0.0035082
 2,-0.00055881,-0.00497524,-0.00118725,-0.00201748,-0.00085370,0.001219
 97,0.00024898,0.00179502,0.00093907,0.00039229,-0.00088481,-0.00030468
 ,0.00100353,0.00003110,0.00009364,-0.00015596,-0.00069682,0.00087656,0
 .00574147,0.00362955,0.00224937,-0.00121991,0.00063754,-0.00121675,-0.
 00116672,-0.00289808,-0.00060122,0.00118517,0.00360476,-0.01079150,-0.
 00327461,0.02548599,-0.10257582,-0.09699866,0.00353923,-0.01478986,-0.
 01763212,-0.00352938,-0.00281195,0.00128521,-0.00082504,-0.00050782,-0
 .00307321,-0.00067203,-0.00035883,-0.00015125,0.00031105,-0.00003382,0
 .00046828,0.00032426,-0.00004056,-0.00029679,-0.00032266,0.00040853,0.
 00028688,0.00197052,0.00295565,0.00193198,-0.00928451,0.00476598,0.000
 71843,-0.01677132,-0.03282407,-0.05518633,0.04778523,0.14839843,0.2483
 1675,-0.00027673,-0.00024419,0.00012448,0.00013321,0.00011459,-0.00005
 885,0.00007530,-0.00025561,0.00004675,-0.00011570,0.00029124,0.0000439
 4,0.00074596,-0.00089671,-0.00033532,-0.00037018,0.00099216,0.00062737
 ,-0.00027562,-0.00025352,0.00004590,0.00014982,0.00013338,-0.00004247,
 -0.00007461,-0.00003617,0.00001104,-0.00000005,-0.00000078,0.00000026,
 -0.00012316,-0.00016365,0.00000478,-0.00066639,-0.00021470,0.00028144,
 0.00187580,-0.00034660,0.00073304,-0.00107227,0.00043160,0.00397653,-0
 .00033822,0.00185790,-0.00145822,-0.00024076,0.00202726,0.00366643,-0.
 00027625,0.00061352,0.00005513,-0.00015505,-0.00029800,-0.00099202,0.0
 0003760,-0.00023059,-0.00063065,0.00008569,-0.00006554,0.00014521,-0.0
 0007518,0.00007223,-0.00020930,0.00044411,0.00032144,0.00064173,0.0004
 1421,0.00224247,-0.00022142,0.00067017,-0.00478962,-0.00370746,-0.0142
 4284,0.03318428,-0.00818830,-0.00781810,0.01668444,-0.02614345,-0.0863
 6435,0.02741616,-0.02462586,0.01532928,-0.01283573,0.01429671,0.000245
 93,0.00024613,0.00003229,0.00797830,0.00494729,0.00431104,-0.00357591,
 0.00001196,0.00480608,-0.00021051,0.00010527,0.00072859,0.00012292,-0.
 00060845,-0.00090119,-0.00171978,-0.00530447,-0.00310421,-0.02585071,-
 0.02222637,-0.03284508,-0.27484187,0.08416669,-0.07213461,-0.03916029,
 0.01288511,0.02210734,-0.01380815,0.00543022,-0.00785960,0.00109669,-0
 .00098834,-0.00336947,0.00011898,0.00104022,-0.00108888,-0.00014992,-0
 .00025703,0.00018093,0.00065553,0.00066202,-0.00034502,-0.00001615,0.0
 0069828,0.00036689,-0.00032296,0.00201209,0.00045351,0.00053710,0.0033
 4000,0.00273572,-0.01883969,0.01072096,-0.00354743,0.52575880,0.000797
 53,0.00048182,-0.00032114,-0.00043276,-0.00021215,0.00019374,-0.000260
 32,-0.00004832,0.00009730,0.00057038,0.00023492,-0.00043929,-0.0011194
 6,0.00065901,0.00149825,0.00118854,-0.00136192,-0.00148930,0.00077628,
 0.00058126,0.00007872,-0.00046770,-0.00034097,-0.00002803,0.00026965,0
 .00013046,-0.00004002,-0.00000013,-0.00000015,0.00000020,-0.00009059,-
 0.00005137,0.00000189,0.00014348,0.00002870,0.00000658,-0.00079955,-0.
 00014992,-0.00129354,0.00235333,0.00104858,0.00145360,-0.00049518,-0.0
 0020221,-0.00080794,0.00424014,-0.00325222,-0.00081162,-0.00105949,-0.
 00078495,0.00193928,-0.00071750,-0.00013316,0.00105921,0.00017534,0.00
 138756,-0.00017035,-0.00035916,-0.00044233,0.00014646,0.00046233,0.000
 56136,-0.00012755,-0.00032155,-0.00257386,0.00018258,-0.00370187,0.000
 23131,-0.00241670,0.00412192,0.00993217,0.00475721,0.02497600,-0.03605
 141,0.01446343,0.00974626,-0.00769253,0.02361312,0.02300324,-0.0697142
 0,-0.01564750,-0.00654122,0.00488844,-0.01548826,-0.00023063,-0.000073
 40,0.00006550,-0.00191283,0.00021002,-0.00354000,0.00049836,-0.0003581
 2,0.00035727,0.00057583,0.00051432,-0.00012359,-0.00013636,-0.00019351
 ,-0.00008189,0.00030092,0.00248044,0.00224437,-0.00254284,0.01550469,0
 .01827727,0.08780696,-0.08939692,-0.00684828,0.02017278,-0.00486932,0.
 00162430,0.00154705,0.00049895,0.00136966,0.00137668,0.00025697,0.0000
 3649,-0.00096425,-0.00046963,0.00091806,-0.00005920,-0.00006227,0.0000
 7538,0.00011488,0.00017598,-0.00006007,0.00019446,0.00013798,0.0001526
 8,0.00176566,-0.00159023,-0.00146269,-0.00076185,-0.00225450,-0.000055
 72,0.01817886,-0.01146950,-0.00200316,-0.21280752,0.37523779,-0.000569
 99,-0.00015577,0.00025151,0.00035981,0.00016131,-0.00012877,0.00030341
 ,0.00042531,-0.00020733,-0.00028592,-0.00041124,0.00014060,0.00018184,
 0.00209506,-0.00157878,0.00024905,-0.00172841,0.00049093,-0.00047424,-
 0.00042269,0.00014357,0.00021734,0.00020311,-0.00001232,-0.00016774,-0
 .00008686,0.00001640,0.00000005,0.00000032,0.00000020,0.00048107,0.000
 45314,-0.00004002,0.00053671,-0.00036140,0.00094059,0.00056895,0.00055
 092,-0.00096915,0.00136696,-0.00313145,-0.00224300,0.00451135,-0.00194
 929,-0.00082746,-0.00501228,-0.00327857,0.01157206,-0.00007819,0.00088
 164,0.00176676,0.00035522,0.00242739,0.00102506,-0.00061370,-0.0000835
 2,-0.00270337,0.00007708,-0.00010222,0.00018240,-0.00029540,-0.0003317
 5,-0.00025859,0.00064168,-0.00018337,0.00199796,-0.00129784,-0.0000923
 8,-0.00198022,-0.00155052,0.00552381,-0.00258695,-0.00363671,0.0107236
 3,0.00967367,-0.02203055,0.02985613,-0.02480343,-0.03388216,0.00481440
 ,-0.21534725,0.03631995,-0.01551295,-0.03420720,-0.00070902,-0.0007670
 4,0.00015435,0.00986384,-0.00092143,-0.00034307,-0.00143557,0.00045459
 ,0.00455171,0.00052825,0.00047830,-0.00016653,-0.00074967,-0.00068351,
 0.00012646,-0.00056253,0.00121251,0.00056452,-0.02779379,0.00672263,-0
 .00371090,-0.07458725,-0.00729710,-0.13094136,0.00167637,0.00862766,0.
 03048463,-0.01948865,0.00279924,-0.01800495,0.00205412,0.00129758,-0.0
 0264835,-0.00144240,-0.00098985,-0.00274257,-0.00007109,-0.00008972,0.
 00008584,0.00064325,0.00061856,-0.00026755,0.00035701,0.00038423,0.000
 18321,0.00185380,0.00067217,-0.00053284,-0.00201073,-0.00108685,0.0003
 0251,0.00532521,-0.00400585,-0.00052069,0.12228920,0.06028428,0.515456
 44,0.00019801,0.00022863,-0.00022249,-0.00003941,-0.00001758,0.0000387
 0,-0.00005003,-0.00008843,0.00001391,0.00017657,0.00010445,-0.00005030
 ,-0.00034060,0.00101780,0.00052287,0.00035358,-0.00051001,-0.00028513,
 -0.00007182,-0.00034913,0.00046799,-0.00022486,-0.00021710,0.00017216,
 0.00004606,0.00002840,-0.00005508,0.00007659,-0.00000053,-0.00008482,0
 .00006554,0.00004910,-0.00000569,0.00023208,0.00000800,0.00011209,0.00
 001680,0.00068891,-0.00150706,0.00023498,-0.00075606,-0.00026080,0.000
 18218,-0.00197391,0.00088261,0.00121392,-0.00247874,0.00556362,0.00030
 698,0.00172770,-0.00110418,0.00176504,-0.00087373,0.00239068,0.0002862
 1,0.00109061,-0.00001815,-0.00029829,0.00019359,-0.00024338,-0.0011050
 8,0.00030139,-0.00123640,0.00041421,0.00370211,-0.00129719,-0.00959246
 ,-0.00456448,-0.01522806,-0.00005530,0.02435640,0.00407564,-0.08732116
 ,0.03989123,-0.06653481,0.00376593,-0.00278141,-0.01856649,0.00739718,
 -0.00087996,0.00741753,0.00557223,0.00006432,-0.00275234,-0.00016138,-
 0.00003231,-0.00005134,0.00013043,0.00125140,0.00140743,-0.00037506,-0
 .00060917,-0.00053876,0.00052633,0.00064710,-0.00022398,0.00063483,-0.
 00030967,-0.00001531,0.00087285,0.00134669,-0.00057729,-0.00144891,0.0
 0486305,-0.00043835,-0.02667164,0.01658744,0.00575462,-0.00351062,0.00
 391925,-0.00085881,-0.00178955,-0.00079913,-0.00379669,-0.00054310,-0.
 00011080,0.00205897,0.00020706,0.00022086,-0.00040987,-0.00018772,-0.0
 0011668,0.00021049,0.00059379,0.00051584,-0.00029521,-0.00042899,0.000
 47364,-0.00024500,-0.00293844,-0.00043253,-0.00025062,-0.00115150,0.00
 423671,-0.00278290,-0.02256074,-0.01202881,-0.01508813,-0.09912609,0.0
 6286103,0.01039089,0.35097715,0.00021063,-0.00022141,-0.00019593,-0.00
 027135,-0.00000405,0.00033505,0.00002532,-0.00001169,-0.00004793,-0.00
 018950,0.00002001,0.00013307,0.00122193,-0.00158910,-0.00135375,-0.000
 88322,0.00093334,0.00190519,-0.00069920,-0.00039804,-0.00051480,0.0009
 2695,0.00031882,-0.00014099,-0.00047537,-0.00015852,0.00006566,0.00028
 945,-0.00000710,-0.00020686,-0.00001638,-0.00001878,0.00000274,-0.0001
 5665,0.00000495,-0.00006013,0.00031702,-0.00051925,0.00145562,-0.00188
 690,0.00155093,0.00002856,-0.00043354,0.00128927,-0.00114488,0.0026238
 1,0.00298571,-0.00566441,-0.00023223,-0.00267167,-0.00285969,0.0011554
 0,-0.00481833,0.00043194,0.00127886,-0.00013226,0.00209075,0.00005839,
 0.00073204,-0.00021164,0.00225452,0.00076634,-0.00023076,-0.00224245,0
 .00023084,0.00009276,0.00456714,-0.00209083,0.00361349,0.00543340,-0.0
 3253014,0.02083186,0.04214246,-0.12724204,0.04759517,-0.00304120,0.011
 70800,0.00002347,0.00285527,-0.00767386,-0.03409379,-0.00752113,0.0048
 1674,0.00519202,0.00010266,0.00005393,-0.00000636,0.00141556,-0.000291
 27,-0.00013391,-0.00050303,0.00050344,0.00069029,-0.00057759,-0.000366
 39,0.00028140,-0.00008204,-0.00034648,-0.00012117,0.00011324,-0.002502
 29,-0.00093156,-0.00542098,-0.01851929,-0.01744358,0.03787197,-0.01196
 276,0.01621055,0.00044314,0.00074884,0.00221303,0.00334152,-0.00008807
 ,0.00118374,0.00048874,0.00025681,-0.00143872,0.00009462,-0.00007436,0
 .,-0.00010043,-0.00002504,0.00009743,-0.00018681,0.00005157,0.00005964
 ,0.00061500,0.00078380,-0.00042376,-0.00563302,0.00306575,0.00078080,0
 .00811903,0.00552447,0.00244034,-0.02436387,0.02568664,-0.00049349,0.0
 6125529,-0.16341327,-0.06455694,-0.07878793,0.51160175,-0.00045881,-0.
 00057997,0.00025620,0.00033209,0.00032291,-0.00012771,0.00047302,0.000
 45963,-0.00013827,-0.00083793,-0.00078745,0.00024830,0.00011678,-0.001
 56855,0.00064965,0.00036272,0.00200634,-0.00141791,0.00006261,-0.00031
 962,0.00072565,-0.00038527,-0.00010070,0.00021973,0.00043149,0.0001885
 4,-0.00009464,-0.00005030,0.00000208,0.00000278,-0.00027532,-0.0001819
 3,0.00001905,-0.00108558,-0.00043948,0.00021260,-0.00176428,0.00121105
 ,-0.00073980,0.00137794,0.00010747,-0.00098309,0.00126677,-0.00000942,
 -0.00072107,-0.00030124,-0.01065163,0.00367749,0.00155871,0.00265267,0
 .00104875,-0.00284300,0.00086834,0.00077207,0.00132516,0.00066657,0.00
 058369,-0.00009063,0.00013908,-0.00019943,-0.00122239,0.00168933,-0.00
 210668,-0.00022181,0.00241708,-0.00197979,-0.01522723,-0.00361053,-0.0
 1924805,0.00661408,0.03403428,0.01822815,-0.05228392,0.02912535,-0.156
 67120,-0.00847065,0.00126020,-0.05579179,0.01152604,-0.02552737,-0.040
 03371,-0.00746074,0.00312485,-0.00239442,0.00059865,0.00021559,-0.0000
 8890,0.00068170,0.00165301,0.00086993,-0.00042423,0.00010181,0.0002533
 6,0.00001918,0.00000382,0.00012240,0.00032332,-0.00015846,-0.00007819,
 0.00182557,-0.00124660,-0.00100722,-0.00390221,-0.01265605,-0.01105412
 ,0.01234492,0.00932038,0.02416801,-0.00157424,-0.00210564,0.00058456,0
 .00171613,0.00097392,0.00045324,0.00219699,-0.00091425,0.00010031,-0.0
 0079771,-0.00007585,0.00005922,-0.00008951,-0.00004321,0.00009444,0.00
 053743,0.00040488,-0.00024582,-0.00044266,0.00004845,0.00000572,-0.003
 78215,0.00138957,-0.00030208,0.00371728,0.00767329,0.00336093,-0.03449
 142,0.00365621,-0.01712607,-0.00094352,-0.04411071,-0.10993420,0.18793
 969,0.13410485,0.55447322,-0.00008073,0.00003058,0.00035536,-0.0000083
 1,-0.00000109,0.00005490,-0.00006558,-0.00000675,0.00003607,0.00007043
 ,0.00001618,-0.00005861,-0.00039483,-0.00005747,0.00071446,0.00001459,
 -0.00018295,0.00032886,0.00002207,-0.00000921,-0.00034509,0.00001489,0
 .00031918,-0.00067076,0.00008586,-0.00002990,0.00027341,-0.00012022,-0
 .00009787,0.00051509,-0.00000001,0.00000002,0.00000003,0.00000503,-0.0
 0003689,0.00004393,0.00008713,-0.00001167,-0.00005290,-0.00011625,-0.0
 0003003,0.00028852,0.00023792,0.00015082,-0.00072975,-0.00055756,0.000
 23948,-0.00106208,-0.00041210,-0.00089877,0.00148250,0.00026137,-0.000
 96872,-0.00120338,0.00008129,0.00176440,0.00084686,0.00122329,-0.00112
 230,0.00123661,-0.00070449,0.00052589,0.00025252,0.00033112,-0.0009488
 4,-0.00253751,0.00734346,0.02074747,0.00197350,-0.00091233,-0.00324707
 ,-0.00289987,-0.01276584,-0.00388488,-0.02567184,-0.00034303,0.0047308
 4,0.00213924,0.00228646,0.00419863,0.00922776,0.00350414,-0.00289745,-
 0.00062305,0.00006630,0.00011025,-0.00014301,-0.00065969,0.00003297,0.
 00072256,0.00095612,0.00012091,0.00046201,0.00049398,0.00007984,-0.000
 64219,-0.00214175,0.00004315,0.00081375,-0.00014391,0.00306107,0.00279
 268,-0.01237946,0.03912339,0.02322839,-0.01787328,-0.00332389,-0.01830
 179,-0.00261264,0.00069618,0.00152638,-0.00236735,0.00113256,-0.001815
 88,-0.00005162,-0.00013314,-0.00021658,0.00030264,0.00024183,-0.000843
 78,0.00033450,-0.00024501,-0.00076209,0.00141541,0.00017475,-0.0004669
 5,0.00102201,-0.00123350,0.00132285,0.00986568,-0.00541852,-0.00516358
 ,-0.04556737,-0.02188297,-0.01360908,-0.18999720,0.02964133,-0.0516634
 3,0.02020391,-0.02423856,-0.00048502,-0.13143030,-0.03205200,-0.110885
 66,0.47055316,0.00052634,-0.00000986,-0.00080482,-0.00029052,0.0000613
 4,0.00053727,0.00012093,-0.00001994,-0.00008698,0.00001155,0.00003578,
 -0.00001799,0.00008631,0.00010899,-0.00021011,-0.00005805,-0.00014623,
 -0.00028444,0.00038475,0.00099711,0.00014271,0.00023275,0.00007325,-0.
 00036061,-0.00025625,-0.00012597,0.00040866,-0.00006965,-0.00005436,0.
 00043184,-0.00000004,0.00000005,0.00000006,0.00011177,0.00009997,-0.00
 015525,-0.00046425,-0.00016191,0.00095713,0.00051270,-0.00025318,-0.00
 073035,-0.00040300,0.00008047,0.00061785,-0.00111335,0.00491331,-0.003
 03403,0.00048974,-0.00312642,-0.00109451,-0.00047675,-0.00267329,0.003
 13198,-0.00018935,-0.00078557,0.00105630,-0.00164892,-0.00148953,0.001
 03110,0.00228413,-0.00010252,0.00395814,0.00329324,-0.00112242,0.00076
 063,0.02709402,-0.02180590,0.03959296,-0.00778141,-0.02331583,-0.01623
 849,-0.01391958,0.03208349,-0.01109255,0.00214113,0.00299059,0.0107258
 4,0.00319798,-0.00325512,0.00215330,-0.00009308,-0.00061855,-0.0012132
 3,-0.00010399,-0.00013268,0.00014918,0.00192445,0.00005988,0.00157104,
 -0.00026372,-0.00016213,-0.00062368,0.00023291,-0.00038524,-0.00027435
 ,0.00023688,0.00215211,0.00018503,-0.00034106,-0.00221591,-0.00060386,
 0.03070602,-0.01240467,0.00005151,0.00206696,-0.00108714,0.00098302,-0
 .00008665,0.00055989,-0.00220923,-0.00083391,-0.00005189,0.00212879,-0
 .00036333,0.00034350,0.00033918,-0.00016609,-0.00008111,0.00079171,0.0
 0033013,0.00004157,-0.00060205,0.00020667,-0.00274510,-0.00004961,-0.0
 0191529,0.00080396,0.00077157,-0.00455839,-0.00347089,0.00029893,-0.01
 862588,0.00633562,-0.00405316,0.05164749,-0.10742033,0.00146729,-0.008
 07667,-0.01745530,-0.02863364,-0.03112640,-0.16736974,-0.09308366,0.00
 975469,0.56910884,-0.00022634,0.00021306,0.00040449,0.00012098,-0.0000
 9075,-0.00025532,-0.00027833,-0.00002530,0.00015551,0.00027754,0.00008
 869,-0.00022682,-0.00049713,0.00009491,0.00073505,0.00018278,-0.000684
 77,0.00035469,0.00003478,-0.00000199,-0.00076734,-0.00036116,-0.000065
 17,0.00014115,0.00030246,0.00009547,-0.00012922,-0.00005578,0.00000386
 ,-0.00002893,0.00000003,-0.00000002,-0.00000003,0.00022737,0.00013452,
 -0.00023288,-0.00010652,-0.00020919,0.00052236,0.00010970,-0.00074254,
 0.00062570,-0.00062671,0.00057761,-0.00005705,-0.00047849,0.00322388,-
 0.00395546,-0.00081236,-0.00079582,0.00106515,0.00146034,-0.00269678,0
 .00109036,0.00070842,0.00132619,0.00141405,0.00119261,0.00042127,0.000
 10379,-0.00228023,-0.00168673,-0.00047236,-0.00161006,0.00441235,-0.00
 152013,0.00815763,0.01813218,0.00023223,-0.00616948,-0.00586820,-0.006
 68135,-0.01687117,0.00804554,-0.03336934,-0.00374539,0.00407887,0.0052
 4123,0.00054712,-0.00101890,0.00904585,0.00474790,-0.00345666,-0.00255
 757,-0.00012836,-0.00014143,0.00014251,0.00037706,0.00091912,0.0014912
 9,0.00054500,-0.00015426,-0.00054928,-0.00023103,-0.00015839,0.0001810
 9,0.00024715,0.00026518,0.00010181,-0.00213851,-0.00030646,0.00041655,
 0.00786524,0.01526111,0.00987203,-0.01141781,-0.00671582,-0.01189163,-
 0.00278308,0.00271104,0.00065048,-0.00169587,0.00009243,-0.00003395,-0
 .00054623,0.00038540,-0.00007183,0.00016836,-0.00006370,0.00011959,0.0
 0002427,0.00002597,-0.00000423,-0.00000106,-0.00003768,0.00019434,0.00
 078737,-0.00100119,-0.00039318,0.00404112,-0.00147416,0.00130265,-0.02
 233549,-0.00837924,-0.00091178,-0.05464074,-0.00523764,-0.07457913,0.0
 1609108,-0.03043740,-0.01703546,-0.10715511,-0.09048043,-0.19546945,0.
 22177505,0.11423661,0.37846458,-0.00011626,0.00002998,0.00028852,0.000
 08713,0.00001168,-0.00005289,0.00000503,0.00003688,0.00004393,0.000070
 43,-0.00001617,-0.00005861,-0.00039483,0.00005734,0.00071447,0.0002379
 1,-0.00015069,-0.00072978,0.00350413,0.00289757,-0.00062254,-0.0023673
 6,-0.00113227,-0.00181606,-0.00005164,0.00013318,-0.00021656,0.0003026
 5,-0.00024171,-0.00084376,0.00006630,-0.00011023,-0.00014304,-0.000065
 58,0.00000674,0.00003607,-0.00000832,0.00000108,0.00005491,-0.00008073
 ,-0.00003064,0.00035535,0.00001459,0.00018289,0.00032889,-0.00041210,0
 .00089853,0.00148266,-0.00055757,-0.00023932,-0.00106214,-0.00034300,-
 0.00473124,0.00213851,0.00228648,-0.00420022,0.00922703,-0.00261274,-0
 .00069637,0.00152619,-0.01787337,0.00332711,-0.01830122,0.02020391,0.0
 2423886,-0.00048093,-0.13143083,0.03207172,-0.11088074,-0.01276598,0.0
 0388917,-0.02567128,-0.00091237,0.00324765,-0.00289940,0.00026137,0.00
 096895,-0.00120319,0.00008129,-0.00176455,0.00084655,0.00002207,0.0000
 0927,-0.00034508,-0.00000001,-0.00000002,0.00000003,-0.00188123,-0.001
 11663,-0.00110770,0.00029469,-0.00006911,-0.00091275,0.00033445,0.0002
 4506,-0.00076200,0.00141525,-0.00017476,-0.00046688,0.00102194,0.00123
 346,0.00132294,-0.00457402,-0.00016943,-0.00307267,-0.00070458,-0.0005
 2598,0.00025242,0.00122323,0.00112204,0.00123676,0.00001491,-0.0003190
 4,-0.00067079,0.00008586,0.00002985,0.00027340,-0.00012022,0.00009777,
 0.00051509,0.00049394,-0.00007970,-0.00064218,-0.00214175,-0.00004326,
 0.00081382,-0.00014357,-0.00306172,0.00279227,0.00986567,0.00541935,-0
 .00516268,-0.04556740,0.02188518,-0.01360538,-0.01051173,0.02899013,-0
 .00194751,0.00033116,0.00094929,-0.00253733,0.00734358,-0.02074771,0.0
 0197002,-0.08103186,-0.01159905,-0.02562013,0.47054121,-0.00051272,-0.
 00025345,0.00073019,0.00046427,-0.00016178,-0.00095724,-0.00011181,0.0
 0009997,0.00015531,-0.00001160,0.00003579,0.00001803,-0.00008623,0.000
 10897,0.00021000,0.00040311,0.00008068,-0.00061783,0.00009225,-0.00061
 934,0.00121359,0.00083421,-0.00005151,-0.00212881,0.00036341,0.0003436
 3,-0.00033910,0.00016608,-0.00008099,-0.00079175,0.00010401,-0.0001326
 8,-0.00014924,-0.00012088,-0.00001996,0.00008695,0.00029050,0.00006142
 ,-0.00053722,-0.00052630,-0.00000997,0.00080475,0.00005802,-0.00014640
 ,0.00028434,-0.00048959,-0.00312675,0.00109376,0.00111342,0.00491334,0
 .00303559,-0.00214049,0.00299317,-0.01072625,-0.00319807,-0.00325493,-
 0.00215544,0.00008708,0.00055997,0.00220921,-0.00206496,-0.00108816,-0
 .00098123,0.00807395,-0.01746561,0.02863360,0.03114555,-0.16740167,0.0
 9308854,0.01392244,0.03208306,0.01110391,0.00778250,-0.02331967,0.0162
 3557,0.00047650,-0.00267320,-0.00313265,0.00018925,-0.00078516,-0.0010
 5669,-0.00038477,0.00099714,-0.00014241,0.00000004,0.00000005,-0.00000
 006,-0.00144950,0.00058871,0.00027985,0.00002081,0.00014326,0.00065756
 ,-0.00033009,0.00004145,0.00060199,-0.00020665,-0.00274510,0.00004909,
 0.00191523,0.00080389,-0.00077135,-0.00104041,0.01072591,0.00764138,-0
 .00228367,-0.00010213,-0.00395806,0.00164875,-0.00148925,-0.00103135,-
 0.00023269,0.00007316,0.00036059,0.00025620,-0.00012587,-0.00040865,0.
 00006966,-0.00005428,-0.00043183,-0.00023288,-0.00038534,0.00027427,-0
 .00023687,0.00215220,-0.00018472,0.00034145,-0.00221605,0.00060345,0.0
 0455775,-0.00347105,-0.00029975,0.01862953,0.00633362,0.00405440,0.035
 14633,-0.03427500,0.00909544,-0.00329296,-0.00112155,-0.00076056,-0.02
 709539,-0.02179606,-0.03959679,0.01160377,-0.22362806,0.00247774,-0.00
 979389,0.56914884,0.00010960,0.00074239,0.00062597,-0.00010644,0.00020
 907,0.00052223,0.00022736,-0.00013446,-0.00023288,0.00027754,-0.000088
 64,-0.00022684,-0.00049714,-0.00009502,0.00073507,-0.00062664,-0.00057
 759,-0.00005726,0.00474790,0.00345700,-0.00255678,-0.00169573,-0.00009
 243,-0.00003433,-0.00054616,-0.00038533,-0.00007195,0.00016837,0.00006
 367,0.00011948,-0.00012834,0.00014138,0.00014251,-0.00027835,0.0000252
 7,0.00015553,0.00012103,0.00009081,-0.00025539,-0.00022642,-0.00021314
 ,0.00040459,0.00018279,0.00068468,0.00035485,-0.00081245,0.00079511,0.
 00106549,-0.00047829,-0.00322236,-0.00395552,-0.00374575,-0.00407931,0
 .00523873,0.00054656,0.00101677,0.00904562,-0.00278302,-0.00271107,0.0
 0065040,-0.01141818,0.00671765,-0.01189059,0.01609241,0.03043748,-0.01
 702520,-0.10715039,0.09048533,-0.19543763,-0.01686882,-0.00803422,-0.0
 3336894,-0.00616816,0.00586534,-0.00667752,0.00146042,0.00269615,0.001
 09028,0.00070846,-0.00132657,0.00141364,0.00003471,0.00000230,-0.00076
 737,0.00000003,0.00000002,-0.00000003,-0.00104396,-0.00011956,0.000060
 72,0.00012225,-0.00000423,-0.00001010,0.00002422,-0.00002596,-0.000004
 13,-0.00000108,0.00003717,0.00019435,0.00078772,0.00100138,-0.00039311
 ,-0.00158072,-0.00128731,0.00184700,-0.00228061,0.00168678,-0.00047275
 ,0.00119290,-0.00042155,0.00010354,-0.00036121,0.00006516,0.00014122,0
 .00030251,-0.00009547,-0.00012931,-0.00005578,-0.00000386,-0.00002901,
 -0.00023107,0.00015829,0.00018117,0.00024711,-0.00026482,0.00010172,-0
 .00213845,0.00030601,0.00041668,0.00404194,0.00147334,0.00130284,-0.02
 233225,0.00838045,-0.00090964,-0.00752556,0.01476520,0.00389769,-0.001
 61063,-0.00441231,-0.00152105,0.00815297,-0.01813604,0.00022226,-0.025
 61812,-0.00250448,-0.06895529,0.22177419,-0.11420333,0.37842527,-0.000
 21010,-0.00017093,0.00024875,-0.00003788,0.00004847,0.00028806,0.00001
 353,0.00003735,0.00006695,-0.00006240,0.00004061,0.00006380,0.00021164
 ,-0.00006810,-0.00041308,-0.00032146,0.00017069,0.00081944,-0.00285246
 ,-0.00088838,0.00048667,0.00428183,-0.00036782,0.00456727,0.00057781,-
 0.00021151,-0.00082165,-0.00056538,-0.00002069,0.00123815,-0.00000108,
 0.00006746,0.00015611,0.00000002,-0.00000008,0.,-0.00002822,-0.0000043
 0,0.00005147,0.00004279,0.00002248,-0.00017743,0.00005481,-0.00012495,
 -0.00028167,-0.00011972,0.00006373,0.00003207,0.00069763,0.00062149,0.
 00028370,-0.00078278,-0.00007816,-0.00123779,-0.00157515,0.00011934,-0
 .00418529,0.00317311,0.00490357,-0.00835392,0.03113672,-0.00205480,0.0
 1408529,-0.01883962,-0.01817985,0.00532200,-0.02256089,0.02436974,-0.0
 3448720,-0.00042070,0.00274622,-0.00062579,-0.00064614,0.00253858,-0.0
 0297645,0.00002191,-0.00158991,-0.00101459,-0.00055301,0.00169671,0.00
 022515,0.00002612,-0.00010449,0.00023807,-0.00001719,-0.00003961,-0.00
 007112,0.00133686,0.00155865,0.00106245,-0.00018655,0.00002634,0.00020
 982,-0.00019906,-0.00109161,0.00037951,-0.00214971,0.00257720,0.000172
 54,-0.00336199,0.00006214,-0.00184666,0.00179155,-0.00620296,-0.004109
 32,0.00170173,-0.00134447,-0.00030774,-0.00225461,-0.00116846,-0.00109
 947,0.00001889,0.00011072,0.00030023,0.00004460,-0.00000884,-0.0000091
 1,0.00000686,0.00004047,0.00001924,-0.00056343,-0.00060187,-0.00040888
 ,-0.00097856,-0.00027660,0.00189004,-0.00055782,0.00538054,-0.00388959
 ,-0.03311042,0.02325132,0.00618471,-0.13759458,0.06317639,-0.01447472,
 0.01273716,0.00023576,0.00169901,0.00204616,-0.00040601,0.00133497,0.0
 0684557,0.00346619,0.00860146,-0.01051152,-0.03514499,-0.00753170,-0.1
 8999729,-0.05163830,-0.05464988,0.54279673,-0.00031333,0.00002797,-0.0
 0039628,0.00034304,-0.00016204,-0.00085676,-0.00004172,0.00011331,0.00
 017024,0.00003711,-0.00008966,-0.00008372,0.00004230,-0.00001440,-0.00
 014055,0.00011975,0.00010933,-0.00014945,-0.00138721,-0.00066927,-0.00
 194914,0.00223903,-0.00113913,0.00381562,0.00029581,-0.00016280,0.0004
 9922,-0.00026542,0.00013165,-0.00020629,-0.00003139,0.00006861,0.00009
 931,0.,0.00000009,-0.00000017,-0.00011538,-0.00003755,0.00029701,0.000
 08647,0.00001732,-0.00059033,0.00001128,0.00016426,-0.00027744,0.00011
 675,-0.00014645,0.00069991,0.00010063,0.00007941,0.00058631,0.00179096
 ,0.00128960,-0.00082975,-0.00250008,-0.00020489,-0.00100242,0.00775765
 ,0.00335663,-0.00437482,0.00753458,-0.02782090,0.03219233,-0.01072035,
 -0.01147063,0.00400400,0.01203130,0.02568720,-0.00364882,-0.00063924,0
 .00000896,0.00257986,0.00041281,-0.00013695,-0.00136800,-0.00129403,0.
 00093531,-0.00161450,0.00161637,-0.00136437,0.00116193,-0.00020546,0.0
 0002022,0.00110205,0.00000002,-0.00000646,-0.00000100,0.00177741,-0.00
 131897,-0.00115430,-0.00052626,-0.00000409,0.00034566,-0.00034544,0.00
 078577,0.00025966,0.00119700,0.00039948,-0.00152162,0.00108158,0.00101
 159,0.00337533,-0.01046035,0.00487897,0.00317074,-0.00060115,-0.000328
 16,-0.00106876,-0.00117607,0.00074668,0.00032457,-0.00057191,0.0000683
 3,0.00095475,0.00029944,-0.00005574,-0.00059819,0.00025940,0.00002696,
 -0.00027419,0.00146478,-0.00218366,0.00056312,0.00329663,-0.00158881,-
 0.00116037,-0.00197348,-0.02437960,0.01228529,0.03657825,0.01873505,-0
 .01066261,0.04273576,-0.17749725,0.02283534,-0.00023600,-0.05898536,-0
 .00490882,-0.00029006,-0.00076317,-0.00156619,0.00401550,-0.00408907,0
 .00461072,-0.02898975,-0.03427101,-0.01477183,-0.02963272,-0.10742122,
 0.00523177,0.08601308,0.62551326,0.00044543,-0.00012157,0.00041790,-0.
 00028429,0.00014257,0.00063810,0.00007089,-0.00016941,-0.00024822,-0.0
 0013405,0.00020933,0.00022337,0.00026615,-0.00001893,-0.00039767,-0.00
 043478,0.00008683,0.00052503,-0.00088505,0.00030439,0.00100322,-0.0008
 2465,0.00050819,-0.00307244,-0.00067199,0.00035882,-0.00015108,0.00031
 095,0.00003377,0.00046833,0.00003109,-0.00009360,-0.00015597,0.0000000
 9,0.,-0.00000010,-0.00005666,-0.00001610,0.00013553,0.00002302,0.00006
 731,-0.00026154,0.00008087,-0.00024776,-0.00038779,-0.00011340,0.00028
 156,0.00048889,0.00038762,0.00039610,-0.00051516,-0.00085338,-0.001219
 81,0.00024863,0.00179457,-0.00093914,0.00039195,-0.00352799,0.00281223
 ,0.00128496,0.00354051,0.01478799,-0.01762394,-0.00354930,0.00200125,-
 0.00051967,-0.01508603,0.00050092,-0.01712662,-0.00497536,0.00118757,-
 0.00201680,0.00080466,0.00350829,-0.00055843,-0.00036825,-0.00136882,-
 0.00108562,-0.00015376,0.00086474,0.00067438,-0.00002482,-0.00011731,0
 .00040363,0.00001031,0.00002872,0.00004375,0.00066001,-0.00040817,-0.0
 0017218,-0.00023518,0.00007097,0.00023832,0.00032415,0.00004079,-0.000
 29654,-0.00032261,-0.00040867,0.00028643,0.00197066,-0.00295573,0.0019
 3204,-0.00010199,-0.00340938,0.00114908,0.00148068,-0.00075920,-0.0006
 4117,-0.00091032,0.00003793,0.00014980,-0.00020292,0.00001088,0.000358
 50,0.00013068,-0.00001713,-0.00020375,0.00007458,-0.00001324,-0.000100
 07,0.00063798,0.00121656,-0.00116655,-0.00289740,0.00060064,0.00118512
 ,0.00360385,0.01078797,-0.00327026,-0.00927835,-0.00476302,0.00071573,
 -0.01676421,0.03280294,-0.05517657,0.00169897,0.00489773,0.00533870,0.
 00033716,0.00011873,-0.00055046,0.00060726,-0.00008239,0.00529959,-0.0
 0195256,-0.00910211,0.00389361,-0.05166865,-0.00147311,-0.07457851,0.0
 4780173,-0.14833283,0.24826500,0.00166753,0.00011914,-0.00137101,-0.00
 226032,0.00014147,0.00125623,0.00001475,-0.00034987,-0.00035192,0.0000
 0541,0.00010994,0.00011441,0.00018960,-0.00003295,-0.00024913,-0.00037
 169,-0.00012626,-0.00009715,-0.00240785,-0.00135973,0.00116410,-0.0010
 5553,0.00000889,0.00647591,0.00094084,-0.00017395,0.00138575,0.0030351
 5,-0.00094285,0.00057195,0.00013199,-0.00006269,0.00033580,-0.00001278
 ,-0.00007505,-0.00003419,0.00000005,-0.00000004,0.,-0.00011610,0.00013
 882,0.00017905,0.00004889,-0.00032250,-0.00016359,-0.00004593,0.000813
 02,0.00043199,-0.00014085,-0.00076952,0.00023765,-0.00039799,0.0017298
 8,-0.00165040,-0.00326284,-0.00153767,-0.00086869,0.01205469,-0.003282
 12,0.00664032,-0.12754731,0.02695811,-0.05701639,-0.02585093,0.0025475
 4,-0.02779327,-0.00144886,0.00542177,-0.00390129,0.00023928,-0.0021643
 8,-0.00089260,-0.00005126,0.00220578,0.00091090,0.00046467,0.00027358,
 0.00036527,-0.00001892,0.00085907,0.00069297,0.00005908,-0.00010994,-0
 .00015517,-0.00002853,0.00004637,-0.00001530,-0.00001423,-0.00023556,-
 0.00001413,-0.00001355,-0.00011115,-0.00008857,0.00081092,-0.00042760,
 -0.00082671,-0.00219333,0.00051083,0.00069507,-0.00179872,0.00150492,0
 .00073624,0.00449537,-0.00338203,-0.00067519,0.00030718,0.00071661,0.0
 0058813,-0.00004252,-0.00041610,-0.00029099,0.00004064,-0.00000841,-0.
 00000796,-0.00002132,-0.00003289,-0.00009434,0.00003061,0.00011056,0.0
 0008097,-0.00095057,0.00453425,0.00010974,-0.00013435,0.00183478,-0.00
 304321,-0.02748189,0.04133140,-0.00842518,-0.02090906,-0.01476816,0.00
 832113,0.03397680,-0.00868727,0.00219610,0.00179175,0.01046047,-0.0001
 0023,-0.00039861,-0.00061925,-0.00059691,-0.00008726,-0.00121682,0.000
 34910,-0.00457417,0.00104056,-0.00158054,-0.01237924,-0.03070737,0.007
 85992,-0.15892844,-0.07719418,0.02547199,0.56942564,0.00026352,0.00024
 143,0.00028682,0.00006745,0.00015562,-0.00016495,-0.00003521,-0.000140
 68,-0.00007510,-0.00000209,0.00010231,0.00008381,0.00010439,0.00004433
 ,-0.00006858,-0.00010518,0.00002919,0.00018280,0.00083291,0.00067496,0
 .00204862,-0.00393901,0.00150582,-0.00555651,-0.00138902,0.00001399,-0
 .00037852,-0.00044285,-0.00011683,-0.00015439,0.00000270,-0.00012695,-
 0.00013457,-0.00000203,-0.00003327,-0.00001340,0.,-0.00000002,-0.00000
 016,-0.00008363,0.00007998,0.00015179,0.00000730,0.00001732,0.00007083
 ,-0.00006024,-0.00001001,-0.00020677,-0.00027982,-0.00025347,-0.000688
 89,0.00072240,0.00154346,-0.00022529,-0.00167379,0.00105875,-0.0026558
 0,-0.00635756,-0.01061266,0.03211276,0.01673265,-0.10198382,0.07107885
 ,0.02223199,0.01550917,-0.00671936,-0.00486297,-0.01852448,0.01265473,
 0.00350759,0.00035043,0.00287406,0.00080693,-0.00084522,0.00188010,0.0
 0044845,-0.00022173,0.00043443,-0.00015848,0.00048205,0.00024262,0.000
 05424,-0.00015199,-0.00027475,-0.00000903,0.00004451,0.00002386,-0.000
 78428,0.00037759,0.00006600,0.00024141,-0.00004051,-0.00028123,-0.0000
 1519,-0.00043185,-0.00008338,0.00263104,0.00146374,-0.00091636,-0.0036
 7324,0.00150014,0.00043570,0.00338221,-0.00410015,-0.00094561,0.000621
 00,-0.00038465,0.00038661,0.00037819,0.00084720,0.00074787,0.00000725,
 -0.00018505,-0.00035944,0.00001849,0.00007582,0.00028916,-0.00006267,-
 0.00004446,0.00003203,-0.00084507,-0.00138295,0.00205093,0.00333418,-0
 .00177793,0.00069319,0.02052678,0.00324780,-0.01473642,-0.00551172,-0.
 00948634,0.00589051,0.00971081,-0.04205612,0.00905780,0.00620335,0.004
 87889,0.00341010,-0.00069579,0.00066450,0.00020262,-0.00513743,-0.0014
 2457,-0.00483602,0.00017005,0.01072699,0.00128881,-0.03912735,-0.01240
 215,-0.01526494,-0.07683882,-0.23971047,0.10255058,0.06489750,0.478358
 00,-0.00042861,-0.00036537,-0.00224424,0.00010943,0.00017608,0.0009068
 1,0.00036173,0.00077047,0.00050892,-0.00016018,-0.00043849,-0.00029095
 ,-0.00006744,-0.00038013,-0.00040169,0.00011555,0.00048845,0.00057024,
 -0.00253837,-0.00289529,0.00060265,0.00786726,0.00314867,0.00782950,0.
 00091526,-0.00071939,-0.00042292,0.00006291,-0.00148056,-0.00094832,-0
 .00011360,0.00045892,-0.00004373,0.00002445,0.00023429,0.00009916,0.00
 000005,-0.00000011,-0.00000004,-0.00007750,0.00010357,0.00010754,0.000
 03650,-0.00050146,-0.00026737,-0.00015013,0.00051621,0.00037046,0.0000
 5947,-0.00045243,0.00064971,-0.00000717,-0.00075330,-0.00035568,-0.003
 49508,0.00229517,-0.00003778,0.00876070,0.02156646,-0.04190090,-0.0373
 9467,0.06639831,-0.14300939,-0.03284111,-0.01827407,-0.00371529,-0.000
 43929,0.01744222,-0.01104884,-0.00072106,-0.00028881,-0.00202395,-0.00
 143071,0.00154986,-0.00156385,0.00012789,0.00009125,-0.00000990,-0.000
 00181,-0.00003703,-0.00000633,0.00002240,-0.00002879,-0.00002850,0.000
 08076,-0.00024356,-0.00005948,-0.00000365,-0.00022083,-0.00009259,-0.0
 0002788,-0.00019876,-0.00005196,-0.00011446,0.00016921,0.00028107,-0.0
 0062008,-0.00103651,-0.00013545,0.00072097,0.00097568,-0.00003377,-0.0
 0067462,0.00094494,-0.00037100,0.00000479,0.00048404,0.00038054,0.0000
 0853,-0.00039270,-0.00033974,0.00000058,0.00000890,0.00001481,0.000001
 28,0.00000212,0.00000882,-0.00001726,-0.00005575,-0.00002795,-0.000844
 59,-0.00109988,-0.00066344,0.00149190,0.00170250,0.00174958,-0.0084003
 8,-0.01173230,0.01024121,0.00675503,0.00424427,-0.00179466,-0.00321811
 ,0.02213309,-0.00655460,-0.00410822,-0.00317012,0.00114913,-0.00007451
 ,0.00001128,-0.00000522,0.00264066,-0.00013208,0.00183089,-0.00307264,
 -0.00763985,0.00184590,0.02322157,-0.00005531,0.00986934,0.02738607,0.
 10615390,-0.09696227,-0.02869535,-0.23871185,0.37478310,-0.00223265,0.
 00013144,0.00132783,0.00144326,-0.00038538,-0.00145568,-0.00022320,0.0
 0028714,0.00040920,0.00007404,-0.00015750,-0.00011698,0.00002326,-0.00
 032059,-0.00028579,0.00007766,0.00066859,0.00054127,-0.00027924,-0.000
 33854,-0.00277285,-0.00440748,0.00131078,-0.00063498,-0.00101979,-0.00
 006966,0.00126529,-0.00077830,0.00120583,0.00014402,-0.00028058,-0.000
 16790,-0.00037775,-0.00002388,-0.00003723,-0.00002664,-0.00000245,-0.0
 0000228,-0.00000106,0.00000002,-0.00000007,-0.00000007,0.00000163,0.00
 022721,0.00011714,-0.00011662,-0.00048636,-0.00018418,0.00022085,0.000
 81769,0.00024259,0.00111638,0.00030958,0.00091637,0.00088497,0.0001995
 0,-0.00142310,-0.00308281,0.01216569,-0.02495367,-0.04464019,0.0168791
 5,-0.02486423,0.01068623,0.00798581,-0.00020159,0.00054896,-0.00428907
 ,0.00124003,-0.00210640,-0.00099469,-0.00121099,0.00019593,0.00044272,
 0.00029746,-0.00019386,-0.00038563,-0.00030197,-0.00002506,-0.00047469
 ,-0.00040790,0.00000831,0.00005939,0.00013352,0.00009883,-0.00003261,0
 .00009494,-0.00001071,-0.00060164,-0.00045921,-0.00002018,-0.00022818,
 -0.00023699,-0.00075101,0.00193117,0.00117492,-0.00251491,-0.00375867,
 0.00286437,0.00406600,-0.00775036,-0.00115674,-0.00231884,0.00133412,0
 .00113990,-0.00023389,0.00015047,-0.00002383,0.00011195,0.00013083,0.0
 0006186,0.00002729,0.00000854,0.00000090,0.00000862,0.00000981,0.00001
 040,-0.00006305,-0.00021824,-0.00012624,-0.00035864,0.00452456,-0.0017
 5956,-0.02153736,0.02579592,0.00872918,-0.16539286,0.11285620,0.010095
 09,0.02651016,0.01564041,-0.01775462,-0.02350283,0.01646173,0.00153414
 ,-0.00214984,-0.00224318,-0.00063471,0.00014023,0.00062066,0.00064804,
 0.00104719,-0.00018795,0.00014600,-0.00050275,-0.00096347,-0.00033746,
 -0.00032702,-0.00076645,0.00317775,-0.01388919,-0.04393825,0.02165759,
 -0.22025409,0.01061442,0.02213237,0.55713046,0.00005348,0.00015740,-0.
 00020403,-0.00020207,0.00026913,0.00048693,0.00006020,-0.00001521,-0.0
 0002195,-0.00002334,0.00007257,0.00005331,0.00002044,0.00010128,0.0000
 7617,-0.00001082,-0.00016191,-0.00014982,0.00111378,0.00007972,-0.0009
 5525,0.00144583,0.00142068,-0.00669654,-0.00030050,0.00079819,0.002345
 74,0.00028178,0.00119215,-0.00153000,0.00012654,-0.00019524,-0.0006769
 3,0.00001874,0.00006078,0.00003292,0.00000194,0.00000162,0.00000114,-0
 .00000001,-0.00000001,-0.00000012,-0.00000272,-0.00003739,-0.00001637,
 0.00003651,0.00006131,0.00008315,-0.00007589,-0.00016201,-0.00019625,-
 0.00012043,-0.00051542,0.00139010,0.00056308,-0.00015303,0.00036044,0.
 01910801,-0.01100517,0.02709199,0.02151302,0.00134916,0.00525080,-0.00
 053536,0.00053476,0.00293656,0.00178262,-0.00094755,0.00178208,-0.0004
 1809,0.00069002,-0.00123936,0.00006958,-0.00006846,0.00033240,-0.00014
 894,-0.00000397,-0.00028608,0.00003665,-0.00021263,-0.00019574,0.00008
 348,0.00009610,0.00028874,-0.00005965,-0.00008171,-0.00011256,-0.00065
 871,-0.00038594,0.00056698,0.00057513,0.00118041,0.00060313,0.00287694
 ,-0.00203329,-0.00557478,0.00201475,0.00841144,0.00028119,-0.00413541,
 0.00284079,0.00602897,0.00029169,0.00071366,0.00115841,0.00079658,0.00
 053103,-0.00020930,0.00009766,0.00071544,0.00072319,-0.00014201,-0.000
 16212,-0.00030024,-0.00001408,-0.00001380,-0.00001934,-0.00002347,-0.0
 0009942,-0.00022507,0.00837044,-0.01960703,0.01177743,0.03024259,-0.00
 900643,-0.03346740,0.10707312,-0.23452179,0.05765911,-0.00458658,-0.04
 044259,0.01292443,0.00688876,-0.00635006,0.00281048,0.00204465,0.00086
 040,-0.00181872,-0.00013627,0.00041377,0.00037428,-0.00002187,-0.00083
 751,-0.00022997,-0.00133292,0.00179118,-0.00001502,-0.00370998,-0.0022
 9630,0.00197522,-0.02258126,0.00140223,-0.00415456,0.00230630,-0.08090
 764,0.02608421,-0.16006191,0.47729766,0.00030266,0.00014318,0.00091309
 ,0.00007295,-0.00037310,-0.00163676,0.00003178,0.00027956,0.00030137,0
 .00005740,-0.00026951,-0.00023359,-0.00002753,-0.00042107,-0.00033238,
 -0.00004416,0.00062992,0.00051701,-0.00127741,-0.00093947,0.00090180,-
 0.00152656,0.00260106,0.01217187,0.00228595,-0.00328388,-0.00288825,0.
 00520124,0.00254321,-0.00007691,0.00053836,0.00071481,0.00128887,0.000
 02361,-0.00024772,-0.00008171,0.00000462,0.00000553,0.00000192,-0.0000
 0003,-0.00000015,0.,0.00000918,0.00022202,0.00010530,-0.00011762,-0.00
 036856,-0.00014697,0.00018724,0.00067796,0.00038823,0.00065643,0.00145
 274,-0.00184409,-0.00160752,-0.00150476,0.00002186,-0.02836096,0.01964
 428,-0.02652771,-0.01553318,0.00116941,0.00286980,-0.00353735,0.002662
 83,-0.00316656,0.00067324,0.00060944,-0.00064002,-0.00062073,-0.001229
 95,0.00122676,0.00032101,0.00056270,0.00010358,-0.00000863,-0.00019278
 ,0.00002665,0.00001178,0.00000248,0.00002943,-0.00000434,-0.00001421,-
 0.00003435,-0.00001678,-0.00015260,-0.00024760,0.00011701,0.00073482,0
 .00052215,0.00003938,-0.00018503,0.00002956,-0.00104723,-0.00012571,0.
 00195364,0.00426926,-0.00516143,-0.00107696,0.00237793,0.00042835,0.00
 008118,-0.00023190,-0.00130776,-0.00055535,-0.00001705,-0.00027110,-0.
 00005150,-0.00015744,-0.00048710,-0.00037420,-0.00000430,0.00000592,0.
 00001495,-0.00000638,-0.00000345,-0.00000377,0.00005125,0.00014541,0.0
 0010107,-0.00532120,0.01480930,-0.01079395,-0.00720280,-0.01395030,0.0
 1681708,0.00747077,0.06151836,-0.08589864,-0.01249787,0.01582765,0.000
 08063,0.00371496,-0.00306166,0.00076065,0.00024793,0.00200736,0.000504
 07,-0.00007175,-0.00039213,-0.00022488,-0.00021562,0.00019266,0.000036
 29,0.00151559,-0.00023378,-0.00042716,-0.00138979,0.00219495,0.0008524
 2,0.02050331,0.00699501,-0.00384048,0.04350746,0.02389062,-0.07640318,
 -0.05953273,-0.19294572,0.40006742,0.00003941,-0.00110362,-0.00091634,
 -0.00250670,-0.00130977,-0.00237746,-0.00220949,0.00126510,0.00026856,
 0.00007396,0.00030719,0.00022708,0.00014352,0.00065893,0.00016253,0.00
 100922,0.00006490,0.00013895,0.00087573,0.00278907,-0.00135319,0.00382
 661,-0.00144955,-0.04528155,-0.02213714,0.01211031,0.00942496,0.013825
 79,-0.00617875,0.03225894,0.00216790,0.00068608,0.00318878,0.00018631,
 0.00009118,0.00010372,0.00000908,0.00000574,0.00000587,0.00001752,0.00
 010199,-0.00000575,-0.00004559,-0.00051999,-0.00020289,-0.00016781,-0.
 00040297,-0.00028653,0.00023506,0.00047441,0.00040850,-0.00205029,-0.0
 0105385,-0.00123722,0.00092779,-0.00123432,-0.00365711,-0.19629794,0.0
 3967436,-0.02355122,-0.05535655,-0.00589677,0.01478496,0.00797854,0.00
 191118,0.00986409,0.00013040,-0.00141569,0.00068149,0.00118250,0.00044
 243,0.00072774,0.00022117,0.00075173,0.00074810,-0.00011992,-0.0004602
 5,-0.00042212,-0.00000010,0.00026279,0.00017577,0.00000002,-0.00000015
 ,-0.00000008,0.00005766,-0.00061201,-0.00004944,-0.00002221,-0.0003405
 9,-0.00013568,0.00003716,-0.00058318,-0.00032705,-0.00109979,-0.000676
 67,0.00019495,0.00039304,0.00122352,-0.00057545,-0.00026939,-0.0006169
 4,-0.00094643,-0.00001420,0.00078431,-0.00000352,0.00010367,-0.0002691
 2,-0.00009160,-0.00000046,-0.00006795,-0.00004906,-0.00003004,-0.00002
 371,-0.00002078,0.00002941,0.00003385,0.00001926,-0.00001263,0.0000105
 7,0.00002332,-0.02754265,0.02947570,0.00599282,-0.00552281,-0.00128287
 ,0.01209812,0.01508714,0.00726917,-0.01775517,0.00000721,0.00160514,0.
 00117813,-0.00080303,-0.00046553,-0.00074502,0.00133702,-0.00177742,0.
 00065965,-0.00002219,-0.00053686,-0.00019056,0.00009549,0.00098577,0.0
 0039283,-0.00188129,0.00144965,-0.00104371,-0.00065971,-0.00192456,0.0
 0037673,-0.00456099,0.00326370,-0.00069633,-0.02117924,-0.01733039,0.0
 2846275,-0.09429695,0.01570962,0.01721389,0.56375927,0.00011203,0.0000
 1950,0.00072912,0.00122789,0.00083718,0.00300329,0.00023966,-0.0006080
 7,-0.00082017,-0.00004585,-0.00024200,-0.00007345,-0.00001899,-0.00011
 936,-0.00013384,-0.00034838,-0.00016511,-0.00024222,-0.00281927,0.0017
 5059,-0.00057370,0.00431933,-0.00220222,0.01682532,0.01008564,-0.00448
 691,-0.00709077,-0.01127847,0.00743841,-0.01425663,-0.00143767,-0.0007
 1639,-0.00167327,-0.00020758,-0.00038119,-0.00022016,-0.00002515,-0.00
 002707,-0.00000758,0.00003797,0.00008322,-0.00001280,0.00000818,-0.000
 05223,-0.00001921,-0.00006655,-0.00012604,-0.00007509,0.00028249,0.000
 34341,0.00029538,-0.00027319,0.00025845,-0.00087599,0.00135302,0.00024
 468,0.00074167,0.05411455,-0.06639896,0.02274414,0.00539232,0.00770058
 ,-0.00445163,-0.00494820,0.00020919,0.00092157,-0.00125168,-0.00029104
 ,-0.00165321,-0.00000938,-0.00044701,0.00136665,0.00010871,0.00037465,
 0.00028991,-0.00005229,-0.00015898,-0.00018445,0.00000297,0.00013074,0
 .00009428,0.,-0.00000012,-0.00000013,-0.00014661,0.00077067,-0.0002293
 5,0.00034060,0.00077459,0.00043803,-0.00009034,0.00102498,0.00062649,0
 .00048137,-0.00148957,0.00145107,-0.00102067,-0.00031246,0.00100803,-0
 .00051169,0.00053026,-0.00074297,0.00023540,0.00037742,0.00022092,-0.0
 0015580,-0.00033728,-0.00011790,-0.00010278,-0.00035554,-0.00029484,0.
 00010650,0.00009433,0.00010607,-0.00006078,-0.00007672,-0.00005144,0.0
 0003765,-0.00000413,-0.00024465,0.01276869,-0.01523214,-0.01410896,-0.
 00073414,-0.00295521,0.00685359,0.00931119,-0.02853928,0.01256502,0.00
 286150,-0.00163040,0.00341264,0.00307195,-0.00151524,-0.00108731,-0.00
 155908,-0.00131945,0.00040803,0.00005675,-0.00028390,-0.00010321,-0.00
 013163,0.00043470,0.00013208,0.00111695,0.00058879,0.00011964,-0.00003
 321,0.00006036,-0.00091941,0.00059683,0.00758715,-0.00087614,-0.014448
 42,0.00192977,0.00815584,0.00418797,-0.10718913,0.07933284,-0.15257174
 ,0.28991407,-0.00168250,0.00089889,0.00063802,-0.00130752,-0.00194436,
 -0.00111401,-0.00001098,0.00196035,0.00063898,-0.00000731,0.00031848,0
 .00053900,0.00021473,0.00093553,0.00037374,0.00029213,-0.00056643,-0.0
 0058837,-0.00110138,0.00052605,-0.00441547,-0.03108511,0.00168414,-0.0
 1861409,0.00023285,0.00272517,0.00067318,0.01526321,-0.01562090,-0.032
 74478,0.00066190,-0.00314212,-0.00259340,-0.00012010,0.00017949,0.0000
 3393,-0.00002502,-0.00004363,0.00000092,0.00010278,0.00028510,-0.00003
 358,-0.00005103,-0.00041439,-0.00011538,-0.00025637,-0.00026653,0.0001
 2446,0.00007978,0.00015826,-0.00035865,-0.00108398,-0.00110419,0.00159
 296,0.00162840,0.00059469,-0.00253363,-0.03808276,0.02313854,-0.111406
 15,0.01423530,-0.00158765,0.00836715,0.00431025,0.00354011,-0.00034228
 ,0.00140720,0.00013371,0.00086966,0.00044479,0.00141435,-0.00199948,-0
 .00014675,-0.00038222,-0.00014246,0.00006685,0.00013779,0.00007172,-0.
 00000356,-0.00007526,-0.00005832,0.,-0.00000008,0.00000010,-0.00032042
 ,0.00092671,-0.00041097,-0.00013559,-0.00043780,-0.00029693,0.00001314
 ,-0.00023293,-0.00026950,0.00060861,-0.00051094,-0.00142717,-0.0005421
 0,0.00318377,-0.00001859,-0.00043280,0.00073420,0.00046222,-0.00001403
 ,-0.00006584,-0.00009256,0.00002905,0.00022954,0.00008286,0.00005551,0
 .00024127,0.00019228,-0.00001458,-0.00001800,-0.00003014,-0.00002620,-
 0.00007019,0.00001296,-0.00006329,-0.00033528,-0.00003913,0.01653609,-
 0.03139572,0.02566011,0.01594188,0.00042617,-0.02671550,-0.03036029,0.
 03306367,-0.00188243,-0.00175020,-0.00012903,0.00082108,-0.00147762,0.
 00318076,0.00012790,0.00106223,0.00115414,-0.00017191,0.00000924,0.000
 22263,0.00010153,0.00007529,-0.00033821,-0.00009478,-0.00110760,-0.000
 27982,0.00006070,0.00072272,-0.00157123,0.00149086,-0.00112884,-0.0093
 2711,0.00573976,0.03680652,0.01428499,-0.02046868,0.03566651,0.0804844
 9,-0.19077805,-0.12464391,-0.08368268,0.57330698,0.00207630,-0.0004068
 4,-0.00152696,-0.00299544,0.00106003,-0.00385009,-0.00189125,0.0027802
 3,0.00207722,-0.00010827,-0.00176213,-0.00091053,0.00026752,0.00061845
 ,0.00018030,-0.00100705,-0.00016374,0.00032497,0.00051098,-0.00135552,
 0.00163544,-0.00502615,0.00419703,0.00231918,-0.01104049,-0.00427174,-
 0.02452985,-0.08736125,0.02356714,-0.02856209,0.00416086,0.00098495,0.
 00099963,-0.00007970,0.00147659,0.00025670,-0.00002451,-0.00008848,-0.
 00001468,-0.00000505,0.00006828,0.00000691,-0.00004793,-0.00034410,-0.
 00010053,-0.00027841,-0.00023943,0.00017140,0.00052565,0.00047350,-0.0
 0035965,0.00064406,-0.00007902,0.00053580,0.00024348,0.00124237,-0.000
 08181,-0.03644345,0.00985003,0.01050363,0.00235856,0.00435253,-0.00539
 020,-0.00357594,-0.00049805,-0.00143553,-0.00037508,0.00050307,-0.0004
 2414,0.00066677,0.00072892,-0.00023559,-0.00020924,-0.00033990,-0.0000
 7980,0.00011597,0.00035303,0.00000034,-0.00000015,-0.00000023,0.000000
 12,0.00000087,0.00000056,-0.00000054,-0.00072700,0.00061536,-0.0000994
 5,0.00003717,0.00009037,0.00001314,-0.00021077,-0.00056147,0.00007001,
 0.00069345,-0.00155054,0.00168419,0.00017496,-0.00657881,0.00279763,0.
 00148837,0.00192939,-0.00234848,-0.00001355,-0.00024139,-0.00002792,0.
 00000625,0.00007767,0.00002182,-0.00002111,-0.00004776,-0.00004197,-0.
 00000978,-0.00000551,0.00000880,0.00000701,-0.00013050,0.00004457,-0.0
 0021636,-0.00062934,-0.00033437,-0.11434725,0.08903150,0.00592341,0.01
 055365,0.01262906,-0.03383025,-0.01697278,0.01158671,0.00953031,-0.000
 11536,0.00279282,-0.00216354,-0.00154864,0.00129419,0.00017666,-0.0001
 8651,0.00052633,-0.00023511,0.00007880,0.00012024,0.00008315,-0.000155
 59,-0.00025716,-0.00006564,0.00029468,-0.00002084,0.00012225,0.0009561
 3,0.00026362,0.00054503,-0.00001677,-0.00568647,0.00362856,0.00936770,
 0.00176746,-0.00264208,-0.00009085,-0.02291348,0.03119747,-0.18388316,
 0.07746872,0.09237538,0.43196943,-0.00066695,-0.00012631,0.00150667,0.
 00023468,0.00121828,-0.00282853,-0.00001367,-0.00052762,-0.00055957,-0
 .00067771,0.00014611,-0.00029851,0.00027281,0.00015360,0.00009599,0.00
 003582,0.00011196,-0.00002777,0.00102143,0.00019929,-0.00054541,0.0022
 7073,-0.00011232,-0.00162028,0.00133092,0.00641316,0.01723134,0.027067
 53,-0.07082553,0.00202392,0.00361389,0.00003758,-0.00274215,-0.0000301
 1,-0.00108796,-0.00055756,0.00047092,0.00006241,0.00009009,-0.00017992
 ,-0.00006822,-0.00000502,-0.00008104,0.00002178,0.00000769,-0.00009236
 ,-0.00005513,0.00003748,-0.00024664,-0.00008011,0.00004343,-0.00023226
 ,-0.00007428,0.00002218,-0.00137169,-0.00046303,-0.00044559,0.01869151
 ,-0.00575726,-0.01113467,-0.00196228,0.00036337,0.00476868,-0.00001278
 ,-0.00035798,-0.00045549,0.00060924,0.00050358,-0.00010177,-0.00049021
 ,-0.00038678,0.00001516,-0.00001145,0.00000476,-0.00002065,-0.00000126
 ,-0.00000724,-0.00000184,-0.00000106,-0.00000017,0.00000005,0.00004203
 ,0.00002330,-0.00001546,0.00014934,-0.00050036,0.00047029,0.00058320,0
 .00102493,0.00023311,0.00056158,-0.00084730,0.00021514,-0.00159263,0.0
 0458766,-0.00196221,0.00446400,0.00313888,0.00192984,-0.00076951,-0.00
 317492,0.00015076,0.00011118,-0.00004057,0.00019874,-0.00023365,-0.000
 10217,-0.00001356,-0.00014815,-0.00023500,-0.00007973,0.00004759,0.000
 02030,0.00014329,-0.00000943,0.00012496,-0.00032818,0.00066099,0.00069
 510,-0.00025757,0.08647703,-0.17273980,0.00592084,-0.00893648,-0.02468
 141,0.04488731,0.01730383,-0.01140878,-0.00658115,-0.00032281,-0.00122
 103,0.00003053,0.00103501,-0.00146864,0.00142607,-0.00002638,-0.000004
 00,-0.00007101,0.00016917,0.00012928,0.00010522,-0.00006612,-0.0000539
 6,-0.00003766,0.00006929,0.00014336,0.00000426,-0.00012098,-0.00016226
 ,0.00015433,0.00005057,0.00214757,-0.00224880,-0.00627300,0.00035131,0
 .00549960,-0.00899113,0.01714074,-0.01625507,0.08254049,-0.09107380,-0
 .02907100,-0.22233394,0.36864978,-0.00186602,0.00028124,0.00001404,0.0
 0091139,0.00160174,0.00176917,-0.00194855,0.00014199,0.00071838,-0.000
 83360,-0.00197851,-0.00121563,0.00029128,0.00039156,0.00013958,-0.0003
 8214,0.00033697,0.00092430,-0.00245915,-0.00098695,-0.00257704,0.01116
 132,-0.00344294,-0.02699558,-0.04174528,0.01746046,-0.00732738,-0.0334
 0625,-0.01423938,-0.22626440,0.00937236,0.00367268,0.00948735,-0.00024
 072,0.00177475,0.00032720,0.00036384,-0.00000548,0.00006236,-0.0001398
 7,-0.00002252,0.00000833,-0.00008381,-0.00014264,-0.00004659,-0.000407
 15,-0.00036682,0.00012988,0.00065809,0.00065089,-0.00010430,0.00014568
 ,0.00003977,-0.00037548,-0.00018190,0.00044035,-0.00320863,0.02539616,
 -0.01161243,0.02822410,-0.00903975,-0.00147750,0.00583510,0.00480604,-
 0.00035816,0.00455156,-0.00053864,-0.00069023,0.00025322,0.00007988,-0
 .00002950,0.00015439,0.00010093,0.00011022,0.00007116,0.00003418,0.000
 06860,-0.00003611,-0.00000015,-0.00000017,0.00000031,0.00003276,0.0000
 1831,-0.00001201,0.00060428,-0.00115629,0.00093155,-0.00032691,-0.0006
 2613,-0.00026952,0.00007010,-0.00021527,0.00014608,0.00008411,-0.00002
 870,-0.00052526,0.00028238,-0.00013805,-0.00348158,-0.00193438,0.00243
 967,0.00145886,-0.00008860,0.00028113,-0.00005187,0.00010878,0.0000007
 9,0.00000471,0.00006239,0.00016239,0.00016976,-0.00008216,-0.00009274,
 -0.00000836,0.00004387,-0.00011537,-0.00010207,0.00005125,0.00010371,-
 0.00077671,-0.01393825,0.03497199,-0.09658528,-0.00884792,0.03377672,-
 0.01012857,0.00223851,0.00119108,-0.00564529,0.00190661,-0.00085656,0.
 00043961,-0.00117785,-0.00154331,-0.00000311,0.00020977,-0.00034576,0.
 00023827,-0.00016687,-0.00017173,-0.00012966,0.00016020,0.00019747,0.0
 0007973,-0.00091271,-0.00065751,-0.00001021,0.00046185,0.00062372,-0.0
 0054912,-0.00035284,0.00144957,-0.00122014,-0.00706001,0.00269996,-0.0
 0064726,0.02735951,0.00172857,-0.03292209,0.10057811,-0.03110217,-0.20
 829543,-0.07787418,0.02574176,0.62671804,0.00101074,0.00007351,-0.0001
 8242,-0.00031205,0.00501778,0.00220049,0.00570337,-0.00331350,0.000433
 38,0.00123160,-0.00415409,-0.00220991,-0.00232148,-0.00026327,0.000196
 03,-0.00061226,-0.00040245,-0.00020288,0.00017196,0.00008229,0.0000368
 8,-0.00016768,-0.00031182,-0.00024795,-0.00146225,-0.00012512,-0.00068
 691,0.00005857,-0.00131290,-0.00040877,0.00852012,0.01533893,0.0060790
 6,-0.02311203,0.01458970,-0.01716749,-0.00153140,-0.00310413,-0.000997
 31,0.00012357,0.00184321,0.00107106,-0.00082906,-0.00115289,-0.0008201
 8,0.00075588,0.00032417,-0.00002455,0.00060183,-0.00055156,-0.00029409
 ,-0.00017392,0.00013228,0.00020654,-0.00014953,0.00007472,0.00016751,0
 .00003344,0.00000079,0.00005459,0.00001387,-0.00000824,-0.00004822,0.0
 0006119,0.00000109,-0.00007047,-0.00000008,0.00000004,0.00000010,0.000
 15208,-0.00018768,-0.00026089,-0.00034126,0.00036619,0.00009705,0.0005
 5782,-0.00063943,-0.00023363,-0.00060900,0.00059543,-0.00031576,0.0003
 5113,-0.00163642,0.00147626,-0.15230927,0.05905398,-0.13165569,0.00625
 999,0.00051710,-0.00138327,0.00826219,0.00328722,0.00952316,-0.0007395
 2,0.00380005,-0.00574054,0.00048921,-0.00237505,0.00182561,-0.00000875
 ,0.00101350,0.00100704,0.00013386,-0.00052126,-0.00139160,-0.00085476,
 0.00005513,0.00212561,-0.00061832,0.00184357,-0.00479759,-0.00157186,-
 0.00291767,-0.00066180,-0.02371050,-0.01805631,0.00777088,-0.10963131,
 -0.07506993,0.02050122,-0.00062519,0.00150668,-0.00013270,-0.00039698,
 -0.00179217,-0.00130207,0.00026146,0.00016537,-0.00013328,0.00010573,-
 0.00078387,-0.00028206,0.00010875,-0.00007829,0.00003490,0.00034256,-0
 .00008288,-0.00001012,0.00047729,-0.00021628,-0.00043778,-0.00028906,0
 .00017120,0.00037361,-0.00018443,0.00005364,-0.00002528,0.00007795,-0.
 00005760,-0.00000711,-0.00007248,0.00009853,0.00002305,-0.00003929,0.0
 0004021,0.00002357,-0.00001547,-0.00002885,0.00002920,-0.00004050,0.00
 001849,0.00028601,0.00034715,-0.00093174,-0.00046594,0.42041597,-0.000
 51499,-0.00043639,-0.00006241,0.00199446,-0.00200203,-0.00049215,-0.00
 670710,-0.00175464,-0.00190995,-0.00787688,0.00774293,-0.00227349,0.00
 515544,0.00301711,-0.00094866,-0.00101467,0.00083703,0.00040484,-0.000
 55007,0.00020924,0.00018401,-0.00011377,0.00062048,0.00024290,-0.00067
 867,-0.00113556,0.00091504,-0.00143890,0.00590764,0.00065886,0.0228499
 7,-0.02806953,0.01985713,0.03151751,0.02544905,0.00306392,0.00500487,-
 0.01903395,0.01735672,-0.00469785,-0.00137502,0.00089838,0.00103499,-0
 .00226042,0.00089691,0.00016723,-0.00036834,0.00010167,0.00021113,0.00
 002387,-0.00006792,0.00007356,-0.00002848,-0.00007833,0.00020537,-0.00
 006164,-0.00018694,0.00016268,-0.00023175,-0.00014953,0.00003303,-0.00
 001183,0.00005161,-0.00017765,-0.00000508,0.00015734,0.00000021,0.0000
 0003,-0.00000005,0.00000740,-0.00003125,0.00000442,-0.00025558,0.00020
 748,0.00011821,0.00058786,-0.00036667,-0.00027216,0.00003937,0.0005114
 3,-0.00050074,-0.00104785,-0.00033245,-0.00020990,0.02972842,-0.165872
 95,0.09288105,0.00598244,0.00382541,-0.00308301,0.00114288,-0.00453077
 ,0.03482720,0.00332054,0.00364310,-0.00331575,-0.00255351,0.00086958,0
 .00418074,-0.00030794,0.00060365,0.00196172,0.00014281,-0.00031985,-0.
 00154855,-0.00065318,0.00013238,0.00127257,-0.00273189,0.00047573,0.00
 004320,0.00176082,0.00205416,-0.00271625,-0.03945304,-0.01254573,-0.01
 665004,-0.06646750,-0.16917604,0.06837343,-0.00152110,-0.00421724,-0.0
 0009815,0.00106922,-0.00102778,0.00073288,-0.00006705,0.00057117,0.000
 31385,-0.00011024,-0.00086691,-0.00045011,0.00000906,0.00012154,0.0001
 0008,0.00018600,-0.00010911,-0.00002808,0.00000539,-0.00006499,0.00005
 999,-0.00016956,0.00008198,0.00011147,-0.00010798,0.00006336,0.0000172
 8,0.00001740,-0.00002079,-0.00000310,-0.00004346,0.00002825,0.00002521
 ,0.00005780,-0.00000632,-0.00010975,-0.00021737,0.00006853,0.00003425,
 -0.00026759,-0.00010504,0.00078103,0.00014325,0.00096383,-0.00145314,0
 .05670600,0.47442687,0.00046514,0.00007388,0.00005963,-0.00005921,0.00
 394716,0.00152626,0.00697539,-0.00418999,0.00455918,0.00577337,-0.0080
 7743,0.00382574,-0.00287856,-0.00198900,0.00006843,-0.00033139,-0.0001
 2633,-0.00000005,0.00030538,-0.00009372,-0.00009609,-0.00022529,-0.000
 09362,-0.00022743,0.00009127,-0.00223967,-0.00132720,-0.00176008,0.001
 29167,0.00021341,-0.00192686,0.02752067,0.00126970,-0.03721599,-0.0014
 5276,-0.01652884,-0.00236975,0.01595461,-0.01071156,0.00072230,0.00178
 456,-0.00084990,0.00080200,0.00123364,-0.00102636,0.00036394,0.0001428
 7,-0.00008958,0.00052834,-0.00040628,-0.00023319,-0.00008008,0.0000467
 4,0.00008843,-0.00007239,0.00004130,0.00008436,0.00003549,-0.00004713,
 0.00009360,0.00004766,-0.00002847,-0.00001727,-0.00001334,-0.00000106,
 -0.00000394,0.00000023,-0.00000001,0.00000005,0.00002176,-0.00001322,-
 0.00004791,0.00019948,-0.00015055,-0.00006485,0.00005229,-0.00002015,0
 .00010379,-0.00052473,-0.00011638,0.00029813,0.00123239,-0.00154345,0.
 00089579,-0.12494721,0.12313770,-0.22340800,-0.00868672,-0.00308472,0.
 00169252,0.01041636,0.02768802,-0.04855950,-0.01627127,0.00082569,-0.0
 4688778,-0.00272681,0.00450100,0.00156570,0.00171294,-0.00059095,-0.00
 120996,-0.00131550,-0.00079391,-0.00049324,0.00175462,0.00070666,-0.00
 008024,0.00136966,-0.00059745,-0.00022973,-0.00209465,0.00112281,0.002
 28513,0.01952509,-0.00698564,0.02619877,-0.00335853,0.03808394,-0.0994
 8258,-0.00138517,-0.00139859,-0.00336101,0.00090377,-0.00253426,0.0002
 1365,-0.00009052,-0.00145468,-0.00041934,0.00012352,0.00197524,0.00017
 552,-0.00014343,0.00060370,-0.00021110,-0.00108845,0.00039767,0.000194
 29,-0.00074791,0.00007162,0.00006387,0.00038676,-0.00011190,0.00002590
 ,0.00067629,-0.00024140,-0.00010452,-0.00033319,0.00021620,0.00002480,
 0.00028653,-0.00037937,-0.00007987,0.00016791,-0.00027292,-0.00000998,
 -0.00020847,0.00010904,0.00010165,-0.00002015,-0.00017531,0.00041027,0
 .00065567,0.00146513,-0.00095270,0.18894097,-0.18977907,0.51542842,0.0
 0012356,-0.00184342,0.00107086,-0.00153126,0.00310425,-0.00099667,-0.0
 2311129,-0.01458687,-0.01716979,0.00123122,0.00415432,-0.00220943,-0.0
 0232158,0.00026311,0.00019597,-0.00082910,0.00115308,-0.00081997,0.000
 35107,0.00163622,0.00147649,-0.00157195,0.00291776,-0.00066114,-0.0237
 1043,0.01805487,0.00777444,-0.10963248,0.07506679,0.02051442,-0.152310
 76,-0.05903319,-0.13166602,0.00570330,0.00331323,0.00043388,-0.0003121
 0,-0.00501828,0.00219955,0.00101071,-0.00007349,-0.00018241,-0.0006122
 8,0.00040247,-0.00020277,0.00060185,0.00055160,-0.00029400,0.00075589,
 -0.00032416,-0.00002461,0.00055785,0.00063947,-0.00023355,-0.00060900,
 -0.00059540,-0.00031587,-0.00061846,-0.00184274,-0.00479796,-0.0008547
 0,-0.00005552,0.00212556,0.00047727,0.00021636,-0.00043771,-0.00028906
 ,-0.00017127,0.00037358,-0.00034127,-0.00036621,0.00009700,0.00015207,
 0.00018772,-0.00026085,-0.00017391,-0.00013232,0.00020650,-0.00014952,
 -0.00007474,0.00016748,0.00017196,-0.00008227,0.00003685,0.00852004,-0
 .01533923,0.00607628,-0.00004051,-0.00001855,0.00028598,0.00034710,0.0
 0093193,-0.00046581,-0.00062522,-0.00150663,-0.00013280,-0.00039690,0.
 00179243,-0.00130208,0.00026143,-0.00016539,-0.00013327,-0.00003930,-0
 .00004022,0.00002357,0.00001387,0.00000825,-0.00004822,0.00003343,-0.0
 0000080,0.00005459,-0.00016768,0.00031186,-0.00024789,-0.00146222,0.00
 012518,-0.00068690,0.00005866,0.00131334,-0.00040857,-0.00073767,-0.00
 379790,-0.00574181,0.00048879,0.00237455,0.00182633,-0.00000870,-0.001
 01357,0.00100669,0.00010570,0.00078394,-0.00028192,0.00010878,0.000078
 31,0.00003489,-0.00007248,-0.00009855,0.00002303,0.00006119,-0.0000010
 8,-0.00007046,-0.00000008,-0.00000004,0.00000010,0.00007796,0.00005761
 ,-0.00000710,-0.00018444,-0.00005364,-0.00002529,0.00034252,0.00008288
 ,-0.00001008,0.00013390,0.00052150,-0.00139154,-0.00024459,-0.00037178
 ,-0.00116194,0.00626004,-0.00051692,-0.00138330,0.00826244,-0.00328837
 ,0.00952273,-0.00624275,0.00228244,-0.00731483,0.42041916,0.00469770,-
 0.00137453,-0.00089851,-0.00500445,-0.01902800,-0.01735824,-0.03151092
 ,0.02544912,-0.00305663,0.00787570,0.00774115,0.00227413,-0.00515498,0
 .00301660,0.00094914,-0.00103509,-0.00226005,-0.00089711,0.00104758,-0
 .00033275,0.00020968,-0.00176061,0.00205395,0.00271618,0.03944938,-0.0
 1254985,0.01664327,0.06646799,-0.16915438,-0.06838417,-0.02970637,-0.1
 6583493,-0.09286947,0.00670580,-0.00175582,0.00190868,-0.00199447,-0.0
 0200149,0.00049144,0.00051487,-0.00043639,0.00006234,0.00101468,0.0008
 3707,-0.00040467,-0.00021120,0.00002378,0.00006796,-0.00016731,-0.0003
 6829,-0.00010171,-0.00058787,-0.00036672,0.00027208,-0.00003925,0.0005
 1132,0.00050076,0.00273171,0.00047561,-0.00004308,0.00065292,0.0001327
 2,-0.00127257,-0.00000523,-0.00006496,-0.00006003,0.00016950,0.0000819
 8,-0.00011146,0.00025554,0.00020747,-0.00011816,-0.00000741,-0.0000312
 6,-0.00000442,-0.00007353,-0.00002849,0.00007830,-0.00020536,-0.000061
 66,0.00018691,0.00055004,0.00020928,-0.00018397,-0.02284954,-0.0280608
 8,-0.01986189,0.00026758,-0.00010484,-0.00078106,-0.00014299,0.0009637
 5,0.00145345,0.00152138,-0.00421744,0.00009772,-0.00106943,-0.00102795
 ,-0.00073343,0.00006718,0.00057106,-0.00031378,-0.00005784,-0.00000640
 ,0.00010975,-0.00003302,-0.00001182,-0.00005161,-0.00016273,-0.0002318
 1,0.00014949,0.00011381,0.00062051,-0.00024274,0.00067889,-0.00113579,
 -0.00091492,0.00143877,0.00590801,-0.00065774,-0.00331788,0.00364329,0
 .00332447,0.00255434,0.00087078,-0.00418071,0.00030765,0.00060392,-0.0
 0196144,0.00011027,-0.00086669,0.00044993,-0.00000905,0.00012167,-0.00
 010001,0.00004336,0.00002818,-0.00002517,0.00017764,-0.00000505,-0.000
 15733,-0.00000021,0.00000003,0.00000005,-0.00001734,-0.00002075,0.0000
 0309,0.00010786,0.00006333,-0.00001725,-0.00018579,-0.00010904,0.00002
 802,-0.00014260,-0.00032026,0.00154857,-0.00031840,0.00081749,-0.00041
 700,-0.00598100,0.00382437,0.00308353,-0.00114424,-0.00452046,-0.03481
 992,-0.00228123,-0.01585360,-0.00453156,-0.05673770,0.47435534,0.00072
 319,-0.00178465,-0.00085033,-0.00237059,-0.01595601,-0.01071741,-0.037
 22095,0.00145988,-0.01652844,0.00577443,0.00807814,0.00382744,-0.00287
 945,0.00198947,0.00006892,0.00080178,-0.00123384,-0.00102672,0.0012326
 0,0.00154323,0.00089608,-0.00209520,-0.00112279,0.00228529,0.01953272,
 0.00697837,0.02620278,-0.00334772,-0.03809586,-0.09949875,-0.12495116,
 -0.12312616,-0.22344014,0.00697666,0.00418875,0.00456035,-0.00005954,-
 0.00394777,0.00152563,0.00046519,-0.00007398,0.00005964,-0.00033123,0.
 00012647,-0.00000008,0.00052831,0.00040632,-0.00023312,0.00036390,-0.0
 0014291,-0.00008962,0.00005219,0.00002007,0.00010384,-0.00052473,0.000
 11641,0.00029823,0.00137040,0.00059743,-0.00022958,0.00175480,-0.00070
 665,-0.00008054,-0.00074794,-0.00007163,0.00006383,0.00038680,0.000111
 91,0.00002590,0.00019952,0.00015060,-0.00006484,0.00002176,0.00001323,
 -0.00004791,-0.00008009,-0.00004676,0.00008843,-0.00007242,-0.00004133
 ,0.00008438,0.00030547,0.00009378,-0.00009612,-0.00193089,-0.02752523,
 0.00126114,-0.00002017,0.00017505,0.00041009,0.00065544,-0.00146492,-0
 .00095280,-0.00138484,0.00139828,-0.00336037,0.00090383,0.00253383,0.0
 0021388,-0.00009077,0.00145470,-0.00041900,0.00016793,0.00027295,-0.00
 000992,0.00004765,0.00002847,-0.00001727,0.00003550,0.00004711,0.00009
 365,-0.00022526,0.00009376,-0.00022747,0.00009131,0.00223964,-0.001326
 97,-0.00175966,-0.00129055,0.00021308,-0.01627218,-0.00081785,-0.04688
 630,-0.00272737,-0.00450087,0.00156424,0.00171280,0.00059152,-0.001210
 23,0.00012348,-0.00197547,0.00017527,-0.00014341,-0.00060369,-0.000211
 25,0.00028668,0.00037947,-0.00007986,-0.00001331,0.00000106,-0.0000039
 7,0.00000023,0.00000001,0.00000005,-0.00033323,-0.00021623,0.00002476,
 0.00067633,0.00024144,-0.00010448,-0.00108842,-0.00039770,0.00019420,-
 0.00131576,0.00079403,-0.00049274,0.00041788,0.00101015,0.00061383,-0.
 00868744,0.00308454,0.00169305,0.01041550,-0.02767914,-0.04857074,-0.0
 0731510,0.00452976,-0.00624666,0.18892817,0.18977095,0.51548481,0.0000
 0002,0.00000007,-0.00000007,-0.00000245,0.00000228,-0.00000106,-0.0000
 2388,0.00003724,-0.00002663,0.00007404,0.00015752,-0.00011696,0.000023
 26,0.00032063,-0.00028573,0.00000163,-0.00022722,0.00011710,0.00000831
 ,-0.00005941,0.00013351,0.00002730,-0.00000854,0.00000091,0.00000861,-
 0.00000981,0.00001039,-0.00006303,0.00021826,-0.00012619,0.00009883,0.
 00003258,0.00009496,-0.00022321,-0.00028721,0.00040913,0.00144322,0.00
 038563,-0.00145565,-0.00223262,-0.00013168,0.00132783,0.00007766,-0.00
 066868,0.00054115,0.00022085,-0.00081772,0.00024246,-0.00011662,0.0004
 8639,-0.00018409,-0.00019387,0.00038568,-0.00030191,-0.00002506,0.0004
 7476,-0.00040781,0.00011191,-0.00013081,0.00006181,-0.00023392,-0.0001
 5044,-0.00002387,0.00014024,-0.00062078,0.00064794,0.00104719,0.000187
 94,0.00014603,0.00019593,-0.00044278,0.00029738,-0.00210641,0.00099488
 ,-0.00121082,0.00111638,-0.00030973,0.00091633,0.00088491,-0.00019922,
 -0.00142316,-0.00027933,0.00033901,-0.00277288,-0.00028053,0.00016796,
 -0.00037762,-0.09429810,-0.00419498,0.03566561,-0.00009055,0.00898681,
 0.02736085,-0.00035989,-0.00452526,-0.00176026,-0.02153526,-0.02579616
 ,0.00872339,-0.16539480,-0.11286184,0.01007404,-0.22025038,-0.01061810
 ,0.02212983,-0.04464037,-0.01687472,-0.02486673,-0.00308191,-0.0121614
 0,-0.02495608,-0.00440711,-0.00131044,-0.00063460,-0.00101978,0.000069
 38,0.00126489,-0.00077841,-0.00120570,0.00014446,-0.00075110,-0.001931
 23,0.00117459,-0.00251547,0.00375785,0.00286512,0.00406641,0.00775096,
 -0.00115536,0.02650892,-0.01563715,-0.01775690,-0.02350188,-0.01646286
 ,0.00153082,-0.01388961,0.04393465,0.02166551,0.01068660,-0.00798573,-
 0.00020287,0.00054850,0.00428896,0.00124069,-0.00032673,0.00076585,0.0
 0317784,-0.00050282,0.00096355,-0.00033729,-0.00215014,0.00224368,-0.0
 0063421,-0.00231868,-0.00133464,0.00113967,0.00345519,-0.00224320,-0.0
 0097695,-0.00001066,0.00060167,-0.00045910,-0.00002013,0.00022810,-0.0
 0023696,-0.00024439,0.00031843,0.00041789,-0.00001547,0.00021734,-0.00
 020835,0.55712980,0.00000001,-0.00000001,0.00000012,-0.00000194,0.0000
 0162,-0.00000114,-0.00001875,0.00006074,-0.00003290,0.00002333,0.00007
 254,-0.00005326,-0.00002044,0.00010122,-0.00007609,0.00000272,-0.00003
 736,0.00001634,-0.00008347,0.00009615,-0.00028872,0.00014205,-0.000162
 20,0.00030025,0.00001408,-0.00001381,0.00001934,0.00002350,-0.00009943
 ,0.00022498,0.00005965,-0.00008176,0.00011259,-0.00006020,-0.00001517,
 0.00002189,0.00020206,0.00026914,-0.00048660,-0.00005355,0.00015739,0.
 00020389,0.00001083,-0.00016183,0.00014970,0.00007586,-0.00016193,0.00
 019616,-0.00003649,0.00006126,-0.00008311,0.00014894,-0.00000405,0.000
 28608,-0.00003665,-0.00021266,0.00019570,-0.00009773,0.00071560,-0.000
 72310,-0.00079673,0.00053103,0.00020936,0.00013632,0.00041375,-0.00037
 416,0.00002192,-0.00083752,0.00022981,-0.00006963,-0.00006831,-0.00033
 242,0.00041820,0.00068959,0.00123926,0.00012031,-0.00051492,-0.0013898
 7,-0.00056279,-0.00015323,-0.00036048,-0.00111352,0.00007941,0.0009551
 7,-0.00012662,-0.00019522,0.00067666,-0.01571221,-0.10716018,-0.080467
 62,0.02290821,0.01713847,-0.00171963,-0.00836978,-0.01960283,-0.011778
 42,-0.03023965,-0.00901349,0.03346112,-0.10707675,-0.23450477,-0.05768
 582,-0.00231401,-0.08089976,-0.02608508,-0.02151049,0.00135009,-0.0052
 5118,-0.01910310,-0.01099714,-0.02708937,-0.00144559,0.00141997,0.0066
 9454,0.00030014,0.00079799,-0.00234515,-0.00028289,0.00119222,0.001530
 21,-0.00287689,-0.00203398,0.00557413,-0.00201605,0.00841001,-0.000279
 59,0.00413566,0.00284249,-0.00602852,0.00458902,-0.04043714,-0.0129310
 1,-0.00688943,-0.00634962,-0.00281157,0.02257735,0.00140285,0.00415585
 ,0.00053601,0.00053571,-0.00293595,-0.00178282,-0.00094712,-0.00178212
 ,0.00371045,-0.00229556,-0.00197577,0.00133257,0.00179114,0.00001541,-
 0.00204502,0.00086054,0.00181886,-0.00029143,0.00071323,-0.00115811,0.
 00224330,-0.00303396,0.00035601,0.00065899,-0.00038616,-0.00056710,-0.
 00057506,0.00118044,-0.00060307,0.00037202,0.00081760,-0.00101018,0.00
 002885,0.00006848,-0.00010878,0.16007541,0.47723234,-0.00000003,0.0000
 0015,0.,0.00000462,-0.00000553,0.00000192,0.00002360,0.00024774,-0.000
 08167,0.00005740,0.00026957,-0.00023355,-0.00002754,0.00042115,-0.0003
 3232,0.00000918,-0.00022205,0.00010526,-0.00000436,0.00001423,-0.00003
 440,-0.00000427,-0.00000595,0.00001500,-0.00000638,0.00000345,-0.00000
 376,0.00005124,-0.00014543,0.00010106,-0.00001676,0.00015264,-0.000247
 57,0.00003178,-0.00027963,0.00030136,0.00007305,0.00037342,-0.00163671
 ,0.00030263,-0.00014332,0.00091312,-0.00004414,-0.00063005,0.00051694,
 0.00018725,-0.00067805,0.00038814,-0.00011763,0.00036859,-0.00014692,-
 0.00000860,0.00019277,0.00002673,0.00001178,-0.00000252,0.00002947,-0.
 00015746,0.00048728,-0.00037424,-0.00001720,0.00027120,-0.00005142,-0.
 00007172,0.00039224,-0.00022487,-0.00021561,-0.00019282,0.00003630,0.0
 0032101,-0.00056273,0.00010343,-0.00062065,0.00122984,0.00122720,0.000
 65646,-0.00145250,-0.00184458,-0.00160758,0.00150472,0.00002209,-0.001
 27753,0.00093936,0.00090220,0.00053828,-0.00071506,0.00128877,0.017212
 18,-0.07931527,-0.19080187,0.03120164,0.01626359,-0.03291982,-0.005322
 05,-0.01481001,-0.01079748,-0.00720919,0.01394449,0.01682518,0.0074519
 2,-0.06154358,-0.08592125,0.04350555,-0.02389194,-0.07641213,-0.015536
 70,-0.00116959,0.00286881,-0.02836460,-0.01964175,-0.02653596,-0.00152
 690,-0.00260296,0.01217245,0.00228590,0.00328457,-0.00288824,0.0052012
 3,-0.00254322,-0.00007749,-0.00104770,0.00012500,0.00195465,0.00426933
 ,0.00516316,-0.00107618,0.00237891,-0.00042755,0.00008025,-0.01249678,
 -0.01583538,0.00007574,0.00371334,0.00306062,0.00076094,0.02050750,-0.
 00699381,-0.00384095,-0.00353718,-0.00266224,-0.00316753,0.00067292,-0
 .00060944,-0.00064043,-0.00138905,-0.00219552,0.00085173,0.00151577,0.
 00023421,-0.00042711,0.00024766,-0.00200734,0.00050402,-0.00023194,0.0
 0130795,-0.00055531,-0.00097659,-0.00035647,-0.00003386,0.00011715,-0.
 00073503,0.00052193,0.00003925,0.00018529,0.00002948,-0.00116200,0.000
 41700,0.00061380,0.00002920,-0.00003423,0.00010162,-0.05950335,0.19295
 715,0.40013158,-0.00010942,0.00004697,0.00015807,-0.00059466,-0.000672
 23,-0.00193134,-0.00288772,0.00148337,0.00070068,0.00078008,-0.0000166
 5,0.00015699,0.00001379,0.00019524,0.00013947,0.00058636,0.00005333,-0
 .00019260,0.00021413,-0.00018134,-0.00010031,-0.00024245,-0.00000878,0
 .00001334,0.00066506,0.00056407,0.00024667,-0.00049403,0.00022901,-0.0
 0257922,0.00340927,-0.00811143,0.00211439,0.00057196,-0.00206793,-0.00
 185947,0.00128029,0.00310226,-0.00005149,-0.00066541,-0.00031919,-0.00
 098496,0.00049731,-0.00022647,0.00008911,-0.00028454,0.00007344,0.0000
 7555,-0.00041164,0.00011353,0.00017344,0.00003500,0.00000582,-0.000018
 02,0.00005154,0.00000809,0.00002144,-0.00026339,0.00008136,0.00014170,
 0.00004126,-0.00007694,0.00001919,0.00005369,0.00000751,-0.00005279,0.
 00002020,0.00000393,0.00000037,0.,0.,0.,0.00000556,-0.00000445,-0.0000
 0129,-0.00027513,0.00007573,0.00018063,0.00021492,-0.00012026,-0.00017
 326,0.00107369,0.00013177,0.00047827,-0.01067552,0.00278163,-0.0141286
 2,0.00141222,-0.00338134,-0.00064789,-0.00849663,-0.01391160,0.0046650
 7,-0.07545540,-0.01528136,0.00933774,0.00091003,0.00471760,0.00800725,
 0.00176583,-0.00210465,0.00004711,-0.00022664,-0.00001314,0.00135939,0
 .00050141,-0.00011328,-0.00117366,0.00034112,0.00026806,0.00150632,-0.
 00007644,0.00049254,-0.00090129,0.00361165,-0.00270303,-0.00022046,-0.
 01398645,-0.01766304,0.00251108,-0.00181337,0.00638467,0.00111271,0.00
 155656,-0.00339475,-0.00256515,-0.00165613,0.00112739,0.00079057,0.000
 12570,0.00012835,0.00016996,0.00002265,0.00005505,-0.00009281,0.000521
 20,-0.00021067,-0.00034223,0.00028620,-0.00008225,0.00008913,-0.000224
 01,0.00004314,-0.00005205,-0.00019709,0.00005326,0.00003555,-0.0002537
 1,0.00007086,0.00000691,0.00021983,0.00009352,0.00000949,-0.00010229,0
 .00003512,-0.00007303,-0.00032014,-0.00001347,0.00137091,0.00061487,0.
 00025834,0.00017284,0.00051358,0.00050228,0.00177669,-0.09430806,-0.02
 151211,-0.02802116,-0.00201421,0.01311374,0.00400065,0.00058748,0.0019
 6695,-0.00055959,0.41598639,-0.00016246,0.00003837,-0.00015832,0.00133
 260,-0.00081527,0.00153423,0.00071949,-0.00090302,-0.00171622,-0.00221
 462,0.00090701,-0.00007580,0.00037390,-0.00023450,0.00004759,-0.000430
 26,0.00010472,0.00007404,-0.00018411,0.00012016,0.00006646,0.00001942,
 0.00027587,0.00006940,-0.00057394,0.00157527,-0.00003544,-0.00014472,-
 0.00064957,0.00312955,-0.00509122,-0.00008224,-0.00414041,0.00102423,-
 0.00042055,0.00191402,0.00082191,0.00006974,0.00137874,-0.00016212,0.0
 0059743,-0.00114594,0.00011515,-0.00023050,0.00009148,-0.00010726,0.00
 007332,0.00000157,0.00008204,0.00003729,-0.00003989,-0.00003366,-0.000
 00140,0.00002009,-0.00009102,-0.00000347,-0.00002807,0.00003090,0.0001
 9605,-0.00011459,-0.00004318,0.00007513,-0.00002538,-0.00008589,-0.000
 00355,0.00006524,-0.00003660,-0.00000130,-0.00000414,0.,0.,0.,0.000003
 95,-0.00000318,-0.00000086,-0.00015983,0.00004867,0.00010005,0.0003359
 2,-0.00006618,-0.00022090,-0.00006327,-0.00038968,0.00102365,0.0089754
 2,0.00852629,0.00328642,0.00019778,0.00000238,-0.00181253,-0.01991671,
 -0.01693566,0.02153259,-0.02051114,-0.09531204,0.02269262,0.00673975,0
 .01090522,-0.00929512,-0.00044676,-0.00105460,-0.00194592,0.00027236,0
 .00059207,0.00112843,-0.00037892,-0.00033864,-0.00091626,0.00056510,0.
 00053434,-0.00082123,0.00097955,0.00058537,0.00047979,0.00005571,-0.00
 109664,0.00118429,-0.02606356,-0.01606346,-0.01030045,0.00659804,-0.01
 333741,-0.01093680,-0.00241164,-0.00044340,0.00555459,0.00085751,-0.00
 015222,0.00135681,-0.00220171,0.00091587,0.00135890,0.00028779,-0.0002
 4796,-0.00018541,0.00016273,-0.00020502,-0.00017145,0.00041561,-0.0000
 6488,0.00005200,-0.00018357,0.00004759,-0.00002521,-0.00009643,0.00007
 069,0.00004165,0.00008684,0.00003753,0.00000257,-0.00032197,0.00008173
 ,0.00008361,-0.00000153,0.00004532,0.00012528,0.00061906,-0.00105658,-
 0.00187409,-0.00035374,0.00120612,0.00049443,-0.00122595,-0.00116460,-
 0.00258746,-0.02939616,-0.09429178,-0.01405954,0.00903411,-0.01339292,
 0.00688820,0.00103861,0.00053569,-0.00255059,0.05306080,0.42956761,-0.
 00003882,-0.00004299,0.00006603,0.00065214,-0.00117717,-0.00150415,-0.
 00111733,-0.00010517,0.00169806,0.00182471,-0.00058679,0.00099785,-0.0
 0013940,0.00027655,0.00011784,0.00073474,-0.00009658,-0.00016217,0.000
 30799,-0.00019896,-0.00012971,-0.00006233,-0.00001920,-0.00004088,0.00
 021818,0.00066316,0.00160028,-0.00029029,0.00086073,-0.00136641,-0.000
 58354,-0.00724730,-0.00123515,-0.00286367,0.00028814,-0.00199282,-0.00
 146482,0.00105600,-0.00096418,0.00004623,-0.00066196,0.00047329,-0.000
 22968,0.00000188,-0.00001452,-0.00015249,0.00002843,0.00004916,-0.0003
 2414,0.00007719,0.00013629,0.00002898,0.00000330,-0.00001617,-0.000045
 66,-0.00000017,-0.00001956,0.00020056,-0.00006199,0.00000178,-0.000332
 77,0.00022724,-0.00000380,0.00000946,-0.00000330,-0.00001489,-0.000042
 78,-0.00000553,-0.00000274,0.,0.,0.,-0.00000127,0.00000096,-0.00000008
 ,-0.00015636,0.00005984,0.00005557,0.00001836,-0.00005991,0.00008893,0
 .00000152,0.00056161,-0.00100662,-0.01612530,-0.01052970,-0.01011836,-
 0.00567288,-0.00204443,0.00193530,0.00987137,0.00995555,-0.00122522,0.
 02772599,0.02695876,-0.13677770,0.01077993,0.00611031,-0.02252409,-0.0
 0030992,0.00097541,-0.00171858,-0.00001291,0.00063586,0.00006734,-0.00
 064549,-0.00056978,-0.00054164,-0.00072075,-0.00084049,0.00145594,0.00
 090726,0.00052155,0.00144717,0.00385378,0.00306499,-0.00061805,-0.0039
 7393,-0.00575978,0.00300979,0.00273565,-0.02117673,0.00700466,-0.00096
 467,0.01065078,0.00287523,0.00319656,-0.00131223,-0.00075880,-0.000793
 37,-0.00015255,0.00102670,-0.00012365,-0.00023560,0.00032414,-0.000188
 05,0.00010322,0.00011998,-0.00016317,0.00010094,0.00006298,0.00028004,
 -0.00008451,0.00000816,0.00026616,-0.00005499,-0.00003569,0.00048716,-
 0.00011478,-0.00001345,-0.00060439,-0.00000272,0.00004586,0.00016657,-
 0.00002468,0.00008066,-0.00111634,0.00124724,-0.00169232,0.00024242,-0
 .00050205,0.00134160,-0.00019519,-0.00129219,-0.00193687,-0.04831570,-
 0.01606401,-0.11209056,0.00274801,0.01877701,0.00838707,-0.00004361,-0
 .00233696,-0.00075022,0.00538017,-0.00784645,0.41334185,-0.00066537,0.
 00031932,-0.00098495,0.00128065,-0.00310239,-0.00005180,0.00057204,0.0
 0206830,-0.00185899,0.00078006,0.00001660,0.00015697,0.00001379,-0.000
 19524,0.00013944,0.00049730,0.00022645,0.00008915,0.00107367,-0.000131
 83,0.00047828,-0.00007649,-0.00049232,-0.00090136,0.00361186,0.0027031
 0,-0.00021995,-0.01398551,0.01766381,0.00251582,-0.01067828,-0.0027805
 0,-0.01413116,-0.00288753,-0.00148331,0.00070059,-0.00059469,0.0006724
 9,-0.00193120,-0.00010941,-0.00004699,0.00015806,0.00058635,-0.0000533
 0,-0.00019261,-0.00041163,-0.00011355,0.00017342,-0.00028454,-0.000073
 46,0.00007554,-0.00027513,-0.00007576,0.00018062,0.00021492,0.00012028
 ,-0.00017324,0.00034103,-0.00026826,0.00150630,0.00050156,0.00011339,-
 0.00117363,0.00028620,0.00008224,0.00008914,-0.00022400,-0.00004313,-0
 .00005206,0.00000556,0.00000444,-0.00000129,0.,0.,0.,0.00003500,-0.000
 00582,-0.00001802,0.00005154,-0.00000809,0.00002143,0.00021413,0.00018
 136,-0.00010028,0.00340906,0.00811064,0.00211545,0.00061495,-0.0002584
 8,0.00017281,0.00051344,-0.00050244,0.00177637,-0.00181363,-0.00638481
 ,0.00111058,0.00155721,0.00339499,-0.00256373,-0.00165617,-0.00112731,
 0.00079019,-0.00010228,-0.00003509,-0.00007304,0.00004125,0.00007693,0
 .00001920,-0.00026335,-0.00008136,0.00014168,-0.00024243,0.00000879,0.
 00001333,0.00066507,-0.00056409,0.00024656,-0.00049404,-0.00022818,-0.
 00257908,-0.07545575,0.01528092,0.00934349,0.00090883,-0.00472030,0.00
 800827,0.00176576,0.00210484,0.00004790,0.00012576,-0.00012839,0.00017
 012,0.00002260,-0.00005506,-0.00009283,0.00021987,-0.00009347,0.000009
 46,0.00005368,-0.00000750,-0.00005279,0.00002020,-0.00000393,0.0000003
 7,-0.00025371,-0.00007088,0.00000690,-0.00019708,-0.00005327,0.0000355
 4,0.00052122,0.00021073,-0.00034220,-0.00022658,0.00001292,0.00135932,
 0.00058723,-0.00196689,-0.00056016,0.00141189,0.00338134,-0.00064718,-
 0.00849677,0.01391298,0.00466563,-0.00201444,-0.01311512,0.00399946,-0
 .09430645,0.02151541,-0.02801478,-0.00032018,0.00001324,0.00137087,-0.
 06223783,-0.00317461,-0.00415590,0.41600728,0.00016209,0.00059713,0.00
 114597,-0.00082180,0.00007025,-0.00137870,-0.00102378,-0.00042010,-0.0
 0191377,0.00221442,0.00090695,0.00007587,-0.00037390,-0.00023445,-0.00
 004766,-0.00011511,-0.00023048,-0.00009152,0.00006327,-0.00038941,-0.0
 0102355,-0.00097970,0.00058548,-0.00047986,-0.00005594,-0.00109616,-0.
 00118434,0.02606571,-0.01606481,0.01029694,-0.00897397,0.00852449,-0.0
 0328366,-0.00071914,-0.00090333,0.00171589,-0.00133269,-0.00081523,-0.
 00153407,0.00016246,0.00003834,0.00015831,0.00043015,0.00010472,-0.000
 07399,-0.00008199,0.00003729,0.00003988,0.00010729,0.00007332,-0.00000
 157,0.00015986,0.00004870,-0.00010005,-0.00033591,-0.00006623,0.000220
 87,-0.00056491,0.00053401,0.00082103,0.00037900,-0.00033886,0.00091627
 ,-0.00041559,-0.00006486,-0.00005202,0.00018351,0.00004757,0.00002522,
 -0.00000395,-0.00000318,0.00000086,0.,0.,0.,0.00003365,-0.00000140,-0.
 00002009,0.00009103,-0.00000348,0.00002807,0.00018404,0.00012013,-0.00
 006642,0.00509097,-0.00008433,0.00414021,0.00035357,0.00120610,-0.0004
 9442,0.00122549,-0.00116599,0.00258748,-0.00659685,-0.01334254,0.01093
 274,0.00241277,-0.00044209,-0.00555397,-0.00085865,-0.00015235,-0.0013
 5627,0.00000150,0.00004535,-0.00012528,0.00004325,0.00007517,0.0000253
 8,-0.00003091,0.00019605,0.00011464,-0.00001939,0.00027590,-0.00006936
 ,0.00057404,0.00157557,0.00003550,0.00014436,-0.00064950,-0.00312919,0
 .02050086,-0.09530105,-0.02268437,-0.00674079,0.01090739,0.00929899,0.
 00044678,-0.00105438,0.00194581,0.00220168,0.00091609,-0.00135883,-0.0
 0028770,-0.00024801,0.00018527,0.00032208,0.00008175,-0.00008362,0.000
 08589,-0.00000354,-0.00006523,0.00003661,-0.00000131,0.00000414,-0.000
 08689,0.00003751,-0.00000256,0.00009639,0.00007069,-0.00004163,-0.0001
 6274,-0.00020502,0.00017141,-0.00027229,0.00059231,-0.00112836,-0.0010
 3819,0.00053482,0.00255051,-0.00019752,0.00000175,0.00181242,0.0199186
 0,-0.01693009,-0.02153530,-0.00903346,-0.01338789,-0.00689175,0.029399
 44,-0.09429317,0.01406020,-0.00061898,-0.00105678,0.00187413,0.0031772
 8,-0.09160598,-0.00194723,-0.05303149,0.42956531,0.00004628,0.00066196
 ,0.00047359,-0.00146502,-0.00105588,-0.00096462,-0.00286411,-0.0002878
 4,-0.00199332,0.00182500,0.00058671,0.00099796,-0.00013946,-0.00027660
 ,0.00011779,-0.00022971,-0.00000192,-0.00001454,0.00000153,-0.00056149
 ,-0.00100686,0.00090716,-0.00052171,0.00144708,0.00385351,-0.00306482,
 -0.00061893,-0.00397006,0.00575774,0.00301143,-0.01612654,0.01053280,-
 0.01011820,-0.00111760,0.00010462,0.00169828,0.00065190,0.00117726,-0.
 00150416,-0.00003880,0.00004298,0.00006606,0.00073481,0.00009662,-0.00
 016216,-0.00032416,-0.00007721,0.00013628,-0.00015247,-0.00002843,0.00
 004916,-0.00015634,-0.00005985,0.00005555,0.00001831,0.00005988,0.0000
 8898,-0.00072077,0.00084030,0.00145621,-0.00064565,0.00056994,-0.00054
 141,-0.00016321,-0.00010097,0.00006295,0.00028005,0.00008452,0.0000081
 8,-0.00000127,-0.00000096,-0.00000008,0.,0.,0.,0.00002899,-0.00000330,
 -0.00001617,-0.00004564,0.00000018,-0.00001955,0.00030801,0.00019900,-
 0.00012968,-0.00058268,0.00724695,-0.00123341,0.00024255,0.00050204,0.
 00134145,-0.00019497,0.00129260,-0.00193634,0.00273588,0.02117406,0.00
 701175,-0.00096551,-0.01065030,0.00287125,0.00319708,0.00131210,-0.000
 75943,0.00016658,0.00002465,0.00008062,-0.00033273,-0.00022721,-0.0000
 0383,0.00020047,0.00006195,0.00000179,-0.00006229,0.00001929,-0.000040
 88,0.00021822,-0.00066314,0.00160013,-0.00029009,-0.00086041,-0.001367
 06,0.02772262,-0.02695192,-0.13679209,0.01078254,-0.00610170,-0.022530
 48,-0.00030904,-0.00097590,-0.00171896,-0.00079330,0.00015252,0.001027
 02,-0.00012351,0.00023557,0.00032416,-0.00060452,0.00000259,0.00004593
 ,0.00000948,0.00000330,-0.00001490,-0.00004276,0.00000553,-0.00000274,
 0.00048716,0.00011482,-0.00001343,0.00026616,0.00005501,-0.00003569,-0
 .00018807,-0.00010328,0.00011999,-0.00001273,-0.00063588,0.00006696,-0
 .00004319,0.00233713,-0.00074960,-0.00567318,0.00204431,0.00193657,0.0
 0987855,-0.00996348,-0.00122830,0.00274650,-0.01878097,0.00838266,-0.0
 4830498,0.01606631,-0.11208297,-0.00111642,-0.00124716,-0.00169193,-0.
 00415506,0.00194383,-0.07749319,0.00534994,0.00784771,0.41334900,-0.00
 013679,-0.00001439,-0.00008701,-0.00012747,-0.00007771,-0.00033550,-0.
 00019567,0.00022453,0.00000581,0.00007701,-0.00008232,0.00011083,-0.00
 003617,-0.00001879,-0.00001474,0.00007604,-0.00000853,0.00000232,-0.00
 012636,0.00001814,-0.00002683,0.00017080,0.00001581,0.00015112,0.00061
 990,-0.00042836,0.00039676,-0.00170191,0.00036130,-0.00002444,0.001141
 88,-0.00042210,0.00095879,-0.00030649,-0.00016555,-0.00014886,-0.00007
 922,-0.00009557,-0.00008286,-0.00007621,-0.00001315,-0.00000601,0.0000
 4923,0.00000505,0.00000608,0.,0.,0.,-0.00000001,0.,0.,0.,0.,0.,0.00006
 256,-0.00000043,0.00000720,0.00002476,-0.00006172,-0.00009033,-0.00010
 085,0.00000880,0.00005650,-0.00002283,-0.00000109,0.00001222,-0.000008
 52,0.00000044,-0.00000152,0.,0.,0.,0.,0.,0.,0.,0.,0.,-0.00000647,-0.00
 000004,-0.00000060,-0.00001324,-0.00000335,0.00000074,0.00227395,0.000
 76529,0.00067073,-0.00047423,-0.00036543,-0.00004314,0.00054068,0.0006
 7332,-0.00075204,0.00225713,-0.00094980,0.00162036,-0.00077356,0.00138
 737,0.00001504,-0.00023059,-0.00029094,0.00044100,0.00009958,0.0000474
 3,-0.00004169,0.00000689,-0.00000391,-0.00000902,0.00009915,0.00004189
 ,0.00009280,0.00017375,0.00011873,0.00001787,-0.00003262,0.00017552,-0
 .00016809,-0.00027420,-0.00012767,-0.00029293,-0.00012636,-0.00226764,
 -0.00441038,0.00232418,-0.00022873,-0.00217297,0.00021620,0.00032281,-
 0.00005179,-0.00014384,-0.00018319,-0.00018662,0.00031269,-0.00004048,
 -0.00018066,-0.00000299,0.00001251,0.00000906,0.00000479,0.00000003,-0
 .00000104,0.,0.,0.,0.00001829,0.00000851,-0.00000072,0.00002127,0.0000
 0234,-0.00000084,-0.00011433,0.00000811,0.00006434,0.00017924,-0.00001
 807,-0.00005348,-0.00089761,0.00064223,0.00061597,0.00208384,-0.000506
 07,-0.00038411,-0.00202850,0.00017539,-0.00041030,-0.00140407,0.000388
 10,-0.00129277,-0.00064240,0.00007984,0.00275545,0.00003680,0.00018160
 ,0.00005266,0.00187309,0.00426882,-0.00304443,-0.03253544,0.00765989,-
 0.01258950,0.34789014,0.00007141,0.00000104,0.00004187,-0.00009532,0.0
 0006269,0.00006652,-0.00020984,0.00006918,-0.00017588,0.00010237,-0.00
 000081,0.00007905,0.00001135,0.00000642,0.00000574,-0.00000168,-0.0000
 0208,-0.00000103,0.00005883,-0.00000950,0.00001186,-0.00004622,-0.0000
 4103,-0.00009820,0.00030287,-0.00012290,-0.00004302,0.00159254,-0.0006
 5144,0.00065020,-0.00048436,-0.00078879,-0.00005879,-0.00014303,-0.000
 13087,-0.00013680,-0.00003953,-0.00005364,-0.00004048,-0.00005048,-0.0
 0001504,-0.00000020,0.00002112,-0.00000134,0.00000403,0.,0.,0.,0.,0.,0
 .,0.,0.,0.,-0.00003179,0.00000022,-0.00000360,0.00003756,0.00000298,0.
 00002650,0.00005609,-0.00000647,-0.00002910,0.00001243,0.00000007,-0.0
 0000537,0.00000104,-0.00000005,0.00000019,0.,0.,0.,0.,0.,0.,0.,0.,0.,-
 0.00000560,-0.00000004,-0.00000052,-0.00000997,-0.00000375,0.00000208,
 0.00042445,0.00050809,0.00008205,-0.00027436,-0.00016999,-0.00001144,0
 .00005858,-0.00029199,-0.00067098,-0.00043002,-0.00179626,0.00190861,-
 0.00008542,0.00133550,-0.00021885,-0.00057275,0.00013530,0.00066724,0.
 00005169,0.00001519,-0.00002746,0.00001137,0.00000012,-0.00000727,0.00
 007339,0.00002838,0.00007311,0.00011723,0.00007985,0.00001374,0.000058
 70,0.00008853,-0.00010086,0.00052879,0.00047305,0.00027453,-0.00028089
 ,0.00016391,0.00136919,-0.00010999,-0.00036238,-0.00050471,-0.00031189
 ,0.00002669,0.00042722,0.00015070,-0.00005314,-0.00022459,0.00000651,-
 0.00001039,0.00000763,-0.00001323,-0.00000248,0.00000753,0.00000415,0.
 00000003,-0.00000090,0.,0.,0.,-0.00000224,-0.00000104,0.00000009,-0.00
 000260,-0.00000029,0.00000010,0.00001828,0.00000816,-0.00001688,-0.000
 03509,0.00001672,0.00001362,0.00020075,-0.00008666,-0.00008599,-0.0002
 8566,0.00002659,0.00034333,0.00032583,0.00069816,-0.00014890,-0.002969
 34,-0.00008290,-0.00128330,-0.00191690,-0.00093901,-0.00085637,-0.0000
 1973,-0.00000737,0.00002386,0.00813860,-0.00563222,-0.00071221,-0.0000
 2466,0.01164281,-0.00745712,0.01322695,0.81173408,0.00000007,-0.000003
 79,0.00000183,-0.00001568,-0.00003477,-0.00007096,-0.00013371,0.000116
 57,0.00005238,0.00002004,-0.00004849,0.00005280,-0.00001556,-0.0000068
 9,-0.00000528,0.00004646,-0.00000588,0.00000082,-0.00001063,0.00000124
 ,0.00000082,0.00003254,-0.00000469,0.00001357,-0.00014290,0.00000183,0
 .00000931,-0.00150166,0.00026768,0.00008361,0.00199208,0.00000801,-0.0
 0019101,-0.00016849,-0.00007586,-0.00007308,-0.00006730,-0.00005780,-0
 .00006637,-0.00004441,-0.00000416,-0.00000933,0.00002658,0.00000364,0.
 00000293,0.,0.,0.,0.,0.,0.,0.,0.,0.,-0.00000710,0.00000005,-0.00000029
 ,0.00004179,-0.00000693,-0.00000128,0.00001019,-0.00000214,-0.00000367
 ,-0.00000536,0.00000087,0.00000115,0.00000570,-0.00000030,0.00000102,0
 .,0.,0.,0.,0.,0.,0.,0.,0.,0.00000057,0.,0.00000005,-0.00000697,-0.0000
 0078,-0.00000119,0.00145152,0.00041675,0.00041497,0.00002938,0.0000624
 0,0.00007563,-0.00038579,-0.00019925,-0.00034628,0.00069494,0.00151671
 ,-0.00016024,0.00008771,0.00046086,0.00039379,0.00004807,0.00018723,0.
 00008834,-0.00004577,-0.00002750,0.00001424,0.00000653,0.00000481,0.00
 000125,0.00000257,0.00000243,0.00000720,0.00004433,0.00003030,-0.00000
 797,-0.00012139,-0.00000279,-0.00008565,-0.00003741,0.00001741,0.00063
 712,0.00530683,-0.00317978,-0.00223369,0.00104940,-0.00081615,-0.00028
 755,-0.00026807,0.00025028,-0.00031161,0.00021360,0.00010694,-0.000097
 81,-0.00016637,0.00005622,0.00007866,-0.00000649,-0.00000923,-0.000001
 00,-0.00000042,0.,0.00000009,0.,0.,0.,-0.00001225,-0.00000570,0.000000
 48,-0.00001424,-0.00000157,0.00000056,0.00004025,-0.00001040,-0.000016
 47,-0.00015286,0.00000524,0.00006246,0.00053248,-0.00036478,-0.0000489
 5,-0.00044052,0.00039436,-0.00013424,-0.00138253,0.00130425,0.00017022
 ,0.00007155,0.00063804,0.00024898,0.00259312,-0.00015939,0.00055297,-0
 .00016004,-0.00021146,0.00015973,-0.00468357,0.00073387,-0.00220210,-0
 .01458537,-0.00569034,0.00886051,0.18440244,0.02017432,0.37267455,-0.0
 0007624,0.00001316,-0.00000601,-0.00007922,0.00009559,-0.00008286,-0.0
 0030651,0.00016561,-0.00014885,0.00007700,0.00008236,0.00011083,-0.000
 03616,0.00001880,-0.00001474,0.00004923,-0.00000505,0.00000608,-0.0000
 1324,0.00000335,0.00000073,0.00017378,-0.00011875,0.00001785,-0.000032
 63,-0.00017546,-0.00016818,-0.00027419,0.00012738,-0.00029314,0.002274
 10,-0.00076572,0.00067075,-0.00019558,-0.00022461,0.00000583,-0.000127
 45,0.00007776,-0.00033555,-0.00013678,0.00001440,-0.00008701,0.0000760
 5,0.00000852,0.00000233,-0.00000001,0.,0.,0.,0.,0.,0.,0.,0.,-0.0000064
 6,0.00000004,-0.00000060,0.00009918,-0.00004193,0.00009279,0.00000687,
 0.00000392,-0.00000902,0.00000479,-0.00000003,-0.00000104,0.,0.,0.,0.,
 0.,0.,0.,0.,0.,0.,0.,0.,0.00006258,0.00000043,0.00000720,-0.00012633,-
 0.00001813,-0.00002683,0.00114110,0.00042257,0.00095843,0.00208362,0.0
 0050608,-0.00038418,-0.00202828,-0.00017688,-0.00041110,-0.00012497,0.
 00226833,-0.00440955,0.00232422,0.00023008,-0.00217196,0.00021715,-0.0
 0032291,-0.00005232,0.00017931,0.00001812,-0.00005350,-0.00010094,-0.0
 0000883,0.00005655,0.00002489,0.00006179,-0.00009038,0.00017077,-0.000
 01587,0.00015112,0.00062009,0.00042834,0.00039688,-0.00170171,-0.00036
 136,-0.00002384,0.00225683,0.00094891,0.00162114,-0.00077225,-0.001388
 43,0.00001376,-0.00023063,0.00029103,0.00044097,-0.00014373,0.00018324
 ,-0.00018669,0.00031273,0.00004047,-0.00018068,-0.00011434,-0.00000812
 ,0.00006435,-0.00002284,0.00000109,0.00001222,-0.00000851,-0.00000044,
 -0.00000152,0.00002126,-0.00000234,-0.00000084,0.00001829,-0.00000851,
 -0.00000072,-0.00000295,-0.00001250,0.00000904,0.00009954,-0.00004738,
 -0.00004169,0.00003682,-0.00018170,0.00005266,-0.00047422,0.00036546,-
 0.00004304,0.00054126,-0.00067382,-0.00075194,-0.00064215,-0.00008170,
 0.00275498,-0.00140446,-0.00038720,-0.00129282,-0.00089797,-0.00064229
 ,0.00061599,-0.03252994,-0.00765752,-0.01259242,0.00187471,-0.00427037
 ,-0.00304586,-0.08394632,-0.00278766,-0.02374807,0.34781349,0.00005050
 ,-0.00001504,0.00000020,0.00003954,-0.00005366,0.00004049,0.00014310,-
 0.00013094,0.00013682,-0.00010241,-0.00000080,-0.00007909,-0.00001135,
 0.00000642,-0.00000573,-0.00002112,-0.00000134,-0.00000403,0.00000997,
 -0.00000375,-0.00000207,-0.00011728,0.00007988,-0.00001373,-0.00005868
 ,0.00008850,0.00010092,-0.00052842,0.00047351,-0.00027433,-0.00042493,
 0.00050807,-0.00008209,0.00020998,0.00006913,0.00017597,0.00009535,0.0
 0006270,-0.00006651,-0.00007140,0.00000104,-0.00004187,0.00000168,-0.0
 0000208,0.00000103,0.,0.,0.,0.,0.,0.,0.,0.,0.,0.00000560,-0.00000004,0
 .00000052,-0.00007341,0.00002841,-0.00007310,-0.00001136,0.00000012,0.
 00000726,-0.00000415,0.00000003,0.00000090,0.,0.,0.,0.,0.,0.,0.,0.,0.,
 0.,0.,0.,0.00003180,0.00000022,0.00000360,-0.00005882,-0.00000950,-0.0
 0001185,0.00048227,-0.00078789,0.00005754,0.00028504,0.00002659,-0.000
 34300,-0.00032434,0.00069663,0.00014824,0.00028358,0.00016254,-0.00136
 720,0.00010676,-0.00036176,0.00050555,0.00031269,0.00002668,-0.0004277
 0,0.00003512,0.00001672,-0.00001363,-0.00005612,-0.00000649,0.00002913
 ,-0.00003750,0.00000301,-0.00002653,0.00004621,-0.00004106,0.00009819,
 -0.00030242,-0.00012285,0.00004305,-0.00159078,-0.00065227,-0.00064988
 ,0.00042930,-0.00179583,-0.00190924,0.00008565,0.00133462,0.00021899,0
 .00057256,0.00013534,-0.00066709,-0.00015080,-0.00005318,0.00022462,-0
 .00000648,-0.00001038,-0.00000765,-0.00001828,0.00000815,0.00001689,-0
 .00001243,0.00000007,0.00000537,-0.00000104,-0.00000005,-0.00000019,0.
 00000260,-0.00000029,-0.00000010,0.00000224,-0.00000104,-0.00000009,0.
 00001321,-0.00000248,-0.00000752,-0.00005168,0.00001518,0.00002746,0.0
 0001984,-0.00000741,-0.00002393,0.00027422,-0.00016995,0.00001144,-0.0
 0005804,-0.00029176,0.00067072,0.00191498,-0.00093975,0.00085552,0.002
 96964,-0.00008324,0.00128299,-0.00020100,-0.00008671,0.00008596,0.0000
 4486,0.01162292,0.00745211,-0.00813568,-0.00563149,0.00071136,0.002780
 38,-0.48670733,-0.00011568,-0.01320686,0.81174302,-0.00004441,0.000004
 16,-0.00000933,-0.00006726,0.00005780,-0.00006634,-0.00016844,0.000075
 87,-0.00007303,0.00002002,0.00004850,0.00005279,-0.00001556,0.00000689
 ,-0.00000527,0.00002657,-0.00000364,0.00000293,-0.00000696,0.00000078,
 -0.00000119,0.00004431,-0.00003028,-0.00000798,-0.00012140,0.00000283,
 -0.00008566,-0.00003748,-0.00001770,0.00063704,0.00145140,-0.00041668,
 0.00041491,-0.00013354,-0.00011658,0.00005249,-0.00001563,0.00003480,-
 0.00007096,0.00000006,0.00000379,0.00000183,0.00004646,0.00000588,0.00
 000082,0.,0.,0.,0.,0.,0.,0.,0.,0.,0.00000057,0.,0.00000005,0.00000254,
 -0.00000241,0.00000719,0.00000653,-0.00000481,0.00000125,-0.00000042,0
 .,0.00000009,0.,0.,0.,0.,0.,0.,0.,0.,0.,0.,0.,0.,-0.00000709,-0.000000
 05,-0.00000029,-0.00001064,-0.00000125,0.00000082,0.00199065,-0.000007
 45,-0.00019189,-0.00044084,-0.00039437,-0.00013399,-0.00138144,-0.0013
 0496,0.00016968,0.00530530,0.00317913,-0.00223264,0.00105051,0.0008150
 9,-0.00028776,-0.00026826,-0.00025018,-0.00031180,-0.00015289,-0.00000
 528,0.00006246,0.00001018,0.00000215,-0.00000366,0.00004181,0.00000693
 ,-0.00000132,0.00003256,0.00000466,0.00001359,-0.00014268,-0.00000181,
 0.00000936,-0.00150087,-0.00026864,0.00008378,0.00069435,-0.00151674,-
 0.00016149,0.00008651,-0.00046013,0.00039429,0.00004812,-0.00018729,0.
 00008821,0.00021353,-0.00010695,-0.00009775,-0.00016639,-0.00005620,0.
 00007866,0.00004026,0.00001040,-0.00001647,-0.00000537,-0.00000088,0.0
 0000115,0.00000570,0.00000030,0.00000102,-0.00001423,0.00000157,0.0000
 0056,-0.00001225,0.00000570,0.00000049,-0.00000650,0.00000923,-0.00000
 099,-0.00004575,0.00002748,0.00001424,-0.00016005,0.00021151,0.0001597
 6,0.00002954,-0.00006252,0.00007559,-0.00038599,0.00019935,-0.00034610
 ,0.00259169,0.00015850,0.00055218,0.00007177,-0.00063816,0.00024904,0.
 00053286,0.00036475,-0.00004898,-0.01457615,0.00567759,0.00885856,-0.0
 0468346,-0.00073614,-0.00219936,-0.02374526,0.00002661,-0.08506421,0.1
 8440582,-0.02011648,0.37272957,0.00001421,-0.00000595,-0.00000334,0.00
 005138,-0.00004021,0.00002676,0.00012540,0.00001636,0.00012926,-0.0000
 5400,-0.00001300,-0.00003592,0.00000239,0.00000083,0.00000084,-0.00000
 996,-0.00000053,-0.00000182,0.00007741,-0.00001362,0.00001921,-0.00003
 990,0.00001038,0.00000065,0.00003611,0.00002542,0.00007100,-0.00011372
 ,0.00028261,0.00065229,-0.00055132,-0.00025736,-0.00039559,-0.00002519
 ,-0.00002228,-0.00002233,0.00002017,0.00000712,0.00000755,0.,0.,0.,0.,
 0.,0.,0.,0.,0.,0.,0.,0.,0.,0.,0.,-0.00002409,0.00000016,-0.00000224,0.
 00003716,-0.00003588,-0.00012097,-0.00007153,0.00003250,0.00000947,-0.
 00003099,0.00000022,0.00000671,0.,0.,0.,0.,0.,0.,0.,0.,0.,0.,0.,0.,0.,
 0.,0.,0.,0.,0.,-0.00023738,-0.00024061,-0.00017403,0.00006011,0.000063
 87,0.00001117,-0.00028465,0.00009298,0.00046645,0.00005483,-0.00002397
 ,0.00018724,-0.00124880,-0.00086155,0.00066007,0.00088068,0.00031761,-
 0.00078340,-0.00000986,-0.00002750,-0.00000703,-0.00000731,-0.00000264
 ,0.00000244,-0.00003818,-0.00002802,0.00000811,0.00000488,0.00000031,0
 .00000856,-0.00002622,-0.00003428,-0.00002920,-0.00022573,-0.00012676,
 -0.00038472,-0.00056897,0.00074545,0.00101888,-0.00108262,-0.00120344,
 -0.00028957,-0.00049179,-0.00018679,0.00087201,0.00022917,0.00074239,-
 0.00015643,-0.00007172,-0.00002124,0.00006047,-0.00005088,-0.00002121,
 0.00002257,0.,0.,0.,0.,0.,0.,0.,0.,0.,-0.00000001,0.,0.,0.00001387,-0.
 00001581,0.00000979,0.00000260,-0.00000408,-0.00000030,0.00016157,-0.0
 0024192,-0.00008506,0.00020289,0.00015998,-0.00049827,0.00010760,0.000
 06528,-0.00010487,-0.00023607,0.00018128,0.00016639,0.00011973,0.00043
 221,-0.00018170,0.00000669,-0.00015734,-0.00010281,-0.00169730,0.00001
 913,0.00020705,0.00280598,-0.00057835,-0.00092173,-0.11576645,-0.03956
 835,-0.05314985,0.00484837,-0.00789778,-0.00180152,0.53724080,0.000002
 95,-0.00000003,0.00000163,0.00000552,-0.00000411,0.00000182,0.00000183
 ,-0.00001765,-0.00000214,-0.00001647,0.00000280,-0.00001184,0.00000008
 ,0.00000003,0.00000003,-0.00000035,-0.00000002,-0.00000006,-0.00001282
 ,0.00000140,-0.00000485,0.00001995,-0.00001042,0.00000943,0.00004960,-
 0.00001112,-0.00000798,0.00005785,-0.00002095,-0.00009736,-0.00011928,
 0.00008460,-0.00009847,-0.00000880,0.00000028,-0.00001012,0.00001695,0
 .00000735,0.00000642,0.,0.,0.,0.,0.,0.,0.,0.,0.,0.,0.,0.,0.,0.,0.,0.00
 000526,-0.00000004,0.00000049,0.00002453,-0.00001893,0.00002713,-0.000
 00609,0.00000540,-0.00000187,0.00000677,-0.00000005,-0.00000147,0.,0.,
 0.,0.,0.,0.,0.,0.,0.,0.,0.,0.,0.,0.,0.,0.,0.,0.,-0.00008413,-0.0001619
 4,-0.00006565,0.00005078,0.00004330,-0.00001009,-0.00019682,0.00005964
 ,0.00033888,0.00048022,-0.00028435,0.00009128,-0.00044237,-0.00020680,
 0.00013331,0.00041183,0.00010357,-0.00037312,0.00001351,-0.00000236,-0
 .00001243,-0.00000619,-0.00000230,0.00000197,-0.00002887,-0.00002103,0
 .00000622,0.00000618,0.00000193,0.00000746,-0.00000399,-0.00000827,-0.
 00001992,-0.00020397,-0.00010555,-0.00028156,-0.00009627,0.00005330,0.
 00061489,-0.00011235,-0.00042380,0.00000045,-0.00019027,0.00004243,0.0
 0023114,-0.00002726,0.00024977,0.00006829,-0.00001621,0.00000540,0.000
 01012,-0.00001555,-0.00000456,0.00000761,0.,0.,0.,0.,0.,0.,0.,0.,0.,0.
 ,0.,0.,0.00001460,0.00000064,-0.00000835,0.00000239,0.00000136,-0.0000
 0361,-0.00000923,0.00000081,-0.00002895,-0.00009430,0.00010038,0.00003
 913,-0.00017141,0.00008020,0.00005113,-0.00000332,0.00023236,0.0001380
 4,-0.00079494,0.00029519,-0.00011118,0.00001113,-0.00007333,-0.0000674
 2,-0.00102068,0.00053514,-0.00067279,0.00433328,-0.00051578,0.00030636
 ,-0.04008612,-0.14132141,-0.04590365,-0.02091626,-0.01857561,-0.022480
 06,-0.02767802,0.53949201,0.00001351,-0.00000334,0.00000132,0.00002882
 ,-0.00002469,0.00001411,0.00009961,0.00000310,0.00007256,-0.00003106,-
 0.00000858,-0.00002050,0.00000148,0.00000051,0.00000052,-0.00000616,-0
 .00000033,-0.00000113,0.00001793,-0.00000482,0.00000123,-0.00002005,0.
 00001265,-0.00000127,0.00007820,-0.00002828,0.00001584,-0.00007360,0.0
 0011835,0.00005445,-0.00033977,-0.00015933,-0.00022864,-0.00001322,-0.
 00001491,-0.00000996,0.00001269,0.00000429,0.00000651,0.,0.,0.,0.,0.,0
 .,0.,0.,0.,0.,0.,0.,0.,0.,0.,-0.00000309,0.00000002,-0.00000029,-0.000
 00219,0.00000262,-0.00002736,0.00000758,-0.00000565,0.00000133,-0.0000
 0398,0.00000003,0.00000086,0.,0.,0.,0.,0.,0.,0.,0.,0.,0.,0.,0.,0.,0.,0
 .,0.,0.,0.,-0.00020056,-0.00019115,-0.00013242,0.00000165,-0.00001376,
 -0.00001302,-0.00020137,-0.00005840,0.00008755,0.00039134,0.00013746,0
 .00002340,0.00022253,0.00006589,0.00012631,-0.00011956,-0.00004857,0.0
 0011593,0.00001155,0.00000866,-0.00000445,-0.00000101,-0.00000046,0.00
 000019,-0.00001055,-0.00000768,0.00000446,-0.00000752,-0.00000527,0.00
 000184,0.00000741,-0.00000441,0.00000088,-0.00008704,0.00000438,-0.000
 11829,-0.00125813,0.00054605,0.00090590,-0.00001940,0.00019453,0.00004
 209,0.00012705,-0.00000947,-0.00015587,-0.00005645,-0.00014176,0.00003
 636,0.00000692,-0.00000019,-0.00000250,0.00000996,0.00000490,-0.000004
 02,0.,0.,0.,0.,0.,0.,0.,0.,0.,0.,0.,0.,-0.00001510,0.00000007,0.000008
 07,0.00000311,-0.00000224,-0.00000041,0.00005453,0.00000466,-0.0000153
 2,0.00007943,-0.00005208,-0.00003211,0.00015414,0.00001237,-0.00001821
 ,-0.00013728,-0.00001086,0.00011595,-0.00085611,0.00069839,-0.00020107
 ,0.00000040,0.00004065,0.00001361,0.00159935,0.00116354,-0.00017844,0.
 00630821,0.00013697,-0.00085342,-0.05621814,-0.04948812,-0.13136214,-0
 .00385455,-0.00749851,0.00499639,0.01848003,-0.03984829,0.53148407,0.0
 0000036,0.00000003,0.00000026,0.00000387,-0.00000418,-0.00000624,-0.00
 004663,0.00000091,-0.00002955,-0.00000521,-0.00000140,-0.00000381,0.,0
 .,0.,0.,0.,0.,0.00000288,-0.00000035,0.00000102,-0.00000375,0.00000320
 ,-0.00000242,-0.00002094,-0.00000480,-0.00001362,0.00003860,0.00000331
 ,-0.00001474,-0.00000628,-0.00001542,-0.00004350,0.00001771,0.00001053
 ,0.00001375,-0.00000130,-0.00000009,-0.00000069,0.,0.,0.,0.,0.,0.,0.,0
 .,0.,0.,0.,0.,0.,0.,0.,-0.00000094,0.,-0.00000009,0.00000285,-0.000004
 86,0.00001083,-0.00001167,0.00000217,0.00000651,-0.00000027,0.,0.00000
 006,0.,0.,0.,0.,0.,0.,0.,0.,0.,0.,0.,0.,0.,0.,0.,0.,0.,0.,-0.00003452,
 -0.00002487,-0.00005299,0.00000619,0.00001841,0.00000581,-0.00003342,-
 0.00003444,-0.00003561,0.00004760,-0.00012443,0.00007735,-0.00011561,-
 0.00027199,-0.00000753,-0.00001311,0.00000838,-0.00001120,0.00000706,0
 .00000672,-0.00000222,0.,0.,0.,0.00000055,0.00000041,-0.00000023,0.000
 00059,0.00000041,-0.00000002,-0.00000382,-0.00000258,-0.00000084,0.000
 00537,-0.00001502,0.00002949,0.00019681,0.00047233,-0.00006880,0.00028
 255,0.00033769,0.00005025,-0.00014752,0.00005123,0.00003845,-0.0000149
 1,-0.00001827,0.00000679,-0.00003391,-0.00001093,0.00002499,0.00000873
 ,0.00000441,-0.00000363,0.,0.,0.,0.,0.,0.,0.,0.,0.,0.,0.,0.,0.00002117
 ,-0.00000262,-0.00000855,-0.00000712,0.00000659,-0.00000268,-0.0000125
 0,-0.00003765,0.00005059,-0.00001201,0.00001950,0.00000494,-0.00004625
 ,-0.00012880,0.00003348,0.00004265,-0.00012681,-0.00002748,-0.00005235
 ,0.00010457,-0.00006511,-0.00002055,-0.00003528,0.00001211,-0.00121094
 ,-0.00066461,-0.00041947,0.00099992,0.00004643,-0.00109190,-0.00748531
 ,-0.01114265,0.00528495,-0.00212163,-0.00115677,-0.00113941,-0.1304467
 2,-0.09138126,0.07597753,0.13967898,-0.00000002,0.,-0.00000001,0.00000
 473,-0.00000251,0.00000104,-0.00002409,0.00000080,-0.00001226,-0.00000
 172,-0.00000057,-0.00000125,0.,0.,0.,0.,0.,0.,-0.00000017,0.00000002,-
 0.00000006,-0.00000147,0.00000195,-0.00000086,0.00000577,-0.00000277,-
 0.00000016,0.00011778,-0.00001177,-0.00000117,0.00002904,-0.00001992,0
 .00001695,0.00000903,0.00000401,0.00000609,-0.00000146,-0.00000044,-0.
 00000078,0.,0.,0.,0.,0.,0.,0.,0.,0.,0.,0.,0.,0.,0.,0.,0.00000005,0.,0.
 ,0.00000144,-0.00000242,0.00000281,-0.00000032,-0.00000050,0.00000106,
 0.00000002,0.,0.,0.,0.,0.,0.,0.,0.,0.,0.,0.,0.,0.,0.,0.,0.,0.,0.,0.,0.
 ,0.00003531,0.00000740,-0.00000628,0.00000176,0.00000520,0.00000391,-0
 .00000323,-0.00000483,-0.00003018,0.00005498,-0.00001982,-0.00003879,-
 0.00006111,-0.00004235,0.00002950,0.00000397,0.00000614,-0.00001099,0.
 00000239,0.00000228,-0.00000075,0.,0.,0.,0.00000044,0.00000033,-0.0000
 0018,0.00000047,0.00000033,-0.00000001,-0.00000415,-0.00000222,-0.0000
 0081,0.00001395,-0.00000194,0.00002443,-0.00063865,0.00020871,0.000083
 21,-0.00001286,0.00005986,0.00012221,-0.00000354,0.00002119,-0.0000101
 9,-0.00000349,-0.00000556,0.00000034,-0.00000980,-0.00000283,0.0000067
 6,0.00000295,0.00000149,-0.00000123,0.,0.,0.,0.,0.,0.,0.,0.,0.,0.,0.,0
 .,0.00000730,-0.00000086,-0.00000301,-0.00000433,0.00000297,0.00000014
 ,0.00001096,-0.00001921,0.00000902,0.00000736,0.00000929,-0.00000623,0
 .00005527,-0.00003289,-0.00000633,0.00007014,-0.00005264,-0.00002758,-
 0.00000503,0.00011456,0.00000250,-0.00000624,-0.00001076,0.00000409,-0
 .00142784,0.00008196,-0.00045247,-0.00028902,-0.00024974,-0.00046064,-
 0.01024488,-0.01609681,0.00593226,-0.00260333,-0.00143038,-0.00227839,
 -0.09031259,-0.14325030,0.08726457,0.10332483,0.15797254,0.,0.,0.,0.00
 000621,-0.00000255,0.00000378,-0.00003473,0.00000059,-0.00001091,-0.00
 000140,-0.00000037,-0.00000101,0.,0.,0.,0.,0.,0.,0.,0.,0.,0.00000019,-
 0.00000071,0.00000182,-0.00001761,0.00000221,-0.00000058,0.00004247,-0
 .00004105,0.00002564,-0.00002509,-0.00000940,-0.00001515,0.00000585,0.
 00000286,0.00000405,-0.00000035,-0.00000002,-0.00000019,0.,0.,0.,0.,0.
 ,0.,0.,0.,0.,0.,0.,0.,0.,0.,0.,0.,0.,0.,-0.00000617,0.00000573,-0.0000
 0127,-0.00000201,0.00000142,-0.00000038,0.,0.,0.,0.,0.,0.,0.,0.,0.,0.,
 0.,0.,0.,0.,0.,0.,0.,0.,0.,0.,0.,0.00006067,0.00002536,0.00000942,-0.0
 0000522,-0.00000812,-0.00000003,-0.00000559,-0.00000472,-0.00000106,-0
 .00001243,-0.00005794,-0.00003600,0.00004648,0.00008499,0.00005867,0.0
 0000893,-0.00000068,-0.00000478,-0.00000227,-0.00000216,0.00000071,0.,
 0.,0.,0.00000015,0.00000011,-0.00000006,0.00000016,0.00000011,0.,-0.00
 000147,-0.00000087,-0.00000032,-0.00000254,-0.00001069,0.00000567,-0.0
 0021535,-0.00001548,-0.00014782,-0.00034259,-0.00011839,0.00001681,0.0
 0003878,-0.00001292,0.00000340,-0.00000011,0.00000304,0.00000539,0.000
 00804,0.00000213,-0.00000522,-0.00000280,-0.00000142,0.00000116,0.,0.,
 0.,0.,0.,0.,0.,0.,0.,0.,0.,0.,-0.00000700,0.00000081,0.00000290,0.0000
 0639,-0.00000338,-0.00000163,0.00000665,0.00001684,-0.00001755,0.00003
 041,-0.00002674,0.00001365,-0.00008575,0.00004074,-0.00000593,0.000021
 06,-0.00002290,-0.00002837,-0.00034074,0.00008684,-0.00004193,0.000004
 51,0.00000847,-0.00000179,-0.00030231,-0.00021033,0.00008631,-0.000136
 55,-0.00009855,-0.00083568,-0.01241603,-0.01649674,0.01285604,-0.00081
 284,-0.00054831,-0.00132191,0.07475753,0.08461570,-0.11663090,-0.08265
 569,-0.09009151,0.12723544,-0.00002717,-0.00000561,-0.00000820,0.00008
 223,-0.00000601,0.00014602,-0.00002083,-0.00001544,0.00000995,0.000013
 46,0.00002538,0.00002439,-0.00002001,-0.00001304,-0.00001073,-0.000017
 33,-0.00000280,-0.00000430,-0.00004714,-0.00000218,-0.00001932,-0.0000
 9256,0.00008183,-0.00003352,-0.00030710,0.00008689,-0.00012562,0.00043
 731,-0.00014004,-0.00016153,0.00002086,0.00000157,0.00000779,-0.000021
 22,-0.00001458,-0.00000974,0.00000555,-0.00000015,0.00000548,0.,0.,0.,
 0.,0.,0.,0.,0.,0.,0.,0.,0.,-0.00000018,-0.00000006,-0.00000006,0.00007
 618,0.00000799,0.00003742,-0.00015645,-0.00008819,-0.00001718,0.000408
 64,-0.00020905,0.00004195,-0.00021224,-0.00000008,-0.00000509,0.000104
 71,0.00001854,0.00000676,-0.00000006,-0.00000002,-0.00000002,0.,0.,0.,
 0.,0.,0.,0.,0.,0.,-0.00000002,0.,0.,0.00004409,0.00000490,-0.00008499,
 -0.00003764,-0.00005678,0.00000523,-0.00000054,-0.00001735,0.00010438,
 -0.00019959,-0.00000791,-0.00019931,0.00089062,0.00059482,-0.00020285,
 -0.00041576,-0.00019250,0.00023054,0.00001520,-0.00003450,-0.00001869,
 -0.00000785,-0.00000536,-0.00000131,0.00000460,0.00000680,0.00000251,0
 .00002251,0.00001404,0.00000524,-0.00003175,-0.00002713,-0.00002913,0.
 00003977,0.00012763,0.00000626,0.00068923,0.00024344,-0.00019230,-0.00
 032198,-0.00002875,-0.00020339,-0.00026516,0.00047939,-0.00016537,0.00
 018015,-0.00011729,-0.00006843,-0.00021929,-0.00002584,0.00003531,0.00
 015436,0.00013931,-0.00003870,0.,0.,0.,0.,0.,0.,-0.00005093,-0.0000192
 9,0.00000117,-0.00005272,-0.00000170,-0.00000764,0.00013636,-0.0000207
 6,0.00000716,-0.00042118,0.00008028,-0.00000407,0.00048761,-0.00040158
 ,-0.00012485,0.00020050,0.00006315,-0.00017351,-0.00062243,-0.00023362
 ,0.00025565,-0.00009923,-0.00015441,-0.00006247,-0.00008742,-0.0000794
 3,0.00003637,0.00013116,0.00027272,-0.00010569,0.00006207,0.00008490,-
 0.00012215,0.00050320,0.00016293,0.00118660,0.01338705,-0.01258363,-0.
 01159446,-0.00112999,-0.00066295,-0.00041268,-0.14348306,0.08619287,0.
 08248068,-0.01204950,0.01015612,0.01008441,0.15588959,0.00000876,-0.00
 000164,-0.00000016,-0.00000185,-0.00000354,-0.00000350,0.00000696,0.00
 001716,0.00003254,-0.00000149,-0.00000792,-0.00000166,0.00000047,0.000
 00072,0.00000050,-0.00000175,0.00000008,-0.00000022,0.00000994,-0.0000
 0033,0.00000563,-0.00002893,0.00001567,-0.00001959,0.00002818,-0.00002
 184,0.00001916,-0.00010745,0.00003352,-0.00006788,0.00003547,-0.000017
 00,0.00000408,-0.00001009,-0.00001004,-0.00000515,0.00000770,0.0000027
 9,0.00000649,0.,0.,0.,0.,0.,0.,0.,0.,0.,0.,0.,0.,0.00000003,0.00000001
 ,0.00000001,-0.00001266,-0.00000150,-0.00000518,0.00005631,-0.00004144
 ,0.00004607,0.00005227,-0.00002371,-0.00000416,0.00001747,0.00000339,-
 0.00000306,0.00000244,-0.00000283,0.00000235,0.,0.,0.,0.,0.,0.,0.,0.,0
 .,0.,0.,0.,-0.00000003,0.,0.,0.00000470,0.00005462,-0.00006284,-0.0000
 3395,-0.00000333,0.00003563,0.00005391,0.00010257,0.00013751,0.0002375
 0,-0.00021109,-0.00027362,0.00051295,0.00021121,0.00012735,-0.00023730
 ,-0.00010877,0.00006398,0.00003853,0.00000807,-0.00002085,-0.00000606,
 -0.00000454,-0.00000156,0.00000215,0.00000496,0.00000187,0.00002701,0.
 00001691,0.00000644,-0.00003800,-0.00002676,-0.00003365,0.00000574,0.0
 0001579,-0.00004668,0.00020965,-0.00004741,-0.00011083,-0.00010649,0.0
 0003032,-0.00010064,-0.00009387,0.00015799,-0.00001086,-0.00000599,0.0
 0001398,0.00000141,-0.00003256,-0.00001375,0.00000405,0.00003757,0.000
 02779,-0.00000746,0.,0.,0.,0.,0.,0.,-0.00001491,-0.00000704,0.00000061
 ,-0.00001630,-0.00000425,0.00000273,0.00004520,0.00001116,-0.00001800,
 -0.00006132,0.00001445,0.00002860,0.00013911,-0.00009049,-0.00008760,-
 0.00001696,-0.00005171,-0.00011301,0.00015305,-0.00009384,0.00022943,-
 0.00011838,-0.00017882,-0.00010463,0.00010306,0.00004429,0.00013031,0.
 00005058,0.00005170,-0.00007589,-0.00038893,0.00029719,-0.00016814,0.0
 0000656,0.00004465,0.00053945,0.00792303,-0.01696727,-0.01172968,-0.00
 157927,0.00112738,-0.00270956,0.08879749,-0.12154134,-0.07551414,-0.01
 319429,0.01326204,0.01113233,-0.09333859,0.13580965,-0.00001027,-0.000
 00740,-0.00001129,0.00000015,-0.00000286,0.00001425,-0.00005053,0.0000
 0380,-0.00001435,0.00000282,0.00001196,0.00001191,-0.00001379,-0.00000
 861,-0.00000717,-0.00001393,-0.00000192,-0.00000326,-0.00001564,0.0000
 0120,-0.00000107,-0.00001903,0.00001377,0.00000910,-0.00015545,0.00003
 012,-0.00006499,-0.00002058,-0.00007436,-0.00018858,0.00008346,0.00003
 728,0.00004458,-0.00002242,-0.00001679,-0.00001434,0.00000263,-0.00000
 092,0.00000255,0.,0.,0.,0.,0.,0.,0.,0.,0.,0.,0.,0.,-0.00000001,0.,0.,-
 0.00000484,0.00000071,0.00000122,-0.00010270,0.00006209,-0.00003969,0.
 00001139,0.00000477,-0.00004343,-0.00001186,-0.00000320,0.00001403,-0.
 00001559,-0.00000024,-0.00000321,0.00000001,0.,0.,0.,0.,0.,0.,0.,0.,0.
 ,0.,0.,0.,0.,0.,-0.00000641,-0.00001134,-0.00003056,0.00000464,0.00003
 151,0.00001911,0.00002093,0.00003231,0.00000845,0.00006080,-0.00015907
 ,-0.00001547,-0.00018983,0.00002288,-0.00004362,0.00003672,-0.00000924
 ,-0.00001333,0.00001131,0.00001471,-0.00000296,0.00000228,0.00000107,-
 0.00000036,0.00000008,0.00000018,-0.00000218,0.00001064,0.00000696,0.0
 0000173,-0.00001053,-0.00000953,-0.00000458,0.00002250,0.00003791,0.00
 000158,0.00113359,0.00024018,-0.00001717,-0.00002984,0.00023525,-0.000
 27208,-0.00008976,-0.00012276,0.00000316,-0.00007925,0.00001174,0.0000
 4853,0.00011557,0.00003680,-0.00006141,-0.00004304,-0.00003632,0.00001
 170,0.,0.,0.,0.,0.,0.,0.00001568,0.00000644,-0.00000046,0.00002216,0.0
 0000558,-0.00000211,-0.00007347,-0.00001154,0.00002963,0.00006242,-0.0
 0000012,-0.00001181,0.00008421,-0.00001679,-0.00013893,0.00005941,-0.0
 0013386,0.00000164,0.00017535,0.00010166,0.00018044,-0.00009510,-0.000
 22256,-0.00004869,0.00014382,-0.00005882,0.00010307,-0.00000979,-0.000
 03750,-0.00000521,-0.00035375,0.00005232,-0.00061940,0.00025457,0.0003
 2528,0.00095374,0.00793260,-0.01326922,-0.00956415,-0.00084966,-0.0001
 1829,-0.00251369,0.08289759,-0.07604133,-0.12315241,0.01198711,-0.0092
 0286,-0.01085912,-0.09087301,0.08672321,0.13062654,0.,0.,0.,-0.0000081
 9,0.00000164,-0.00001040,-0.00002353,0.00000084,-0.00002501,0.00001002
 ,0.00000175,0.00000728,0.,0.,0.,0.,0.,0.,-0.00000001,0.,0.,0.00002202,
 -0.00001308,0.00000235,-0.00002961,0.00002330,-0.00003046,-0.00002054,
 0.00003234,0.00004637,0.00004168,-0.00007254,-0.00003607,0.00000537,0.
 00000145,0.00000509,0.00000235,0.00000102,0.00000222,0.,0.,0.,0.,0.,0.
 ,0.,0.,0.,0.,0.,0.,0.,0.,0.,0.,0.,0.,0.00001370,-0.00001497,0.00000358
 ,-0.00002294,0.00001053,0.00000424,0.,0.,0.,0.,0.,0.,0.,0.,0.,0.,0.,0.
 ,0.,0.,0.,0.,0.,0.,-0.00000001,0.,0.,-0.00000567,0.00005490,-0.0000263
 1,-0.00004550,-0.00006381,-0.00003871,0.00001784,0.00012808,0.00000892
 ,0.00002744,-0.00003838,-0.00021059,0.00057696,-0.00008269,0.00032729,
 -0.00027695,-0.00003725,0.00007595,-0.00002108,-0.00001554,0.00000383,
 0.00001456,0.00000814,-0.00000049,0.00001966,0.00001989,0.00000831,-0.
 00000346,-0.00000520,-0.00000655,-0.00000605,-0.00000275,-0.00000879,-
 0.00000345,-0.00002118,0.00001348,-0.00005252,0.00027116,0.00002544,0.
 00033064,0.00029173,-0.00016819,-0.00005790,0.00004691,-0.00007886,-0.
 00011489,-0.00009292,0.00004188,0.00000245,0.00000967,0.00000155,0.000
 02123,-0.00000029,-0.00000807,0.,0.,0.,0.,0.,0.,0.,0.,0.,0.,0.,0.,0.00
 003377,-0.00000821,-0.00001351,0.00005820,-0.00002831,-0.00002408,-0.0
 0000528,0.00012355,-0.00008291,-0.00001613,-0.00002959,0.00003793,-0.0
 0015433,-0.00001774,0.00015207,-0.00004484,-0.00004748,-0.00003236,0.0
 0016883,0.00004176,0.00007082,0.00005022,0.00007745,-0.00000401,0.0005
 8037,0.00043280,0.00035140,-0.00050350,-0.00044026,-0.00004537,-0.0110
 2723,0.01075998,-0.00894874,0.00069825,0.00146579,0.00127212,-0.144955
 44,0.08294935,-0.10326190,0.01233389,-0.00975445,0.01173824,-0.0119409
 5,0.01005121,-0.01296759,0.15359630,0.,0.,0.,0.00000154,-0.00000064,0.
 00000138,0.00000019,0.00000035,0.00000068,0.00000094,0.00000001,0.0000
 0068,0.,0.,0.,0.,0.,0.,0.,0.,0.,-0.00000138,0.00000087,-0.00000080,0.0
 0000080,-0.00000154,0.00000099,0.00003746,-0.00001705,0.00002508,-0.00
 000114,-0.00001790,0.00000609,0.00000237,-0.00000006,0.00000204,0.0000
 0102,0.00000031,0.00000108,0.,0.,0.,0.,0.,0.,0.,0.,0.,0.,0.,0.,0.,0.,0
 .,0.,0.,0.,0.00000286,-0.00000227,0.00000012,0.00000100,-0.00000031,-0
 .00000041,0.,0.,0.,0.,0.,0.,0.,0.,0.,0.,0.,0.,0.,0.,0.,0.,0.,0.,0.,0.,
 0.,-0.00002509,0.00001892,-0.00003516,-0.00001792,-0.00003310,-0.00001
 824,-0.00000003,0.00002375,0.00000363,0.00011776,0.00000993,-0.0000002
 2,0.00038154,0.00003306,0.00015944,-0.00007805,-0.00001168,0.00000721,
 -0.00000438,-0.00000341,-0.00000019,0.00000603,0.00000331,-0.00000030,
 0.00000678,0.00000716,0.00000324,0.00000018,-0.00000108,-0.00000203,-0
 .00000387,-0.00000380,-0.00000499,0.00000898,0.00000783,0.00001584,0.0
 0012763,-0.00011775,0.00003383,0.00000339,-0.00006194,-0.00006560,-0.0
 0003509,-0.00000190,0.00000966,-0.00001713,0.00001795,0.00000143,-0.00
 000562,0.00000300,0.00000321,0.00001044,0.00000127,-0.00000392,0.,0.,0
 .,0.,0.,0.,0.,0.,0.,0.,0.,0.,0.00000569,-0.00000217,-0.00000241,0.0000
 0353,-0.00000356,-0.00000057,0.00000740,0.00001017,-0.00000998,0.00002
 096,-0.00000935,-0.00000029,-0.00005602,0.00005916,-0.00000044,0.00001
 429,0.00000974,0.00003428,-0.00005205,0.00001200,-0.00001153,0.0000148
 1,0.00002405,-0.00000003,0.00058049,0.00010979,0.00037462,0.00000860,0
 .00008740,0.00000564,-0.01245480,0.01232624,-0.01230956,0.00115209,-0.
 00089229,0.00176149,0.08583571,-0.12166839,0.09109262,0.01292683,-0.00
 954980,0.01009985,0.00839428,-0.00945046,0.01143907,-0.09345602,0.1347
 5603,0.,0.,0.,-0.00000055,-0.00000028,-0.00000166,-0.00001243,0.000000
 83,-0.00001012,0.00000596,0.00000104,0.00000433,0.,0.,0.,0.,0.,0.,0.,0
 .,0.,0.00000969,-0.00000643,0.00000135,-0.00000462,0.00000373,-0.00000
 384,-0.00002478,0.00003651,0.00000808,0.00003774,-0.00003896,0.0000160
 2,0.00000369,0.00000096,0.00000232,0.00000071,0.00000041,0.00000060,0.
 ,0.,0.,0.,0.,0.,0.,0.,0.,0.,0.,0.,0.,0.,0.,0.,0.,0.,0.00000132,-0.0000
 0107,-0.00000225,-0.00000318,0.00000120,0.00000098,0.,0.,0.,0.,0.,0.,0
 .,0.,0.,0.,0.,0.,0.,0.,0.,0.,0.,0.,0.,0.,0.,0.00000635,0.00003418,-0.0
 0001520,0.00000648,0.00000579,-0.00000383,0.00003976,0.00003744,-0.000
 03151,-0.00037911,-0.00014171,0.00011179,0.00001757,0.00006261,-0.0000
 3920,-0.00000983,-0.00000627,0.00001251,0.00000317,0.00000126,-0.00000
 163,-0.00000002,-0.00000011,-0.00000015,-0.00000173,-0.00000141,-0.000
 00050,0.00000299,0.00000201,0.00000106,0.00000106,0.00000145,-0.000001
 09,0.00000527,0.00000186,0.00002764,-0.00027498,0.00020203,0.00008216,
 -0.00000954,-0.00000364,-0.00007396,0.00003447,0.00000884,-0.00000554,
 0.00000254,0.00000317,0.00000099,-0.00000253,-0.00000151,0.00000227,-0
 .00000165,0.00000006,0.00000086,0.,0.,0.,0.,0.,0.,0.,0.,0.,0.,0.,0.,-0
 .00000197,0.00000032,0.00000094,0.00000214,0.,-0.00000198,-0.00000376,
 0.00000185,0.00001009,0.00001306,-0.00000875,0.00000943,-0.00000161,0.
 00001290,0.00002901,-0.00005702,-0.00003063,-0.00001028,0.00018837,0.0
 0002895,0.00003740,-0.00000506,-0.00000442,0.00000309,0.00054340,0.000
 31768,-0.00004414,-0.00078379,-0.00027005,-0.00014833,-0.01083810,0.01
 351989,-0.01086238,0.00141629,0.00094583,0.00048520,-0.10302306,0.0884
 8821,-0.15757538,-0.01031713,0.00845116,-0.01113254,0.01041908,-0.0092
 7296,0.01338399,0.11314600,-0.09869193,0.16599697,0.,0.,0.,0.00002014,
 -0.00000711,0.00000753,-0.00002519,0.00002228,-0.00002234,-0.00005401,
 0.00001301,-0.00003592,0.00000239,-0.00000083,0.00000084,0.,0.,0.,0.,0
 .,0.,0.00000493,-0.00000035,0.00000859,-0.00002620,0.00003427,-0.00002
 915,-0.00022570,0.00012660,-0.00038470,-0.00023720,0.00024052,-0.00017
 374,0.00012540,-0.00001633,0.00012921,0.00005141,0.00004023,0.00002681
 ,0.00001428,0.00000595,-0.00000329,-0.00000997,0.00000053,-0.00000182,
 0.,0.,0.,0.,0.,0.,0.,0.,0.,0.,0.,0.,-0.00003829,0.00002812,0.00000807,
 -0.00000730,0.00000262,0.00000245,0.,0.,0.,0.,0.,0.,0.,0.,0.,0.,0.,0.,
 0.,0.,0.,-0.00002408,-0.00000016,-0.00000224,0.00007723,0.00001360,0.0
 0001915,-0.00055159,0.00025758,-0.00039563,0.00020368,-0.00016034,-0.0
 0049919,0.00010803,-0.00006419,-0.00010456,-0.00056906,-0.00074696,0.0
 0101864,-0.00108706,0.00120703,-0.00028682,-0.00049327,0.00018750,0.00
 087211,0.00000269,0.00000412,-0.00000035,-0.00007138,-0.00003244,0.000
 00943,0.00003710,0.00003572,-0.00012133,-0.00003954,-0.00001033,0.0000
 0076,0.00003597,-0.00002564,0.00007122,-0.00011416,-0.00028363,0.00065
 292,0.00005573,0.00002237,0.00018815,-0.00124979,0.00085995,0.00065881
 ,0.00088109,-0.00031774,-0.00078337,0.00022916,-0.00074197,-0.00015633
 ,-0.00007162,0.00002120,0.00006042,0.00001373,0.00001580,0.00000985,-0
 .00003095,-0.00000022,0.00000671,0.,0.,0.,-0.00000001,0.,0.,0.,0.,0.,-
 0.00005099,0.00002120,0.00002262,-0.00000983,0.00002747,-0.00000704,0.
 00000683,0.00015755,-0.00010299,0.00006021,-0.00006391,0.00001128,-0.0
 0028440,-0.00009337,0.00046687,0.00012004,-0.00043167,-0.00018301,-0.0
 0023619,-0.00018132,0.00016614,0.00016266,0.00024223,-0.00008546,0.002
 80678,0.00057773,-0.00092142,-0.00169804,-0.00002046,0.00020770,0.0048
 4099,0.00790089,-0.00180894,-0.11574621,0.03956283,-0.05314013,-0.0009
 5185,-0.00017533,-0.00208960,-0.00039027,0.00075474,0.00021758,0.00014
 587,0.00040352,0.00000946,0.00081141,-0.00067823,0.00164793,0.53732580
 ,0.,0.,0.,-0.00001693,0.00000735,-0.00000641,0.00000881,0.00000028,0.0
 0001013,0.00001648,0.00000280,0.00001184,-0.00000008,0.00000003,-0.000
 00003,0.,0.,0.,0.,0.,0.,-0.00000621,0.00000196,-0.00000748,0.00000398,
 -0.00000826,0.00001989,0.00020406,-0.00010557,0.00028165,0.00008415,-0
 .00016207,0.00006559,-0.00000185,-0.00001764,0.00000210,-0.00000553,-0
 .00000412,-0.00000183,-0.00000294,-0.00000003,-0.00000163,0.00000035,-
 0.00000002,0.00000006,0.,0.,0.,0.,0.,0.,0.,0.,0.,0.,0.,0.,0.00002894,-
 0.00002109,-0.00000620,0.00000619,-0.00000229,-0.00000197,0.,0.,0.,0.,
 0.,0.,0.,0.,0.,0.,0.,0.,0.,0.,0.,-0.00000526,-0.00000004,-0.00000049,0
 .00001278,0.00000139,0.00000484,0.00011902,0.00008475,0.00009835,0.000
 09444,0.00010054,-0.00003906,0.00017145,0.00008040,-0.00005127,0.00009
 370,0.00005219,-0.00061438,0.00011161,-0.00042469,-0.00000084,0.000189
 28,0.00004247,-0.00023087,-0.00000240,0.00000134,0.00000361,0.00000608
 ,0.00000539,0.00000187,-0.00002449,-0.00001893,-0.00002720,-0.00001987
 ,-0.00001041,-0.00000941,-0.00004960,-0.00001119,0.00000802,-0.0000572
 9,-0.00002125,0.00009758,-0.00048062,-0.00028415,-0.00009179,0.0004445
 0,-0.00020731,-0.00013259,-0.00041219,0.00010362,0.00037319,0.00002719
 ,0.00024984,-0.00006822,0.00001620,0.00000541,-0.00001011,-0.00001458,
 0.00000063,0.00000833,-0.00000677,-0.00000005,0.00000147,0.,0.,0.,0.,0
 .,0.,0.,0.,0.,0.00001564,-0.00000456,-0.00000765,-0.00001352,-0.000002
 35,0.00001244,-0.00001118,-0.00007350,0.00006752,-0.00005087,0.0000434
 1,0.00001002,0.00019661,0.00005988,-0.00033922,0.00079398,0.00029540,0
 .00011078,0.00000344,0.00023235,-0.00013794,0.00000923,0.00000084,0.00
 002899,-0.00432951,-0.00051857,-0.00030759,0.00102161,0.00053387,0.000
 67190,0.02090059,-0.01859388,0.02248268,0.04008505,-0.14132793,0.04591
 467,0.00020206,0.00242352,0.00116783,0.00000281,-0.00192171,0.00038960
 ,0.00065687,-0.00158381,-0.00038490,0.00053202,-0.00245991,-0.00014144
 ,0.02761781,0.53954130,0.,0.,0.,0.00001269,-0.00000429,0.00000651,-0.0
 0001322,0.00001492,-0.00000996,-0.00003107,0.00000859,-0.00002051,0.00
 000148,-0.00000051,0.00000052,0.,0.,0.,0.,0.,0.,-0.00000753,0.00000527
 ,0.00000183,0.00000740,0.00000442,0.00000087,-0.00008708,-0.00000439,-
 0.00011834,-0.00020054,0.00019116,-0.00013237,0.00009961,-0.00000311,0
 .00007258,0.00002882,0.00002469,0.00001412,0.00001353,0.00000334,0.000
 00132,-0.00000616,0.00000033,-0.00000113,0.,0.,0.,0.,0.,0.,0.,0.,0.,0.
 ,0.,0.,-0.00001052,0.00000765,0.00000447,-0.00000102,0.00000047,0.0000
 0019,0.,0.,0.,0.,0.,0.,0.,0.,0.,0.,0.,0.,0.,0.,0.,-0.00000310,-0.00000
 002,-0.00000029,0.00001791,0.00000481,0.00000123,-0.00034011,0.0001594
 9,-0.00022883,0.00007919,0.00005206,-0.00003225,0.00015448,-0.00001227
 ,-0.00001866,-0.00125762,-0.00054613,0.00090659,-0.00001846,-0.0001951
 6,0.00004189,0.00012787,0.00000929,-0.00015593,0.00000311,0.00000224,-
 0.00000041,0.00000757,0.00000565,0.00000133,-0.00000215,-0.00000259,-0
 .00002742,-0.00002001,-0.00001265,-0.00000126,0.00007822,0.00002826,0.
 00001589,-0.00007368,-0.00011871,0.00005454,0.00039050,-0.00013678,0.0
 0002317,0.00022296,-0.00006524,0.00012665,-0.00011969,0.00004859,0.000
 11595,-0.00005645,0.00014171,0.00003636,0.00000690,0.00000019,-0.00000
 248,-0.00001508,-0.00000007,0.00000806,-0.00000398,-0.00000003,0.00000
 086,0.,0.,0.,0.,0.,0.,0.,0.,0.,0.00000998,-0.00000490,-0.00000403,0.00
 001155,-0.00000866,-0.00000445,0.00000035,-0.00004069,0.00001368,0.000
 00160,0.00001381,-0.00001303,-0.00020130,0.00005832,0.00008749,-0.0008
 5528,-0.00069828,-0.00020124,-0.00013738,0.00001088,0.00011594,0.00005
 473,-0.00000458,-0.00001536,0.00631164,-0.00013792,-0.00085307,0.00159
 825,-0.00116409,-0.00017925,-0.00386008,0.00750598,0.00499642,-0.05619
 058,0.04949528,-0.13136640,-0.00209326,-0.00116523,-0.00222378,-0.0002
 9209,0.00035198,0.00004979,0.00027464,0.00040544,-0.00043837,0.0016124
 2,-0.00084698,0.00135590,0.01849537,0.03993714,0.53138125,0.,0.,0.,0.0
 0000232,-0.00000101,0.00000219,0.00000536,-0.00000146,0.00000507,0.000
 01003,-0.00000175,0.00000728,0.,0.,0.,0.,0.,0.,-0.00000001,0.,0.,-0.00
 000354,0.00000525,-0.00000657,-0.00000595,0.00000268,-0.00000868,-0.00
 000340,0.00002121,0.00001355,-0.00000564,-0.00005492,-0.00002621,-0.00
 002348,-0.00000085,-0.00002495,-0.00000815,-0.00000162,-0.00001035,0.,
 0.,0.,0.,0.,0.,0.,0.,0.,0.,0.,0.,0.,0.,0.,0.,0.,0.,0.00001969,-0.00001
 991,0.00000830,0.00001456,-0.00000815,-0.00000049,0.,0.,0.,0.,0.,0.,0.
 ,0.,0.,0.,0.,0.,0.,0.,0.,0.,0.,0.,-0.00000001,0.,0.,0.00004133,0.00007
 278,-0.00003630,-0.00001651,0.00002961,0.00003832,-0.00015277,0.000017
 74,0.00015229,-0.00005165,-0.00027051,0.00002708,0.00033153,-0.0002930
 9,-0.00017001,-0.00005688,-0.00004645,-0.00007956,0.00005819,0.0000283
 2,-0.00002407,-0.00002283,-0.00001047,0.00000423,0.00001366,0.00001495
 ,0.00000358,0.00002201,0.00001307,0.00000234,-0.00002960,-0.00002331,-
 0.00003049,-0.00002020,-0.00003271,0.00004593,0.00002635,0.00003820,-0
 .00021206,0.00057677,0.00008267,0.00032783,-0.00027782,0.00003770,0.00
 007659,-0.00011476,0.00009364,0.00004180,0.00000231,-0.00000969,0.0000
 0163,0.00003377,0.00000823,-0.00001350,0.,0.,0.,0.,0.,0.,0.,0.,0.,0.,0
 .,0.,0.00002128,0.00000027,-0.00000810,-0.00002123,0.00001558,0.000003
 90,0.00005020,-0.00007789,-0.00000358,-0.00004563,0.00006399,-0.000038
 61,0.00001867,-0.00012836,0.00000844,0.00016844,-0.00004191,0.00007030
 ,-0.00004447,0.00004738,-0.00003231,-0.00000526,-0.00012385,-0.0000831
 0,-0.00050272,0.00043606,-0.00004641,0.00057908,-0.00043210,0.00035129
 ,0.00070673,-0.00147312,0.00127610,-0.01103664,-0.01075681,-0.00893502
 ,0.00081341,-0.00054238,0.00161605,-0.00003704,-0.00017673,0.00022513,
 0.00015271,0.00061926,-0.00000450,-0.00092997,-0.00021059,-0.00075546,
 -0.14532258,-0.08307512,-0.10328724,0.15396887,0.,0.,0.,-0.00000100,0.
 00000030,-0.00000107,-0.00000237,-0.00000006,-0.00000203,-0.00000094,0
 .00000001,-0.00000068,0.,0.,0.,0.,0.,0.,0.,0.,0.,-0.00000014,-0.000001
 10,0.00000204,0.00000381,-0.00000376,0.00000493,-0.00000898,0.00000773
 ,-0.00001582,0.00002511,0.00001892,0.00003512,-0.00000017,0.00000035,-
 0.00000066,-0.00000154,-0.00000063,-0.00000138,0.,0.,0.,0.,0.,0.,0.,0.
 ,0.,0.,0.,0.,0.,0.,0.,0.,0.,0.,-0.00000680,0.00000717,-0.00000324,-0.0
 0000603,0.00000331,0.00000030,0.,0.,0.,0.,0.,0.,0.,0.,0.,0.,0.,0.,0.,0
 .,0.,0.,0.,0.,0.,0.,0.,0.00000088,-0.00001777,-0.00000624,-0.00002116,
 -0.00000939,0.00000036,0.00005665,0.00005912,0.00000048,-0.00012753,-0
 .00011797,-0.00003388,-0.00000289,-0.00006132,0.00006585,0.00003488,-0
 .00000201,-0.00000954,-0.00000354,-0.00000357,0.00000057,-0.00000099,-
 0.00000031,0.00000041,-0.00000286,-0.00000227,-0.00000012,0.00000138,0
 .00000087,0.00000080,-0.00000078,-0.00000154,-0.00000099,-0.00003724,-
 0.00001726,-0.00002509,-0.00011602,0.00000978,0.00000067,-0.00038231,0
 .00003326,-0.00015943,0.00007823,-0.00001182,-0.00000738,0.00001699,0.
 00001773,-0.00000132,0.00000566,0.00000301,-0.00000324,-0.00000570,-0.
 00000218,0.00000242,0.,0.,0.,0.,0.,0.,0.,0.,0.,0.,0.,0.,-0.00001045,0.
 00000127,0.00000392,0.00000447,-0.00000344,0.00000015,-0.00001478,0.00
 002421,-0.00000013,0.00001805,-0.00003317,0.00001818,-0.00000033,0.000
 02384,-0.00000339,0.00005179,0.00001188,0.00001132,-0.00001438,0.00000
 975,-0.00003426,-0.00000742,0.00001022,0.00000998,-0.00000573,0.000086
 11,-0.00000577,-0.00057982,0.00010881,-0.00037439,-0.00113887,-0.00088
 887,-0.00174216,0.01246345,0.01230611,0.01227005,0.00066980,-0.0024834
 8,0.00083076,0.00055378,0.00115454,-0.00015712,0.00033385,-0.00006879,
 0.00034037,0.00022518,-0.00290719,0.00002790,-0.08598576,-0.12167335,-
 0.09094515,0.09360008,0.13475545,0.,0.,0.,0.00000070,-0.00000040,0.000
 00059,0.00000369,-0.00000096,0.00000231,0.00000596,-0.00000104,0.00000
 433,0.,0.,0.,0.,0.,0.,0.,0.,0.,0.00000298,-0.00000200,0.00000106,0.000
 00108,-0.00000146,-0.00000108,0.00000529,-0.00000182,0.00002767,0.0000
 0638,-0.00003421,-0.00001517,-0.00001240,-0.00000084,-0.00001010,-0.00
 000054,0.00000028,-0.00000165,0.,0.,0.,0.,0.,0.,0.,0.,0.,0.,0.,0.,0.,0
 .,0.,0.,0.,0.,-0.00000172,0.00000140,-0.00000051,-0.00000003,0.0000001
 1,-0.00000015,0.,0.,0.,0.,0.,0.,0.,0.,0.,0.,0.,0.,0.,0.,0.,0.,0.,0.,0.
 ,0.,0.,0.00003735,0.00003917,0.00001582,0.00001291,0.00000874,0.000009
 59,-0.00000078,-0.00001305,0.00002887,-0.00027591,-0.00020195,0.000081
 83,-0.00000888,0.00000334,-0.00007396,0.00003464,-0.00000895,-0.000005
 63,0.00000213,-0.00000001,-0.00000197,-0.00000316,-0.00000119,0.000000
 98,0.00000131,0.00000106,-0.00000225,0.00000969,0.00000643,0.00000136,
 -0.00000457,-0.00000372,-0.00000384,-0.00002423,-0.00003681,0.00000812
 ,-0.00037964,0.00014143,0.00011172,0.00001622,-0.00006201,-0.00003941,
 -0.00000970,0.00000625,0.00001246,0.00000256,-0.00000319,0.00000098,-0
 .00000252,0.00000151,0.00000226,-0.00000199,-0.00000033,0.00000095,0.,
 0.,0.,0.,0.,0.,0.,0.,0.,0.,0.,0.,-0.00000165,-0.00000006,0.00000085,0.
 00000316,-0.00000126,-0.00000162,-0.00000506,0.00000447,0.00000306,0.0
 0000645,-0.00000579,-0.00000378,0.00003978,-0.00003732,-0.00003156,0.0
 0018799,-0.00002908,0.00003718,-0.00005683,0.00003054,-0.00001018,-0.0
 0000363,-0.00000180,0.00001006,-0.00078210,0.00026654,-0.00015036,0.00
 054241,-0.00031802,-0.00004472,0.00142203,-0.00095839,0.00048838,-0.01
 087073,-0.01351916,-0.01086873,0.00166045,0.00012463,0.00136792,-0.000
 12852,-0.00006510,0.00051973,0.00027164,0.00013072,0.00009519,-0.00075
 443,0.00000178,-0.00118682,-0.10304902,-0.08835634,-0.15721717,0.11317
 299,0.09850373,0.16563049,0.,0.,0.,0.00000553,0.00000015,0.00000546,-0
 .00002128,0.00001463,-0.00000980,0.00001341,-0.00002535,0.00002435,-0.
 00001999,0.00001303,-0.00001072,0.,0.,0.,-0.00000002,0.,0.,0.00002246,
 -0.00001401,0.00000523,-0.00003174,0.00002713,-0.00002912,0.00003969,-
 0.00012744,0.00000576,0.00004381,-0.00000511,-0.00008515,-0.00002065,0
 .00001550,0.00001011,0.00008218,0.00000595,0.00014610,-0.00002713,0.00
 000562,-0.00000820,-0.00001733,0.00000280,-0.00000430,0.,0.,0.,0.,0.,0
 .,0.,0.,0.,0.,0.,0.,0.00000462,-0.00000681,0.00000250,-0.00000792,0.00
 000540,-0.00000130,0.,0.,0.,0.,0.,0.,0.,0.,0.,-0.00000006,0.00000002,-
 0.00000002,-0.00000018,0.00000006,-0.00000006,0.00007626,-0.00000798,0
 .00003748,-0.00004699,0.00000221,-0.00001917,0.00002024,-0.00000072,0.
 00000709,0.00020323,-0.00006098,-0.00017449,-0.00062281,0.00023577,0.0
 0025650,0.00068115,-0.00024265,-0.00019300,-0.00032879,0.00003114,-0.0
 0020406,-0.00025903,-0.00047713,-0.00016626,-0.00042205,-0.00007999,-0
 .00000341,0.00040921,0.00020891,0.00004156,-0.00015666,0.00008861,-0.0
 0001638,-0.00009294,-0.00008212,-0.00003455,-0.00030713,-0.00008702,-0
 .00012513,0.00043660,0.00013865,-0.00016311,-0.00020125,0.00000741,-0.
 00019996,0.00089377,-0.00059617,-0.00020379,-0.00041604,0.00019420,0.0
 0023061,0.00017955,0.00011584,-0.00006865,-0.00022043,0.00002681,0.000
 03617,0.00013744,0.00002022,0.00000665,-0.00021271,-0.00000001,-0.0000
 0532,0.00010511,-0.00001861,0.00000682,-0.00005306,0.00000187,-0.00000
 759,-0.00005102,0.00001929,0.00000117,0.00015481,-0.00013985,-0.000038
 87,0.00001506,0.00003466,-0.00001862,0.00013100,-0.00027235,-0.0001058
 2,-0.00003784,0.00005669,0.00000582,0.00000069,0.00001699,0.00010459,-
 0.00008520,0.00007770,0.00003587,-0.00009916,0.00015470,-0.00006274,0.
 00048584,0.00039909,-0.00012569,0.00050346,-0.00016219,0.00118783,0.00
 006528,-0.00008896,-0.00011681,-0.00113266,0.00067041,-0.00041451,0.01
 339974,0.01255023,-0.01160802,0.00014402,-0.00064920,0.00027070,0.0001
 0046,0.00010890,0.00002484,-0.00003194,0.00001388,0.00015344,0.0001480
 1,-0.00034276,0.00027171,-0.14353944,-0.08599647,0.08263651,-0.0119516
 2,-0.00838298,0.01047000,0.15593296,0.,0.,0.,-0.00000767,0.00000278,-0
 .00000646,0.00001012,-0.00001005,0.00000520,0.00000150,-0.00000794,0.0
 0000166,-0.00000048,0.00000072,-0.00000050,0.,0.,0.,0.00000003,0.,0.,-
 0.00002694,0.00001687,-0.00000641,0.00003796,-0.00002674,0.00003362,-0
 .00000556,0.00001539,0.00004729,-0.00000468,0.00005480,0.00006283,-0.0
 0000698,0.00001714,-0.00003251,0.00000189,-0.00000356,0.00000357,-0.00
 000878,-0.00000164,0.00000015,0.00000175,0.00000008,0.00000022,0.,0.,0
 .,0.,0.,0.,0.,0.,0.,0.,0.,0.,-0.00000218,0.00000498,-0.00000186,0.0000
 0613,-0.00000458,0.00000155,0.,0.,0.,0.,0.,0.,0.,0.,0.,0.,0.,0.,-0.000
 00003,0.00000001,-0.00000001,0.00001268,-0.00000150,0.00000519,-0.0000
 0995,-0.00000033,-0.00000563,-0.00003540,-0.00001714,-0.00000394,0.000
 01622,-0.00005237,0.00011293,-0.00015290,-0.00009424,-0.00022979,-0.00
 020513,-0.00004817,0.00011097,0.00011316,0.00002775,0.00009970,0.00009
 345,0.00015723,0.00001123,0.00006136,0.00001458,-0.00002861,-0.0000521
 8,-0.00002368,0.00000413,-0.00005640,-0.00004145,-0.00004607,0.0000289
 2,0.00001566,0.00001953,-0.00002838,-0.00002185,-0.00001922,0.00010704
 ,0.00003421,0.00006800,-0.00023630,-0.00020963,0.00027421,-0.00051531,
 0.00021135,-0.00012592,0.00023772,-0.00010939,-0.00006407,0.00000626,0
 .00001437,-0.00000133,0.00003286,-0.00001378,-0.00000426,-0.00004525,0
 .00001116,0.00001802,-0.00001751,0.00000339,0.00000306,-0.00000241,-0.
 00000284,-0.00000235,0.00001627,-0.00000424,-0.00000273,0.00001494,-0.
 00000705,-0.00000061,-0.00003757,0.00002779,0.00000747,-0.00003840,0.0
 0000805,0.00002078,-0.00005049,0.00005128,0.00007600,0.00003417,-0.000
 00306,-0.00003638,-0.00005568,0.00010361,-0.00013792,-0.00010309,0.000
 04457,-0.00012924,0.00011834,-0.00017886,0.00010487,-0.00013870,-0.000
 09045,0.00008760,-0.00000421,0.00004239,-0.00054001,0.00038884,0.00029
 951,0.00016380,0.00157582,0.00113444,0.00270162,-0.00793123,-0.0169599
 6,0.01175728,-0.00040529,-0.00157776,-0.00040924,0.00030946,0.00019942
 ,-0.00000422,-0.00001703,-0.00072458,-0.00005781,-0.00061778,-0.000071
 83,-0.00012512,-0.08861686,-0.12117876,0.07544980,-0.01005406,-0.00941
 332,0.00929770,0.09311962,0.13539067,0.,0.,0.,0.00000263,0.00000091,0.
 00000254,-0.00002247,0.00001684,-0.00001438,0.00000278,-0.00001194,0.0
 0001189,-0.00001379,0.00000861,-0.00000717,0.,0.,0.,0.,0.,0.,0.0000106
 3,-0.00000696,0.00000172,-0.00001054,0.00000955,-0.00000457,0.00002245
 ,-0.00003792,0.00000147,-0.00000668,0.00001112,-0.00003070,-0.00005037
 ,-0.00000372,-0.00001422,0.00000016,0.00000286,0.00001439,-0.00001024,
 0.00000742,-0.00001128,-0.00001394,0.00000192,-0.00000326,0.,0.,0.,0.,
 0.,0.,0.,0.,0.,0.,0.,0.,0.00000010,-0.00000019,-0.00000218,0.00000228,
 -0.00000106,-0.00000036,0.,0.,0.,0.,0.,0.,0.,0.,0.,0.00000001,0.,0.,-0
 .00000001,0.,0.,-0.00000484,-0.00000071,0.00000122,-0.00001566,-0.0000
 0120,-0.00000110,0.00008332,-0.00003669,0.00004423,0.00006007,0.000134
 00,0.00000146,0.00017594,-0.00010065,0.00018043,0.00113231,-0.00024100
 ,-0.00001555,-0.00003143,-0.00023449,-0.00027271,-0.00009144,0.0001225
 0,0.00000326,0.00006245,0.00000006,-0.00001189,0.00001144,-0.00000467,
 -0.00004337,-0.00010270,-0.00006213,-0.00003989,-0.00001903,-0.0000137
 6,0.00000909,-0.00015548,-0.00003033,-0.00006506,-0.00002180,0.0000744
 8,-0.00018902,0.00006170,0.00015752,-0.00001552,-0.00018841,-0.0000236
 7,-0.00004438,0.00003649,0.00000922,-0.00001318,-0.00007913,-0.0000114
 5,0.00004862,0.00011570,-0.00003698,-0.00006156,-0.00007369,0.00001163
 ,0.00002975,-0.00001180,0.00000321,0.00001408,-0.00001564,0.00000025,-
 0.00000322,0.00002221,-0.00000561,-0.00000212,0.00001570,-0.00000645,-
 0.00000046,-0.00004310,0.00003640,0.00001172,0.00001130,-0.00001472,-0
 .00000296,-0.00000971,0.00003745,-0.00000527,0.00000456,-0.00003155,0.
 00001932,0.00002149,-0.00003271,0.00000866,0.00014576,0.00005782,0.000
 10252,-0.00009526,0.00022293,-0.00004877,0.00008469,0.00001759,-0.0001
 3913,0.00025304,-0.00032192,0.00095587,-0.00035240,-0.00005428,-0.0006
 1926,-0.00084252,0.00010593,-0.00250949,0.00792830,0.01327042,-0.00959
 129,0.00001132,0.00038623,-0.00043583,0.00002836,-0.00023791,0.0001017
 4,0.00015227,0.00006214,0.00029273,-0.00000294,-0.00033390,0.00009913,
 0.08307683,0.07598205,-0.12340296,-0.01295295,-0.01139456,0.01338007,-
 0.09105795,-0.08666929,0.13093397,0.,0.,0.,-0.00000130,0.00000010,-0.0
 0000069,0.00001773,-0.00001055,0.00001377,-0.00000525,0.00000141,-0.00
 000384,0.,0.,0.,0.,0.,0.,0.,0.,0.,0.00000059,-0.00000041,-0.00000002,-
 0.00000384,0.00000261,-0.00000085,0.00000540,0.00001502,0.00002954,-0.
 00003477,0.00002504,-0.00005323,-0.00004662,-0.00000096,-0.00002949,0.
 00000376,0.00000417,-0.00000638,0.00000039,-0.00000003,0.00000028,0.,0
 .,0.,0.,0.,0.,0.,0.,0.,0.,0.,0.,0.,0.,0.,0.00000055,-0.00000041,-0.000
 00023,0.,0.,0.,0.,0.,0.,0.,0.,0.,0.,0.,0.,0.,0.,0.,0.,0.,0.,-0.0000010
 0,0.,-0.00000009,0.00000309,0.00000037,0.00000110,-0.00000564,0.000014
 92,-0.00004299,-0.00001270,-0.00002016,0.00000492,-0.00005043,0.000128
 56,0.00003333,0.00020077,-0.00047095,-0.00006640,0.00028292,-0.0003394
 3,0.00005078,-0.00014888,-0.00005082,0.00003929,-0.00000735,-0.0000066
 4,-0.00000253,-0.00001188,-0.00000220,0.00000661,0.00000321,0.00000505
 ,0.00001105,-0.00000433,-0.00000344,-0.00000262,-0.00002051,0.00000514
 ,-0.00001346,0.00003624,-0.00000273,-0.00001535,0.00004725,0.00012490,
 0.00007760,-0.00011674,0.00027398,-0.00000760,-0.00001321,-0.00000875,
 -0.00001139,-0.00001483,0.00001825,0.00000640,-0.00003412,0.00001102,0
 .00002516,0.00002136,0.00000264,-0.00000863,-0.00000029,0.,0.00000006,
 0.,0.,0.,0.,0.,0.,0.,0.,0.,0.00000878,-0.00000444,-0.00000365,0.000007
 10,-0.00000676,-0.00000223,-0.00002066,0.00003546,0.00001217,0.0000062
 6,-0.00001859,0.00000584,-0.00003354,0.00003461,-0.00003572,-0.0000535
 1,-0.00010297,-0.00006562,0.00004259,0.00012703,-0.00002720,-0.0000127
 8,0.00003765,0.00005079,0.00099019,-0.00003766,-0.00109365,-0.00121113
 ,0.00066736,-0.00041864,-0.00211689,0.00115968,-0.00113729,-0.00746214
 ,0.01115183,0.00529449,-0.00038966,-0.00001785,-0.00029223,0.00026241,
 -0.00000220,0.00018261,0.00009848,-0.00030411,0.00002872,-0.00003573,-
 0.00054715,-0.00012589,-0.13012032,0.09137972,0.07579901,0.01233739,-0
 .01296618,-0.01033572,-0.01202048,0.01322629,0.01198626,0.13929394,0.,
 0.,0.,0.00000146,-0.00000045,0.00000078,-0.00000905,0.00000402,-0.0000
 0611,0.00000174,-0.00000058,0.00000126,0.,0.,0.,0.,0.,0.,0.,0.,0.,-0.0
 0000047,0.00000033,0.00000001,0.00000416,-0.00000223,0.00000081,-0.000
 01397,-0.00000193,-0.00002449,-0.00003520,0.00000731,0.00000642,0.0000
 2415,0.00000079,0.00001231,-0.00000474,-0.00000251,-0.00000103,0.00000
 002,0.,0.00000002,0.,0.,0.,0.,0.,0.,0.,0.,0.,0.,0.,0.,0.,0.,0.,-0.0000
 0044,0.00000033,0.00000018,0.,0.,0.,0.,0.,0.,0.,0.,0.,0.,0.,0.,0.,0.,0
 .,0.,0.,0.,-0.00000006,0.,0.,0.00000018,0.00000002,0.00000006,-0.00002
 888,-0.00001993,-0.00001692,-0.00000723,0.00000943,0.00000629,-0.00005
 468,-0.00003300,0.00000640,0.00063820,0.00020906,-0.00008356,0.0000124
 2,0.00006066,-0.00012283,0.00000383,0.00002126,0.00001015,0.00000437,0
 .00000299,-0.00000014,0.00000032,-0.00000051,-0.00000107,-0.00000148,-
 0.00000247,-0.00000282,0.00000148,0.00000197,0.00000086,-0.00000575,-0
 .00000280,0.00000014,-0.00011801,-0.00001194,0.00000108,-0.00005510,-0
 .00002009,0.00003895,0.00006133,-0.00004292,-0.00002932,-0.00000399,0.
 00000622,0.00001107,0.00000351,-0.00000562,-0.00000031,0.00000986,-0.0
 0000284,-0.00000681,-0.00000738,-0.00000086,0.00000304,-0.00000002,0.,
 0.,0.,0.,0.,0.,0.,0.,0.,0.,0.,-0.00000297,0.00000150,0.00000124,-0.000
 00241,0.00000229,0.00000076,0.00000629,-0.00001083,-0.00000412,-0.0000
 0178,0.00000526,-0.00000392,0.00000348,-0.00000502,0.00003025,0.000005
 05,0.00011461,-0.00000265,-0.00007025,-0.00005283,0.00002753,-0.000011
 05,-0.00001930,-0.00000908,0.00028879,-0.00024883,0.00046295,0.0014261
 4,0.00008049,0.00045167,0.00261417,-0.00143063,0.00228196,0.01020908,-
 0.01611930,-0.00593238,-0.00076162,-0.00191637,-0.00036200,0.00000361,
 0.00026436,0.00001850,-0.00010936,0.00019271,0.00023816,0.00018268,0.0
 0114490,0.00007692,0.09031170,-0.14365394,-0.08742121,0.00972680,-0.00
 955203,-0.00844434,-0.01010947,0.01325735,0.00917334,-0.10331450,0.158
 41492,0.,0.,0.,-0.00000035,0.00000003,-0.00000019,0.00000586,-0.000002
 86,0.00000406,-0.00000141,0.00000037,-0.00000102,0.,0.,0.,0.,0.,0.,0.,
 0.,0.,0.00000016,-0.00000011,0.,-0.00000148,0.00000087,-0.00000032,-0.
 00000254,0.00001070,0.00000567,0.00006061,-0.00002533,0.00000939,-0.00
 003477,-0.00000058,-0.00001092,0.00000623,0.00000256,0.00000380,0.,0.,
 0.,0.,0.,0.,0.,0.,0.,0.,0.,0.,0.,0.,0.,0.,0.,0.,0.00000015,-0.00000011
 ,-0.00000006,0.,0.,0.,0.,0.,0.,0.,0.,0.,0.,0.,0.,0.,0.,0.,0.,0.,0.,0.,
 0.,0.,0.,0.,0.,-0.00002464,0.00000906,-0.00001488,0.00003081,0.0000269
 8,0.00001358,-0.00008687,-0.00004043,-0.00000534,-0.00021387,0.0000156
 9,-0.00014853,-0.00034309,0.00011866,0.00001635,0.00003889,0.00001300,
 0.00000352,0.00000643,0.00000340,-0.00000165,-0.00000203,-0.00000143,-
 0.00000038,-0.00000624,-0.00000579,-0.00000128,0.00000019,0.00000072,0
 .00000183,-0.00001779,-0.00000223,-0.00000061,0.00004115,0.00004151,0.
 00002550,-0.00001242,0.00005835,-0.00003593,0.00004680,-0.00008527,0.0
 0005890,0.00000901,0.00000072,-0.00000480,-0.00000010,-0.00000310,0.00
 000544,0.00000809,-0.00000214,-0.00000525,-0.00000706,-0.00000082,0.00
 000292,0.,0.,0.,0.,0.,0.,0.,0.,0.,0.,0.,0.,-0.00000282,0.00000142,0.00
 000117,-0.00000228,0.00000217,0.00000072,0.00000454,-0.00000852,-0.000
 00181,-0.00000524,0.00000819,-0.00000004,-0.00000561,0.00000469,-0.000
 00106,-0.00034136,-0.00008612,-0.00004180,0.00002100,0.00002318,-0.000
 02843,0.00000670,-0.00001691,-0.00001759,-0.00014241,0.00010451,-0.000
 83572,-0.00030302,0.00021190,0.00008707,-0.00082028,0.00055709,-0.0013
 2814,-0.01238700,0.01652996,0.01286045,0.00021328,-0.00037779,0.000044
 06,0.00018348,-0.00002111,-0.00003703,0.00002537,-0.00000136,0.0001018
 1,0.00022418,0.00014149,0.00052159,0.07460050,-0.08477246,-0.11662040,
 0.01169793,-0.01009829,-0.01111513,0.01007877,-0.01118102,-0.01088006,
 -0.08246898,0.09026729,0.12722918,0.00001205,-0.00001142,0.00000747,0.
 00018987,-0.00024950,0.00014166,-0.00015399,-0.00003360,0.00001297,0.0
 0027283,0.00026647,0.00035225,0.00040292,0.00000534,0.00002964,-0.0000
 5452,0.00000097,-0.00000124,-0.00006466,0.00004445,0.00003314,0.000030
 26,-0.00000185,-0.00003202,-0.00046093,0.00025946,0.00001123,0.0004957
 5,0.00087624,0.00010843,-0.00008381,0.00307862,-0.00042925,-0.00034375
 ,0.00010996,-0.00076243,-0.00003688,-0.00151035,0.00048334,-0.00024756
 ,-0.00010829,0.00013565,-0.00009843,0.00000409,0.00000233,0.00005092,-
 0.00000976,-0.00001740,0.00001390,-0.00000698,-0.00000565,0.,0.,0.,0.0
 0000003,0.,-0.00000162,0.00009622,-0.00007260,-0.00000788,-0.00001316,
 0.00001297,-0.00000686,-0.00000107,0.,0.00000172,0.,0.,0.,0.,0.,0.,0.,
 0.,0.,-0.00000356,-0.00000340,0.00000535,-0.00011961,0.00000441,0.0000
 4853,-0.00025859,0.00013209,-0.00017807,0.00190326,-0.00655047,0.00552
 171,-0.00026265,0.00088285,0.00055458,0.00314589,0.00530127,0.00131028
 ,-0.01751467,-0.00164987,0.01938137,-0.00156380,-0.00474034,-0.0057820
 1,0.00012902,0.00031291,0.00092285,-0.00029166,-0.00009274,-0.00007326
 ,-0.00008711,0.00015551,0.00023208,0.00087891,0.00001739,-0.00046084,0
 .00083748,0.00001424,0.00005519,-0.00161801,0.00078012,-0.00057142,0.0
 0215874,0.00488285,-0.00226098,0.00015684,-0.00035905,-0.00105414,-0.0
 0005882,0.00303898,0.00165649,-0.00014869,-0.00000883,-0.00009575,0.00
 005467,0.00001760,-0.00027403,0.00009087,0.00004443,-0.00003736,-0.000
 16804,0.00002983,0.00008387,-0.00011031,-0.00000377,-0.00002892,0.0000
 1532,-0.00001084,-0.00000614,0.00008762,-0.00002246,-0.00001361,-0.000
 00506,0.00000235,0.00000020,0.00003981,-0.00002114,-0.00001121,0.00005
 996,-0.00005274,-0.00003133,0.00009725,-0.00016364,-0.00012679,-0.0003
 9629,0.00033660,0.00012063,0.00095059,0.00028861,0.00007447,-0.0321680
 2,0.00130531,-0.00505283,0.00048535,-0.00035126,-0.00090540,0.00012646
 ,-0.00098151,-0.00078897,-0.10909124,0.01079575,0.00459867,-0.00207067
 ,0.01084503,0.00168533,0.00351251,-0.01890478,-0.00307748,-0.12030990,
 -0.02546405,-0.04807281,0.00525372,0.00417300,0.00150706,0.00021504,-0
 .00027126,-0.00029154,-0.00007898,-0.00023818,0.00029987,0.00003354,0.
 00023294,-0.00060936,-0.00947989,-0.00598905,-0.02130501,0.00025236,0.
 00113191,-0.00103196,-0.00076385,-0.00063000,0.00111643,0.00167357,-0.
 00087334,0.00135557,0.39105201,-0.00002365,-0.00000589,-0.00001755,0.0
 0034401,-0.00020905,0.00006593,0.00047706,0.00005088,0.00041863,-0.000
 49484,-0.00036350,-0.00025036,-0.00001528,-0.00000516,0.00001183,0.000
 03603,-0.00000781,-0.00000273,0.00004099,-0.00003022,-0.00002367,-0.00
 019806,0.00012095,0.00005800,0.00035421,-0.00013356,-0.00001719,0.0000
 8662,-0.00039409,-0.00086195,-0.00078661,0.00054899,-0.00060050,0.0004
 1244,-0.00028237,0.00020566,0.00100222,0.00004254,0.00037900,-0.000152
 22,-0.00001769,0.00007623,0.00001463,0.00004061,-0.00001375,0.00000160
 ,-0.00000165,0.00000064,-0.00000046,0.00000024,0.00000019,0.,0.,0.,0.0
 0000068,0.,0.00000211,-0.00024211,0.00016872,0.00003393,0.00000867,-0.
 00001220,0.00000906,0.00000092,0.,-0.00000208,0.,0.,0.,0.,0.,0.,0.,0.,
 0.,0.00000310,-0.00000106,-0.00000098,-0.00004288,0.00000163,0.0000189
 3,-0.00005263,0.00007611,-0.00008560,-0.00176456,0.00049075,-0.0016020
 0,0.00010073,0.00034744,-0.00017978,0.00086429,0.00029567,-0.00077803,
 -0.00828744,0.00410141,-0.00329552,-0.00026659,0.00031028,0.00280000,0
 .00047232,-0.00026922,-0.00052944,-0.00019990,-0.00003521,-0.00000226,
 -0.00000589,0.00008771,0.00010810,0.00029385,-0.00005808,-0.00023819,0
 .00016801,-0.00013531,0.00007273,0.00028104,0.00027225,0.00032006,0.00
 013022,0.00048853,0.00082563,-0.00211422,-0.00073626,0.00052553,0.0006
 9855,0.00028448,-0.00000211,0.00013275,-0.00001031,-0.00041199,-0.0002
 8246,-0.00019469,0.00039035,0.00000694,0.00000344,-0.00001480,-0.00001
 127,0.00003534,0.00002575,-0.00004253,0.00000113,-0.00000977,0.0000126
 7,-0.00000465,-0.00000179,0.00000761,-0.00000669,-0.00000493,0.0000002
 5,-0.00000011,-0.00000001,-0.00001555,0.00000192,0.00000527,-0.0000408
 8,0.00000349,0.00004227,0.00019891,-0.00009834,-0.00019011,0.00033664,
 -0.00013838,-0.00006502,0.00059200,0.00011542,0.00076516,-0.00918387,0
 .00722286,0.00481612,-0.00185611,-0.00117931,0.00147680,0.00067201,0.0
 0002961,-0.00084281,0.02235860,-0.08429694,-0.00310571,0.02792299,-0.0
 2096033,-0.00818044,-0.02451235,-0.02412475,-0.02610773,-0.03587714,-0
 .11150455,-0.03271202,0.00038011,-0.00110042,0.00116859,-0.00034828,-0
 .00145323,0.00006326,0.00031651,-0.00099608,-0.00010257,0.00009046,0.0
 0039383,-0.00024634,0.00562737,0.01255843,0.00781944,0.00200661,-0.002
 17860,0.00205294,-0.00021300,-0.00024431,0.00053489,0.00154840,0.00013
 049,0.00067766,0.04049810,0.62681693,-0.00001253,-0.00000375,-0.000004
 54,0.00014429,-0.00022482,0.00006944,-0.00052132,0.00040250,-0.0003268
 0,-0.00019591,0.00033642,-0.00004962,0.00028917,-0.00001612,0.00004168
 ,-0.00003347,0.00000070,-0.00000129,-0.00004026,0.00002467,0.00001657,
 -0.00004524,0.00004017,-0.00000866,-0.00006255,0.00006552,0.00006842,0
 .00029240,-0.00035834,0.00064659,-0.00060870,-0.00019621,0.00014682,0.
 00057313,0.00011099,-0.00016108,-0.00021970,-0.00039898,-0.00053956,0.
 00000007,-0.00002232,-0.00001988,-0.00003228,-0.00001549,0.00000933,0.
 00002235,-0.00000315,-0.00000864,0.00000687,-0.00000345,-0.00000279,0.
 ,0.,0.,0.00000264,-0.00000002,0.00000018,-0.00004183,0.00001620,-0.000
 05614,0.00002797,-0.00001808,0.00000166,-0.00000163,0.00000001,0.00000
 041,0.,0.,0.,0.,0.,0.,0.,0.,0.,-0.00000435,-0.00000066,0.00000329,-0.0
 0001838,0.00000387,0.00000092,-0.00004032,0.00002626,-0.00004461,0.001
 12021,0.00029949,-0.00104754,-0.00036041,-0.00084290,0.00059612,0.0018
 4427,-0.00082495,-0.00091338,0.02503162,-0.00700463,-0.00883205,0.0011
 2835,0.00093634,-0.00050678,0.00007686,-0.00012148,-0.00051819,0.00005
 363,0.00004768,0.00009767,0.00004173,-0.00011548,-0.00019772,-0.000285
 98,-0.00002093,0.00027817,-0.00025581,-0.00007612,0.00005665,0.0004953
 3,0.00025812,0.00046064,0.00135424,0.00016215,0.00060246,-0.00180770,-
 0.00042577,-0.00049189,-0.00003753,0.00004896,-0.00007715,0.00021315,-
 0.00044048,-0.00020557,0.00018756,-0.00024498,-0.00007354,-0.00019164,
 -0.00002088,0.00012543,0.00018108,-0.00000839,-0.00007760,0.00009239,-
 0.00000228,-0.00000656,-0.00000244,0.00000678,0.00000482,-0.00008988,0
 .00001750,0.00000958,0.00000599,-0.00000278,-0.00000024,-0.00005033,0.
 00002588,0.00001424,-0.00004798,0.00006197,0.00000945,-0.00013914,0.00
 031803,0.00013798,0.00030881,-0.00029898,0.00001463,0.00019708,0.00021
 059,0.00029407,-0.01823239,0.00673762,0.00437668,-0.00045073,0.0003378
 3,-0.00131486,-0.00012503,0.00060218,-0.00024588,0.02117732,-0.0064284
 7,-0.07123086,0.00332220,0.00069043,0.00110837,-0.00317954,-0.01314108
 ,-0.00203984,-0.06142367,-0.03290497,-0.13408709,-0.00107647,0.0033952
 0,0.00476244,0.00032035,-0.00003405,0.00001152,-0.00010623,-0.00004437
 ,0.00024972,-0.00031763,0.00006586,0.00000874,-0.01694104,-0.00706997,
 -0.01141166,-0.00148001,0.00146477,-0.00073420,0.00005483,-0.00063538,
 0.00234999,0.00146082,-0.00008109,-0.00014587,-0.01043684,-0.03320415,
 0.56733078,0.00004108,-0.00005850,-0.00002046,-0.00008535,0.00017680,0
 .00003987,0.00008144,-0.00034480,0.00003561,0.00023888,0.00005995,0.00
 013111,0.00004718,-0.00006167,0.00001365,0.00003479,0.00001449,0.00000
 348,-0.00003564,0.00001256,0.00000675,0.00010790,-0.00008180,-0.000046
 07,-0.00006584,-0.00003328,0.00001969,-0.00057070,0.00070528,-0.000008
 05,0.00016561,-0.00036032,0.00005105,0.00055249,0.00020976,-0.00020976
 ,0.00007123,0.00011824,-0.00028081,0.00002229,-0.00000660,0.00005697,-
 0.00018818,0.00004612,-0.00000895,0.00006959,-0.00001953,-0.00001828,0
 .00001582,-0.00000793,-0.00000643,0.,0.,0.,-0.00000334,0.00000002,0.00
 000072,0.00001315,-0.00002283,0.00003659,0.00001009,-0.00000020,-0.000
 01538,-0.00000718,0.00000005,0.00000410,0.,0.,0.,0.,0.,0.,0.,0.,0.,0.0
 0001242,-0.00001015,0.00000118,-0.00009151,0.00000920,0.00003845,-0.00
 002633,0.00002114,-0.00005792,-0.00031597,0.00066210,-0.00117278,-0.00
 005130,-0.00003215,-0.00009386,-0.00061893,-0.00115894,0.00022706,-0.0
 0414901,0.00276548,-0.00006866,0.00020365,-0.00010040,0.00080881,-0.00
 012025,-0.00004167,0.00016787,0.00000919,0.00000061,-0.00002152,0.0000
 0231,0.00000135,0.00002359,-0.00000050,0.00003548,-0.00024334,0.000112
 96,0.00004916,0.00028154,-0.00018194,0.00004238,0.00011282,0.00083755,
 -0.00061182,0.00045283,0.00027337,-0.00008747,-0.00001561,0.00049560,-
 0.00018955,-0.00120609,-0.00011339,-0.00002481,-0.00003284,-0.00001810
 ,0.00003980,-0.00005122,0.00000306,-0.00001208,0.00000045,0.00001891,0
 .00001143,-0.00000277,0.00002385,-0.00000695,-0.00004105,-0.00000013,0
 .00000006,0.00000013,0.,0.,0.,0.,0.,0.,0.00001254,0.00000083,-0.000005
 46,-0.00000349,0.00000737,-0.00000501,-0.00006324,-0.00000204,0.000090
 32,0.00003404,-0.00009236,-0.00002652,-0.00016573,0.00000489,0.0001516
 4,0.00117195,-0.00052649,0.00101431,0.00027014,0.00032264,-0.00022238,
 0.00012447,0.00004684,-0.00013973,-0.01346427,-0.00602988,0.02955574,0
 .00106854,-0.00043047,0.00073207,-0.00208279,0.00280485,-0.00119855,0.
 00358620,0.00074403,-0.02537892,-0.00061029,-0.00043455,-0.00095780,0.
 00035003,0.00010045,0.00013121,-0.00012660,-0.00032412,-0.00002119,-0.
 00001416,-0.00015061,-0.00011991,-0.00067702,-0.00044138,0.00073809,0.
 00019102,0.00019479,0.00030129,-0.00017758,0.00002435,-0.00000166,-0.0
 0089048,0.00010752,-0.00014618,-0.05704783,-0.01537504,0.06159795,0.06
 835350,-0.00000002,0.00000952,0.00000867,0.00009148,-0.00011319,0.0000
 0315,0.00014491,-0.00002887,0.00013266,-0.00001936,0.00002001,-0.00003
 487,-0.00000380,-0.00002163,0.00001269,-0.00003427,0.00000424,0.000000
 93,0.00003158,-0.00000922,-0.00000430,-0.00009688,0.00006649,0.0000324
 8,0.00008133,-0.00002502,0.00000149,0.00032269,-0.00038162,-0.00028381
 ,-0.00036999,0.00045673,-0.00008152,-0.00007256,-0.00019733,-0.0000087
 3,0.00004904,-0.00001633,-0.00010510,-0.00001159,-0.00001633,0.0000323
 8,-0.00004285,0.00002375,-0.00001305,0.00001061,-0.00000598,-0.0000001
 3,0.00000024,-0.00000012,-0.00000010,0.,0.,0.,0.00000367,-0.00000002,-
 0.00000079,-0.00000787,0.00002099,-0.00003619,-0.00000832,-0.00000128,
 0.00001672,0.00000788,-0.00000005,-0.00000450,0.,0.,0.,0.,0.,0.,0.,0.,
 0.,0.00000981,-0.00000396,-0.00000267,-0.00003765,0.00000427,0.0000152
 4,0.00003466,0.00002996,-0.00003777,-0.00035730,-0.00036730,0.00007167
 ,-0.00003137,-0.00007463,0.00000262,-0.00022301,-0.00045336,0.00033387
 ,0.00153591,0.00024734,0.00129134,-0.00020938,-0.00006118,0.00029634,-
 0.00000916,0.00003119,0.00003364,-0.00000281,-0.00000756,-0.00001007,0
 .00000599,0.00000280,0.00000887,0.00001917,0.00003278,-0.00012761,0.00
 003413,0.00000866,0.00015022,-0.00043212,-0.00032060,-0.00018968,-0.00
 023504,0.00005709,0.00014977,-0.00019298,0.00015429,-0.00012720,-0.000
 21571,-0.00026415,0.00034028,0.00010096,-0.00000183,0.00001258,0.00000
 745,-0.00001326,0.00001497,0.00001542,0.00000771,-0.00001264,-0.000012
 41,0.00000160,0.00000941,0.00000846,-0.00000292,-0.00001688,-0.0000000
 5,0.00000002,0.00000005,0.,0.,0.,0.,0.,0.,-0.00001330,0.00000103,0.000
 00582,-0.00000463,-0.00000199,0.00000828,0.00009039,-0.00004514,-0.000
 10612,-0.00000996,0.00001619,0.00000210,-0.00031918,0.00025740,0.00028
 638,-0.00074344,0.00027875,-0.00047885,-0.00037951,0.00025712,-0.00016
 446,0.00003254,0.00006165,-0.00001934,0.00561895,0.00151925,-0.0115988
 5,0.00071660,0.00158541,-0.00064260,0.00001375,-0.00033689,0.00233629,
 0.00276872,0.00401197,-0.01387187,0.00017155,0.00007199,-0.00031104,0.
 00031288,0.00024337,0.00020717,-0.00033374,-0.00016240,0.00012707,-0.0
 0033992,-0.00025908,-0.00043381,0.00013879,-0.00089791,0.00005755,-0.0
 0006952,0.00039633,-0.00005753,0.00001596,-0.00023083,0.00074182,0.000
 61487,-0.00031061,0.00001114,-0.01800113,-0.05923985,0.05447683,0.0176
 5691,0.06547790,0.00001747,-0.00001310,-0.00000176,0.00009749,-0.00002
 335,0.00007440,-0.00021717,0.00020899,-0.00018472,-0.00009695,0.000046
 45,-0.00006565,0.00002075,-0.00000371,0.00000376,0.00000541,0.00000390
 ,0.00000098,0.00000314,0.00000054,0.00000085,-0.00004151,0.00002095,0.
 00000272,-0.00001460,0.00000448,0.00001287,-0.00008259,-0.00024268,0.0
 0021020,0.00030410,-0.00044162,0.00046263,-0.00009265,-0.00019299,0.00
 012730,0.00015698,-0.00002221,-0.00011973,0.00007529,0.00002396,0.0000
 0517,-0.00002576,-0.00000550,0.00000674,0.00000873,0.00000011,-0.00000
 456,0.00000384,-0.00000192,-0.00000156,0.,0.,0.,0.00000091,0.,-0.00000
 020,-0.00005263,0.00004740,-0.00000093,0.00000451,-0.00000122,-0.00000
 025,0.00000196,-0.00000001,-0.00000112,0.,0.,0.,0.,0.,0.,0.,0.,0.,-0.0
 0000520,0.00000079,0.00000259,0.00001093,-0.00000128,-0.00000343,0.000
 02747,0.00000764,0.00000226,-0.00090163,0.00020515,-0.00005994,0.00022
 287,0.00008070,0.00000189,0.00014200,0.00040849,0.00011314,0.00090081,
 -0.00117929,0.00069538,-0.00052224,0.00052961,0.00013740,0.00004668,0.
 00002496,-0.00002100,-0.00001072,-0.00001079,-0.00000076,-0.00000190,0
 .00000384,0.00000447,0.00005735,0.00001523,0.00005086,0.00006056,0.000
 03506,-0.00003541,0.00050192,0.00014995,-0.00015397,0.00031667,0.00064
 186,-0.00047936,-0.00016665,0.00058374,0.00042188,-0.00066354,-0.00054
 207,-0.00001012,0.00012708,0.00010932,0.00016554,0.00006870,-0.0000694
 7,0.00000694,-0.00000739,0.00001786,0.00000228,-0.00003768,-0.00001170
 ,0.00001399,0.00001404,0.00000083,0.00000076,0.00000001,0.,-0.00000001
 ,0.,0.,0.,0.,0.,0.,-0.00001949,-0.00000130,0.00000840,0.00001221,-0.00
 001250,0.00000097,0.00005921,0.00000071,-0.00009102,0.00002846,-0.0000
 0993,-0.00001078,-0.00042650,0.00025318,-0.00018745,0.00058498,-0.0005
 0099,0.00203681,-0.00061979,0.00040991,-0.00040558,-0.00020641,-0.0000
 5638,0.00022008,-0.00064954,0.00144089,-0.00595662,-0.00074563,0.00005
 623,0.00077620,-0.00045990,0.00440467,0.00235563,0.00267857,0.00056099
 ,-0.01945789,-0.00016353,-0.00046134,-0.00046599,0.00010180,-0.0001231
 2,-0.00000487,-0.00012434,-0.00010903,0.00007388,-0.00075478,-0.000439
 44,-0.00062246,-0.00018675,-0.00214660,-0.00020301,-0.00006322,0.00031
 765,0.00026677,-0.00018519,-0.00005804,0.00021266,0.00063095,-0.000410
 93,0.00041310,0.06157694,0.05348825,-0.29444125,-0.06589571,-0.0612943
 8,0.31506863,-0.00000161,-0.00000447,-0.00000169,0.00002875,0.00008496
 ,0.00004201,-0.00009395,0.00001115,-0.00001756,0.00020352,-0.00042071,
 0.00036717,-0.00006435,0.00006877,-0.00006707,-0.00000081,0.00001656,0
 .00000230,0.00000202,-0.00000229,-0.00000210,0.00001576,-0.00001923,-0
 .00001681,-0.00003691,-0.00004287,-0.00003857,-0.00002788,-0.00020967,
 -0.00027946,0.00095010,-0.00075658,0.00062585,0.00063517,0.00078578,0.
 00006433,-0.00043557,-0.00057581,0.00017168,0.00031884,0.00020263,-0.0
 0021435,0.00004166,-0.00007946,0.00002875,-0.00005220,0.00003961,-0.00
 000837,0.00000626,-0.00000314,-0.00000255,0.,0.,0.,0.,0.,0.,-0.0000063
 9,0.00000564,0.00001245,-0.00000500,0.00000215,0.00000119,0.,0.,0.,0.,
 0.,0.,0.,0.,0.,-0.00000002,0.,0.,-0.00007801,0.00002810,0.00002452,0.0
 0005710,-0.00002671,-0.00007427,0.00042161,-0.00008494,0.00045753,-0.0
 0117740,0.00159004,-0.00166358,-0.00060715,-0.00123608,0.00068340,0.00
 033303,-0.00054131,0.00136934,-0.00035617,0.00095135,-0.00010629,-0.00
 038800,0.00121370,0.00161400,0.00052742,0.00050443,-0.00101815,0.00010
 860,0.00019296,0.00024166,0.00021754,-0.00004108,-0.00062143,-0.000342
 37,-0.00025174,0.00152216,-0.00061253,-0.00009438,-0.00104689,-0.00092
 537,-0.00131351,-0.00068268,0.00084948,0.00047727,-0.00012589,-0.00019
 926,-0.00016687,0.00009755,0.00063527,-0.00066724,-0.00130177,-0.00000
 225,0.00000592,0.00001363,-0.00008349,-0.00023865,-0.00018534,0.000066
 17,0.00003146,0.00001969,-0.00007425,-0.00010334,-0.00003023,0.0000444
 9,-0.00002269,0.00006349,-0.00007987,0.00002368,0.00000838,-0.00001063
 ,0.00003665,0.00002682,0.00001926,-0.00001009,-0.00000098,-0.00002056,
 0.00002080,0.00000170,0.00004760,-0.00005268,-0.00000854,0.00001989,0.
 00008727,-0.00007183,0.00001354,-0.00005967,0.00000404,0.00003671,-0.0
 0011986,0.00034738,0.00163332,0.00127336,0.00079106,-0.00025304,-0.000
 71310,0.00026932,-0.00049984,-0.00063383,-0.00011531,-0.00436084,0.032
 24619,-0.00193001,-0.00316377,0.00242996,0.00113974,-0.00194525,-0.000
 42841,-0.00381292,-0.00020549,-0.02166984,0.00157819,0.00045308,0.0000
 2319,0.00017997,-0.00004338,-0.00010700,-0.00007593,-0.00011266,0.0000
 1284,-0.00003697,0.00002664,-0.00005193,-0.00011323,0.00019701,-0.0002
 7465,0.00096432,0.00022771,0.00038610,0.00036933,-0.00074113,-0.000028
 42,-0.00058125,-0.00096792,-0.00032953,-0.00104949,-0.04860511,-0.0060
 8568,-0.00114428,0.00127686,-0.00808628,0.00201524,0.05646691,0.000000
 40,-0.00000142,-0.00000083,-0.00003285,-0.00004885,-0.00003751,-0.0000
 5429,0.00016041,-0.00014472,-0.00001450,0.00008556,-0.00004463,-0.0000
 2629,0.00001539,-0.00000248,-0.00001628,-0.00000390,0.00000081,0.,0.00
 000156,0.00000183,-0.00001390,0.00001733,0.00001600,0.00012193,0.00000
 375,0.00009436,0.00022497,-0.00023835,0.00046027,-0.00020710,-0.000521
 10,0.00021653,-0.00000060,-0.00024218,-0.00009825,0.00026448,0.0001962
 3,-0.00001363,0.00007903,0.00001617,-0.00000028,0.00000957,-0.00002329
 ,0.00000963,-0.00001491,0.00000647,0.00000189,-0.00000177,0.00000089,0
 .00000072,0.,0.,0.,0.,0.,0.,0.00001480,-0.00001057,-0.00001627,0.00000
 943,-0.00000394,-0.00000235,0.,0.,0.,0.,0.,0.,0.,0.,0.,0.,0.,0.,-0.000
 00841,0.00000412,0.00000169,0.00003868,-0.00000354,-0.00001418,0.00001
 185,-0.00000362,0.00001220,0.00027900,0.00031394,0.00049608,-0.0000945
 2,0.00063146,0.00006095,-0.00081866,0.00011702,0.00017595,-0.00118575,
 -0.00041645,0.00247299,-0.00032557,0.00018568,-0.00079466,-0.00003470,
 -0.00015375,0.00034267,0.00005285,0.00001546,-0.00004077,-0.00000930,-
 0.00000159,-0.00000428,0.00016360,0.00003076,-0.00002603,0.00018325,0.
 00003159,-0.00000709,-0.00002538,0.00041889,-0.00013050,-0.00005285,0.
 00009769,-0.00030330,0.00006412,0.00010050,0.00032314,-0.00023110,-0.0
 0034168,0.00009541,-0.00008516,0.00021597,0.00025443,0.00004770,0.0000
 7063,0.00001145,-0.00007750,0.00001724,0.00003771,0.00008839,-0.000018
 08,-0.00004649,0.00004015,-0.00000284,0.00000128,-0.00000383,0.0000048
 3,0.00000307,-0.00003197,0.00000874,0.00000544,-0.00000672,0.00000316,
 0.00000027,-0.00000115,-0.00000955,0.00000234,-0.00004182,0.00003072,0
 .00001423,-0.00003200,-0.00005660,0.00008815,0.00003800,0.00001868,-0.
 00006822,0.00010392,-0.00022682,-0.00062363,0.00156447,0.00004998,-0.0
 0071684,-0.00011478,0.00054491,-0.00063081,0.00024544,0.00020927,-0.00
 015781,-0.00265833,-0.00884065,0.00051550,0.00087112,-0.00257127,0.000
 10749,-0.00234316,0.00055541,-0.00157482,0.00260534,-0.01585705,-0.001
 29463,0.00062180,-0.00048719,0.00101274,0.00001077,-0.00005812,-0.0000
 4736,-0.00003918,-0.00006581,0.00012006,-0.00041370,0.00019583,-0.0004
 7315,0.00334156,0.00027755,0.00359426,0.00029493,0.00007802,0.00039485
 ,-0.00026663,0.00143909,-0.00109807,-0.00240242,0.00080585,-0.00189040
 ,-0.00403071,-0.33484840,0.02979022,0.00108209,-0.00943158,0.00307181,
 0.00342029,0.36919171,-0.00000256,-0.00000127,-0.00000085,0.00002219,0
 .00003176,0.00002417,-0.00003051,-0.00006514,0.00002258,-0.00001145,0.
 00000217,0.00002711,0.00004078,-0.00000850,0.00000079,0.00000133,0.000
 00905,0.00000122,0.00000213,-0.00000171,-0.00000138,0.00001033,-0.0000
 1383,-0.00000868,-0.00002337,-0.00000343,-0.00000061,-0.00007370,0.000
 13386,-0.00005709,0.00030343,0.00021529,-0.00026070,-0.00017072,-0.000
 08398,-0.00011590,0.00006281,-0.00019980,0.00004279,0.00002331,0.00001
 872,-0.00001912,0.00004141,-0.00001878,0.00001614,-0.00000177,0.000005
 47,-0.00000394,0.00000325,-0.00000163,-0.00000132,0.,0.,0.,0.,0.,0.,-0
 .00000741,0.00001004,-0.00000010,0.00000407,-0.00000182,-0.00000088,0.
 ,0.,0.,0.,0.,0.,0.,0.,0.,0.00000001,0.,0.,-0.00001472,0.00000437,0.000
 00528,0.00004951,-0.00000489,-0.00001621,-0.00007737,-0.00002120,-0.00
 002171,-0.00037212,0.00014519,0.00021045,0.00021653,0.00017663,-0.0003
 4608,-0.00094156,0.00009232,0.00005211,0.00224944,-0.00096858,0.000691
 48,-0.00050514,-0.00037096,0.00003362,-0.00034655,0.00003224,0.0002571
 8,-0.00005241,-0.00010190,-0.00012633,0.00010407,0.00005639,0.00008592
 ,0.00002313,0.00005335,-0.00010555,0.00015482,0.00008553,0.00021720,-0
 .00005788,0.00006437,-0.00006203,-0.00038879,0.00004764,0.00048975,0.0
 0017322,-0.00034780,0.00018008,-0.00040055,-0.00039919,-0.00023546,0.0
 0000474,0.00004916,0.00000494,0.00016315,-0.00002963,-0.00006637,-0.00
 014801,0.00001730,0.00005842,0.00008793,0.00007618,0.00002535,-0.00010
 684,0.00001593,0.00001055,0.00005417,-0.00001230,-0.00000328,-0.000024
 78,-0.00001822,-0.00001415,-0.00002141,0.00001092,0.00000103,0.0000232
 0,-0.00002638,-0.00000168,-0.00005324,0.00006130,0.00000839,-0.0000263
 8,-0.00008791,0.00008128,0.00003157,-0.00000498,-0.00002737,-0.0000084
 5,0.00014409,-0.00011450,-0.00050307,0.00041495,-0.00101828,-0.0001504
 8,0.00000035,0.00018614,-0.00002621,0.00032954,0.00021765,0.00158754,-
 0.00673394,-0.00148904,0.00126517,-0.00013761,0.00072669,-0.00353071,-
 0.00064882,-0.00205019,-0.00027853,-0.02217040,-0.00070330,-0.00017774
 ,-0.00040979,0.00035447,-0.00015245,-0.00014807,-0.00014902,-0.0001472
 2,-0.00031631,-0.00017142,-0.00025858,-0.00024342,-0.00023395,0.000265
 44,-0.00026702,0.00082045,0.00048535,0.00048835,0.00025722,-0.00027490
 ,-0.00045585,-0.00047966,0.00025104,-0.00046966,0.00001665,0.00092819,
 0.03560938,-0.05260582,-0.00071382,0.03139126,-0.00152724,0.00134586,-
 0.03336267,0.05625216,-0.00024749,0.00010825,0.00013566,-0.00003702,0.
 00151027,0.00048362,-0.00034374,-0.00010984,-0.00076239,0.00027281,-0.
 00026652,0.00035221,0.00040292,-0.00000534,0.00002964,-0.00009841,-0.0
 0000408,0.00000233,-0.00025850,-0.00013205,-0.00017805,0.00083742,-0.0
 0001425,0.00005508,-0.00161841,-0.00077958,-0.00057172,0.00215866,-0.0
 0488283,-0.00226191,0.00190367,0.00654935,0.00552351,-0.00015395,0.000
 03358,0.00001298,0.00018990,0.00024948,0.00014172,0.00001205,0.0000114
 2,0.00000747,-0.00005453,-0.00000097,-0.00000124,0.00001390,0.00000699
 ,-0.00000565,0.00005091,0.00000975,-0.00001739,-0.00000357,0.00000340,
 0.00000536,-0.00011961,-0.00000442,0.00004852,0.00087890,-0.00001736,-
 0.00046088,-0.00008714,-0.00015555,0.00023206,-0.00011031,0.00000378,-
 0.00002894,0.00001532,0.00001084,-0.00000614,0.,0.,0.,0.,0.,0.,0.,0.,0
 .,0.00000003,0.,-0.00000162,-0.00006465,-0.00004445,0.00003313,-0.0000
 8360,-0.00307827,-0.00042970,-0.00039628,-0.00033666,0.00012055,0.0009
 5049,-0.00028864,0.00007446,0.00015735,0.00035986,-0.00105429,-0.00005
 912,-0.00303912,0.00165631,-0.00014855,0.00000894,-0.00009582,0.000059
 97,0.00005277,-0.00003132,-0.00001314,-0.00001296,-0.00000686,0.000096
 18,0.00007257,-0.00000787,0.00003025,0.00000185,-0.00003202,-0.0004609
 6,-0.00025951,0.00001121,0.00049579,-0.00087625,0.00010832,-0.01751517
 ,0.00164785,0.01938461,-0.00156285,0.00474154,-0.00578269,0.00012885,-
 0.00031340,0.00092290,0.00005477,-0.00001740,-0.00027410,0.00009078,-0
 .00004445,-0.00003731,0.00003978,0.00002115,-0.00001119,-0.00000107,0.
 ,0.00000172,0.,0.,0.,-0.00000507,-0.00000236,0.00000020,0.00008765,0.0
 0002247,-0.00001361,-0.00016805,-0.00002985,0.00008387,-0.00029175,0.0
 0009278,-0.00007319,0.00012668,0.00098168,-0.00078887,-0.00026288,-0.0
 0088296,0.00055488,0.00314669,-0.00530146,0.00130975,0.00048547,0.0003
 5199,-0.00090548,-0.03216761,-0.00130277,-0.00505543,0.00009725,0.0001
 6356,-0.00012680,-0.00207149,-0.01084505,0.00168443,-0.10911593,-0.010
 80972,0.00459939,-0.12030198,0.02546757,-0.04805261,0.00350599,0.01890
 002,-0.00307829,-0.00948440,0.00599481,-0.02131227,0.00167736,0.000870
 49,0.00135202,-0.00076208,0.00063571,0.00112503,0.00025138,-0.00113440
 ,-0.00102238,0.00525013,-0.00417803,0.00150740,0.00003229,-0.00022644,
 -0.00061181,-0.00007776,0.00024021,0.00029830,0.00021690,0.00027469,-0
 .00029116,-0.01150049,-0.00248240,-0.00317858,0.00048315,0.00087020,0.
 00246212,0.00002795,0.00007527,0.00020268,0.39109141,0.00015218,-0.000
 01767,-0.00007623,-0.00100219,0.00004244,-0.00037891,-0.00041273,-0.00
 028234,-0.00020575,0.00049486,-0.00036347,0.00025031,0.00001523,-0.000
 00516,-0.00001184,-0.00001462,0.00004060,0.00001376,0.00005260,0.00007
 610,0.00008561,-0.00016794,-0.00013532,-0.00007274,-0.00028153,0.00027
 242,-0.00032008,-0.00013262,0.00048704,-0.00082555,0.00176600,0.000491
 07,0.00160323,-0.00047697,0.00005104,-0.00041857,-0.00034400,-0.000209
 05,-0.00006596,0.00002365,-0.00000590,0.00001755,-0.00003603,-0.000007
 81,0.00000272,0.00000046,0.00000024,-0.00000019,-0.00000160,-0.0000016
 5,-0.00000064,-0.00000310,-0.00000106,0.00000098,0.00004289,0.00000164
 ,-0.00001892,-0.00029374,-0.00005814,0.00023815,0.00000589,0.00008771,
 -0.00010805,0.00004251,0.00000113,0.00000977,-0.00001267,-0.00000465,0
 .00000179,0.,0.,0.,0.,0.,0.,0.,0.,0.,-0.00000068,0.,-0.00000211,-0.000
 04097,-0.00003022,0.00002366,0.00078684,0.00054938,0.00060068,-0.00033
 673,-0.00013846,0.00006499,-0.00059170,0.00011568,-0.00076530,0.002114
 21,-0.00073665,-0.00052567,-0.00069893,0.00028475,0.00000222,-0.000132
 70,-0.00001037,0.00041200,0.00004089,0.00000351,-0.00004227,-0.0000086
 6,-0.00001219,-0.00000907,0.00024208,0.00016871,-0.00003389,0.00019807
 ,0.00012097,-0.00005799,-0.00035425,-0.00013357,0.00001718,-0.00008649
 ,-0.00039429,0.00086181,0.00828170,0.00409734,0.00329545,0.00026610,0.
 00031017,-0.00279883,-0.00047262,-0.00026942,0.00052978,0.00028245,-0.
 00019462,-0.00039038,-0.00000694,0.00000343,0.00001480,0.00001551,0.00
 000192,-0.00000525,-0.00000093,0.,0.00000208,0.,0.,0.,-0.00000025,-0.0
 0000011,0.00000001,-0.00000760,-0.00000669,0.00000493,0.00001126,0.000
 03534,-0.00002574,0.00019989,-0.00003519,0.00000223,-0.00067198,0.0000
 2953,0.00084287,-0.00009996,0.00034739,0.00017918,-0.00086671,0.000293
 47,0.00077866,0.00185645,-0.00117888,-0.00147698,0.00919013,0.00722489
 ,-0.00481425,-0.00019886,-0.00009836,0.00019002,-0.02792613,-0.0209670
 4,0.00817711,-0.02239464,-0.08432081,0.00311065,0.03589315,-0.11152331
 ,0.03272053,0.02450813,-0.02412979,0.02610736,-0.00561482,0.01255102,-
 0.00781796,-0.00156220,0.00012863,-0.00068155,0.00021098,-0.00024621,-
 0.00054447,-0.00200419,-0.00218123,-0.00204645,-0.00037639,-0.00110166
 ,-0.00117259,-0.00009039,0.00039290,0.00024630,-0.00031791,-0.00099308
 ,0.00010382,0.00034767,-0.00145548,-0.00006189,0.00248250,-0.00762834,
 0.00067040,-0.00128909,-0.00145697,0.00138505,-0.00118556,-0.00068203,
 -0.00089452,-0.04045824,0.62678581,0.00000010,0.00002232,-0.00001989,-
 0.00021983,0.00039909,-0.00053957,0.00057291,-0.00011098,-0.00016126,-
 0.00019585,-0.00033648,-0.00004964,0.00028917,0.00001611,0.00004168,-0
 .00003227,0.00001550,0.00000933,-0.00004030,-0.00002624,-0.00004460,-0
 .00025586,0.00007608,0.00005666,0.00049529,-0.00025810,0.00046053,0.00
 135292,-0.00016246,0.00060227,0.00112015,-0.00029912,-0.00104736,-0.00
 052139,-0.00040243,-0.00032694,0.00014422,0.00022477,0.00006946,-0.000
 01252,0.00000375,-0.00000454,-0.00003348,-0.00000071,-0.00000129,0.000
 00687,0.00000345,-0.00000279,0.00002235,0.00000315,-0.00000864,-0.0000
 0435,0.00000066,0.00000330,-0.00001837,-0.00000387,0.00000091,-0.00028
 599,0.00002085,0.00027823,0.00004170,0.00011554,-0.00019772,0.00009241
 ,0.00000228,-0.00000655,-0.00000244,-0.00000678,0.00000482,0.,0.,0.,0.
 ,0.,0.,0.,0.,0.,0.00000264,0.00000002,0.00000018,-0.00004027,-0.000024
 67,0.00001657,-0.00060840,0.00019652,0.00014703,0.00030873,0.00029897,
 0.00001470,0.00019703,-0.00021057,0.00029379,-0.00180779,0.00042527,-0
 .00049129,-0.00003733,-0.00004926,-0.00007739,0.00021293,0.00044043,-0
 .00020531,-0.00004799,-0.00006200,0.00000943,0.00002795,0.00001807,0.0
 0000166,-0.00004175,-0.00001613,-0.00005614,-0.00004520,-0.00004015,-0
 .00000867,-0.00006261,-0.00006557,0.00006841,0.00029247,0.00035805,0.0
 0064687,0.02503296,0.00700610,-0.00883034,0.00112779,-0.00093646,-0.00
 050607,0.00007690,0.00012182,-0.00051796,0.00018752,0.00024480,-0.0000
 7353,-0.00019153,0.00002089,0.00012538,-0.00005029,-0.00002589,0.00001
 421,-0.00000163,-0.00000001,0.00000042,0.,0.,0.,0.00000600,0.00000279,
 -0.00000024,-0.00008992,-0.00001751,0.00000958,0.00018111,0.00000842,-
 0.00007762,0.00005375,-0.00004774,0.00009764,-0.00012519,-0.00060222,-
 0.00024580,-0.00036029,0.00084294,0.00059613,0.00184432,0.00082417,-0.
 00091263,-0.00045057,-0.00033797,-0.00131494,-0.01823216,-0.00673674,0
 .00437491,-0.00013916,-0.00031794,0.00013799,0.00331720,-0.00069706,0.
 00110788,0.02117995,0.00642681,-0.07123096,-0.06140170,0.03290364,-0.1
 3405508,-0.00317487,0.01312314,-0.00203441,-0.01693377,0.00705852,-0.0
 1141010,0.00145329,0.00008119,-0.00015642,0.00005353,0.00064814,0.0023
 4998,-0.00148197,-0.00146282,-0.00072448,-0.00108118,-0.00340277,0.004
 76027,-0.00031977,-0.00005856,0.00000609,-0.00010335,0.00004573,0.0002
 4761,0.00032106,0.00003532,0.00001289,-0.00317752,-0.00067208,-0.00320
 577,0.00126381,-0.00317584,0.00188704,0.00035019,-0.00043031,-0.000158
 01,-0.01048122,0.03321493,0.56733227,0.00031885,-0.00020259,-0.0002143
 9,-0.00043562,0.00057578,0.00017180,0.00063510,-0.00078576,0.00006415,
 0.00020359,0.00042067,0.00036725,-0.00006441,-0.00006877,-0.00006708,0
 .00004171,0.00007945,0.00002876,0.00042166,0.00008486,0.00045754,-0.00
 061257,0.00009448,-0.00104701,-0.00092485,0.00131336,-0.00068211,0.000
 84902,-0.00047726,-0.00012560,-0.00117638,-0.00158914,-0.00166338,-0.0
 0009400,-0.00001120,-0.00001756,0.00002876,-0.00008490,0.00004198,-0.0
 0000162,0.00000445,-0.00000168,-0.00000078,-0.00001655,0.00000230,0.00
 000626,0.00000314,-0.00000254,-0.00005222,-0.00003961,-0.00000836,-0.0
 0007799,-0.00002811,0.00002451,0.00005709,0.00002672,-0.00007426,-0.00
 034240,0.00025147,0.00152221,0.00021756,0.00004120,-0.00062146,0.00004
 449,0.00002267,0.00006350,-0.00007988,-0.00002368,0.00000838,-0.000000
 02,0.,0.,0.,0.,0.,0.,0.,0.,0.,0.,0.,0.00000202,0.00000229,-0.00000210,
 0.00094996,0.00075642,0.00062588,0.00001352,0.00005965,0.00000406,0.00
 003674,0.00011988,0.00034746,-0.00019944,0.00016636,0.00009784,0.00063
 521,0.00066749,-0.00130158,-0.00000228,-0.00000595,0.00001373,0.000047
 63,0.00005270,-0.00000854,-0.00000500,-0.00000215,0.00000118,-0.000006
 39,-0.00000564,0.00001245,0.00001577,0.00001925,-0.00001681,-0.0000369
 1,0.00004286,-0.00003855,-0.00002786,0.00020974,-0.00027944,-0.0003545
 9,-0.00095135,-0.00010829,-0.00038849,-0.00121411,0.00161409,0.0005274
 5,-0.00050444,-0.00101837,-0.00008350,0.00023865,-0.00018522,0.0000662
 2,-0.00003147,0.00001967,-0.00002057,-0.00002080,0.00000169,0.,0.,0.,0
 .,0.,0.,0.00001926,0.00001009,-0.00000098,-0.00001063,-0.00003666,0.00
 002681,-0.00007430,0.00010335,-0.00003018,0.00010869,-0.00019301,0.000
 24160,-0.00049989,0.00063389,-0.00011516,-0.00060611,0.00123553,0.0006
 8297,0.00033341,0.00054034,0.00136870,-0.00025325,0.00071291,0.0002693
 8,0.00163388,-0.00127402,0.00079158,0.00001988,-0.00008729,-0.00007184
 ,-0.00316469,-0.00243145,0.00113968,-0.00436610,-0.03225562,-0.0019330
 5,-0.00020104,0.02165795,0.00158926,-0.00194568,0.00042444,-0.00381378
 ,0.00019179,0.00027456,0.00096067,-0.00098025,0.00032830,-0.00105204,-
 0.00073545,0.00002796,-0.00057654,0.00023198,-0.00038722,0.00037397,0.
 00045250,-0.00002619,0.00017913,0.00002568,0.00005593,-0.00011441,-0.0
 0011274,-0.00001155,-0.00003678,-0.00004297,0.00010724,-0.00007563,0.0
 0002812,0.00118521,0.00035042,0.00058201,-0.00073017,-0.00042184,0.000
 08920,0.00016030,0.00005171,-0.04861185,0.00608311,-0.00113715,0.05647
 698,-0.00007905,0.00001618,0.00000030,-0.00026439,0.00019613,0.0000136
 6,0.00000048,-0.00024219,0.00009812,0.00001448,0.00008554,0.00004461,0
 .00002627,0.00001540,0.00000248,-0.00000955,-0.00002329,-0.00000963,-0
 .00001185,-0.00000363,-0.00001222,-0.00018319,0.00003159,0.00000710,0.
 00002479,0.00041897,0.00013050,0.00005028,0.00009413,0.00030218,-0.000
 27500,0.00031635,-0.00049378,0.00005425,0.00016034,0.00014475,0.000032
 86,-0.00004881,0.00003748,-0.00000041,-0.00000143,0.00000083,0.0000162
 9,-0.00000390,-0.00000082,0.00000177,0.00000089,-0.00000072,0.00001491
 ,0.00000647,-0.00000189,0.00000841,0.00000412,-0.00000169,-0.00003868,
 -0.00000354,0.00001418,-0.00016362,0.00003081,0.00002598,0.00000924,-0
 .00000158,0.00000429,-0.00004012,-0.00000284,-0.00000129,0.00000382,0.
 00000483,-0.00000307,0.,0.,0.,0.,0.,0.,0.,0.,0.,0.,0.,0.,0.,0.00000157
 ,-0.00000183,0.00020674,-0.00052135,-0.00021676,-0.00003800,0.00001865
 ,0.00006824,-0.00010399,-0.00022685,0.00062371,-0.00006492,0.00009900,
 -0.00032239,0.00023060,-0.00034230,-0.00009530,0.00008512,0.00021601,-
 0.00025429,0.00004186,0.00003075,-0.00001424,-0.00000943,-0.00000394,0
 .00000235,-0.00001480,-0.00001057,0.00001627,0.00001391,0.00001734,-0.
 00001599,-0.00012195,0.00000375,-0.00009436,-0.00022505,-0.00023822,-0
 .00046036,0.00118820,-0.00041910,-0.00247724,0.00032497,0.00018551,0.0
 0079473,0.00003433,-0.00015384,-0.00034234,-0.00004775,0.00007057,-0.0
 0001134,0.00007755,0.00001725,-0.00003773,0.00000115,-0.00000955,-0.00
 000234,0.,0.,0.,0.,0.,0.,0.00000673,0.00000316,-0.00000027,0.00003197,
 0.00000873,-0.00000544,-0.00008843,-0.00001807,0.00004650,-0.00005282,
 0.00001543,0.00004078,-0.00024555,0.00020931,0.00015794,0.00009617,0.0
 0063118,-0.00006160,0.00081342,0.00011358,-0.00017417,0.00011435,0.000
 54396,0.00063073,-0.00156191,0.00004782,0.00071880,0.00003198,-0.00005
 663,-0.00008817,-0.00087428,-0.00257679,-0.00010755,0.00262249,-0.0088
 6461,-0.00050589,-0.00259480,-0.01589728,0.00131998,0.00234609,0.00055
 173,0.00157744,-0.00333301,0.00026995,-0.00359311,0.00238684,0.0008040
 4,0.00187681,0.00026423,0.00143648,0.00109167,-0.00028629,0.00007386,-
 0.00038760,-0.00062119,-0.00048630,-0.00101194,0.00041373,0.00019447,0
 .00047255,0.00003986,-0.00006681,-0.00012003,-0.00001145,-0.00005790,0
 .00004713,-0.00007545,-0.00068481,0.00043055,0.00041320,-0.00039001,-0
 .00038131,-0.00016002,-0.00062116,0.00008753,0.00400260,-0.33475921,-0
 .02982775,-0.00338421,0.36922607,0.00002329,-0.00001871,-0.00001912,0.
 00006274,0.00019981,0.00004284,-0.00017062,0.00008395,-0.00011578,-0.0
 0001141,-0.00000212,0.00002713,0.00004075,0.00000849,0.00000078,0.0000
 4143,0.00001877,0.00001614,-0.00007735,0.00002120,-0.00002170,0.000154
 74,-0.00008554,0.00021712,-0.00005774,-0.00006425,-0.00006199,-0.00038
 773,-0.00004674,0.00048999,-0.00037320,-0.00014556,0.00020975,-0.00003
 052,0.00006514,0.00002263,0.00002219,-0.00003174,0.00002416,-0.0000025
 7,0.00000126,-0.00000085,0.00000135,-0.00000905,0.00000122,0.00000325,
 0.00000163,-0.00000132,-0.00000178,-0.00000547,-0.00000394,-0.00001472
 ,-0.00000437,0.00000528,0.00004950,0.00000489,-0.00001620,0.00002311,-
 0.00005336,-0.00010548,0.00010412,-0.00005642,0.00008589,-0.00010686,-
 0.00001593,0.00001055,0.00005417,0.00001230,-0.00000328,0.00000001,0.,
 0.,0.,0.,0.,0.,0.,0.,0.,0.,0.,0.00000213,0.00000171,-0.00000138,0.0003
 0349,-0.00021534,-0.00026080,0.00003158,0.00000500,-0.00002736,-0.0000
 0851,-0.00014421,-0.00011442,0.00017324,0.00034794,0.00017994,-0.00040
 014,0.00039923,-0.00023535,0.00000478,-0.00004909,0.00000475,-0.000053
 27,-0.00006132,0.00000839,0.00000407,0.00000182,-0.00000088,-0.0000074
 1,-0.00001004,-0.00000010,0.00001033,0.00001384,-0.00000869,-0.0000233
 9,0.00000342,-0.00000062,-0.00007375,-0.00013392,-0.00005721,0.0022503
 0,0.00096863,0.00069334,-0.00050350,0.00037167,0.00003337,-0.00034662,
 -0.00003213,0.00025717,0.00016315,0.00002970,-0.00006645,-0.00014804,-
 0.00001731,0.00005842,0.00002321,0.00002639,-0.00000167,0.,0.,0.,0.,0.
 ,0.,-0.00002141,-0.00001093,0.00000103,-0.00002478,0.00001822,-0.00001
 415,0.00008796,-0.00007620,0.00002532,-0.00005248,0.00010193,-0.000126
 28,-0.00002618,-0.00032958,0.00021749,0.00021587,-0.00017619,-0.000345
 71,-0.00094012,-0.00009128,0.00005166,-0.00015037,-0.00000019,0.000186
 34,-0.00050362,-0.00041452,-0.00101971,-0.00002636,0.00008792,0.000081
 29,0.00126627,0.00013862,0.00072663,0.00160019,0.00674084,-0.00148963,
 -0.00028079,0.02217423,-0.00070432,-0.00353260,0.00065084,-0.00205179,
 0.00025959,0.00026970,0.00082023,0.00026043,0.00046848,0.00001859,-0.0
 0027308,0.00045624,-0.00046693,0.00048365,-0.00048825,0.00025560,-0.00
 017853,0.00040682,0.00035325,-0.00025862,0.00024660,-0.00023442,-0.000
 14704,0.00031790,-0.00017154,-0.00015199,0.00014862,-0.00014868,0.0002
 0261,0.00089489,-0.00015758,-0.00015255,0.00083170,0.00079119,0.000051
 61,-0.00008821,0.00002779,0.00092883,-0.03567293,-0.05262060,0.0013332
 1,0.03339866,0.05626072,0.00002236,0.00000658,0.00005692,0.00007096,-0
 .00011792,-0.00028065,0.00055262,-0.00020997,-0.00020995,0.00023876,-0
 .00006003,0.00013114,0.00004731,0.00006168,0.00001365,-0.00018829,-0.0
 0004610,-0.00000894,-0.00002636,-0.00002108,-0.00005787,0.00011289,-0.
 00004912,0.00028158,-0.00018200,-0.00004238,0.00011273,0.00083608,0.00
 061170,0.00045291,-0.00031545,-0.00066119,-0.00117248,0.00008140,0.000
 34484,0.00003567,-0.00008538,-0.00017683,0.00003984,0.00004112,0.00005
 853,-0.00002045,0.00003476,-0.00001452,0.00000349,0.00001583,0.0000079
 4,-0.00000643,0.00006961,0.00001953,-0.00001829,0.00001240,0.00001015,
 0.00000120,-0.00009149,-0.00000921,0.00003844,-0.00000055,-0.00003542,
 -0.00024329,0.00000233,-0.00000135,0.00002357,0.00002384,0.00000696,-0
 .00004104,-0.00000013,-0.00000006,0.00000013,0.,0.,0.,0.,0.,0.,0.,0.,0
 .,-0.00000334,-0.00000002,0.00000072,-0.00003564,-0.00001256,0.0000067
 5,0.00016538,0.00036015,0.00005119,0.00003398,0.00009233,-0.00002645,-
 0.00016565,-0.00000497,0.00015169,0.00027323,0.00008739,-0.00001522,0.
 00049553,0.00018960,-0.00120621,-0.00011344,0.00002481,-0.00003277,-0.
 00000349,-0.00000737,-0.00000501,0.00001008,0.00000020,-0.00001537,0.0
 0001320,0.00002286,0.00003656,0.00010791,0.00008182,-0.00004605,-0.000
 06582,0.00003326,0.00001971,-0.00057083,-0.00070539,-0.00000820,-0.004
 14910,-0.00276612,-0.00007013,0.00020360,0.00010019,0.00080912,-0.0001
 2029,0.00004167,0.00016785,-0.00001808,-0.00003981,-0.00005124,0.00000
 304,0.00001208,0.00000047,0.00001255,-0.00000083,-0.00000547,-0.000007
 17,-0.00000005,0.00000410,0.,0.,0.,0.,0.,0.,0.,0.,0.,0.00001891,-0.000
 01143,-0.00000278,0.00000918,-0.00000060,-0.00002151,0.00012448,-0.000
 04685,-0.00013971,-0.00005097,0.00003206,-0.00009402,-0.00062045,0.001
 15850,0.00022768,0.00027017,-0.00032264,-0.00022252,0.00117260,0.00052
 538,0.00101435,-0.00006325,0.00000201,0.00009033,0.00106871,0.00042927
 ,0.00073179,-0.01346982,0.00602090,0.02955728,0.00359188,-0.00074373,-
 0.02537476,-0.00208339,-0.00280288,-0.00119660,-0.00067394,0.00043991,
 0.00073964,-0.00089400,-0.00010800,-0.00014636,-0.00017709,-0.00002439
 ,-0.00000408,0.00019119,-0.00019703,0.00030195,-0.00060970,0.00043596,
 -0.00095755,-0.00001338,0.00014932,-0.00011850,-0.00012698,0.00032346,
 -0.00002164,0.00035106,-0.00010160,0.00013042,0.00048349,0.00128755,0.
 00126466,0.00099823,0.00011980,0.00051528,0.00058194,-0.00041174,-0.00
 015215,-0.05706160,0.01536887,0.06161797,0.00128077,-0.00106479,-0.000
 71747,0.06836369,0.00001157,-0.00001631,-0.00003238,-0.00004905,-0.000
 01633,0.00010510,0.00007268,-0.00019732,0.00000871,0.00001939,0.000020
 00,0.00003489,0.00000379,-0.00002162,-0.00001269,0.00004284,0.00002374
 ,0.00001305,-0.00003466,0.00002994,0.00003776,-0.00003413,0.00000869,-
 0.00015019,0.00043210,-0.00032058,0.00018964,0.00023549,0.00005764,-0.
 00014969,0.00035708,-0.00036754,-0.00007184,-0.00014489,-0.00002880,-0
 .00013261,-0.00009152,-0.00011318,-0.00000319,0.00000005,0.00000952,-0
 .00000866,0.00003426,0.00000425,-0.00000093,-0.00000024,-0.00000012,0.
 00000010,-0.00001061,-0.00000598,0.00000013,-0.00000981,-0.00000396,0.
 00000267,0.00003764,0.00000427,-0.00001524,-0.00001915,0.00003275,0.00
 012758,-0.00000599,0.00000280,-0.00000886,-0.00000845,-0.00000293,0.00
 001687,0.00000005,0.00000002,-0.00000005,0.,0.,0.,0.,0.,0.,0.,0.,0.,-0
 .00000367,-0.00000002,0.00000079,-0.00003157,-0.00000922,0.00000430,0.
 00036934,0.00045692,0.00008119,0.00000967,0.00001613,-0.00000192,0.000
 32030,0.00025715,-0.00028656,0.00019350,0.00015467,0.00012770,0.000215
 98,-0.00026422,-0.00034064,-0.00010097,-0.00000182,-0.00001263,0.00000
 463,-0.00000199,-0.00000829,0.00000831,-0.00000128,-0.00001671,0.00000
 794,0.00002103,0.00003615,0.00009689,0.00006651,-0.00003246,-0.0000812
 0,-0.00002501,-0.00000147,-0.00032219,-0.00038224,0.00028379,-0.001536
 37,0.00024793,-0.00129158,0.00020983,-0.00006105,-0.00029678,0.0000092
 5,0.00003121,-0.00003370,-0.00000744,-0.00001328,-0.00001500,-0.000015
 43,0.00000771,0.00001265,0.00001331,0.00000103,-0.00000582,-0.00000787
 ,-0.00000005,0.00000450,0.,0.,0.,0.,0.,0.,0.,0.,0.,0.00001242,0.000001
 60,-0.00000942,0.00000281,-0.00000756,0.00001007,-0.00003251,0.0000616
 4,0.00001931,0.00003113,-0.00007457,-0.00000253,0.00022343,-0.00045270
 ,-0.00033405,0.00037940,0.00025733,0.00016422,0.00074368,0.00027861,0.
 00047864,-0.00009039,-0.00004516,0.00010613,-0.00071032,0.00158171,0.0
 0064099,-0.00561328,0.00151697,0.01159831,-0.00277164,0.00401239,0.013
 87648,-0.00001516,-0.00033956,-0.00234402,-0.00013884,-0.00090011,-0.0
 0005861,-0.00061421,-0.00031058,-0.00000924,-0.00001627,-0.00022890,-0
 .00074089,0.00006895,0.00039897,0.00005703,-0.00017161,0.00007043,0.00
 031118,0.00033802,-0.00026028,0.00043169,0.00033397,-0.00016484,-0.000
 12443,-0.00031001,0.00024461,-0.00020438,-0.00087080,-0.00145071,0.003
 17325,-0.00012273,-0.00020681,0.00020708,0.00072653,-0.00037710,-0.000
 82873,0.01798986,-0.05921974,-0.05442502,0.00808620,-0.00943534,-0.031
 38809,-0.01764929,0.06545063,0.00007532,-0.00002397,0.00000516,0.00015
 689,0.00002229,-0.00011967,-0.00009234,0.00019286,0.00012736,-0.000096
 96,-0.00004644,-0.00006563,0.00002078,0.00000371,0.00000375,-0.0000257
 8,0.00000551,0.00000675,0.00002745,-0.00000762,0.00000228,0.00006056,-
 0.00003505,-0.00003542,0.00050220,-0.00015010,-0.00015391,0.00031715,-
 0.00064096,-0.00047921,-0.00090181,-0.00020560,-0.00006022,-0.00021718
 ,-0.00020892,-0.00018477,0.00009746,0.00002329,0.00007440,0.00001746,0
 .00001310,-0.00000177,0.00000541,-0.00000391,0.00000098,0.00000384,0.0
 0000193,-0.00000156,0.00000874,-0.00000011,-0.00000457,-0.00000521,-0.
 00000079,0.00000259,0.00001094,0.00000128,-0.00000344,0.00005737,-0.00
 001525,0.00005086,-0.00000192,-0.00000384,0.00000448,0.00001404,-0.000
 00083,0.00000077,0.00000001,0.,-0.00000001,0.,0.,0.,0.,0.,0.,0.,0.,0.,
 0.00000091,0.,-0.00000020,0.00000314,-0.00000054,0.00000085,0.00030407
 ,0.00044135,0.00046275,0.00002858,0.00000997,-0.00001085,-0.00042668,-
 0.00025285,-0.00018751,-0.00016619,-0.00058327,0.00042131,-0.00066328,
 0.00054223,-0.00000976,0.00012713,-0.00010935,0.00016548,0.00001221,0.
 00001250,0.00000098,0.00000451,0.00000122,-0.00000026,-0.00005266,-0.0
 0004742,-0.00000092,-0.00004151,-0.00002095,0.00000271,-0.00001463,-0.
 00000448,0.00001287,-0.00008277,0.00024285,0.00021033,0.00089926,0.001
 17958,0.00069652,-0.00052214,-0.00052982,0.00013655,0.00004686,-0.0000
 2500,-0.00002109,0.00006868,0.00006950,0.00000696,-0.00000736,-0.00001
 785,0.00000226,-0.00001950,0.00000129,0.00000840,0.00000196,0.00000001
 ,-0.00000112,0.,0.,0.,0.,0.,0.,0.,0.,0.,-0.00003768,0.00001169,0.00001
 399,-0.00001071,0.00001078,-0.00000077,-0.00020642,0.00005640,0.000220
 08,0.00022268,-0.00008071,0.00000195,0.00014291,-0.00040814,0.00011267
 ,-0.00061985,-0.00040973,-0.00040564,0.00058442,0.00050062,0.00203621,
 0.00005919,-0.00000070,-0.00009100,-0.00074704,-0.00005362,0.00077675,
 -0.00064672,-0.00143250,-0.00595577,0.00267756,-0.00054901,-0.01946422
 ,-0.00045943,-0.00439932,0.00235848,-0.00018415,0.00214733,-0.00020556
 ,0.00063421,0.00041061,0.00041723,-0.00018662,0.00005983,0.00021351,-0
 .00006729,-0.00031896,0.00026320,-0.00016354,0.00046467,-0.00046536,-0
 .00075336,0.00043819,-0.00061950,-0.00012544,0.00010821,0.00007322,0.0
 0010093,0.00012244,-0.00000675,0.00246175,-0.00138723,0.00188710,0.000
 51648,-0.00020313,-0.00211972,-0.00042008,0.00037677,0.00079017,0.0615
 9852,-0.05343902,-0.29446164,0.00201421,-0.00309239,-0.00153008,-0.065
 91957,0.06123735,0.31509602\\-0.00000145,-0.00000064,0.00000097,0.0000
 0082,0.00000117,0.00000143,0.00000178,0.00000026,-0.00000206,0.0000016
 3,0.,-0.00000262,-0.00000341,-0.00000002,-0.00000044,0.00000052,0.0000
 0023,0.00000038,-0.00000086,0.00000025,0.00000030,0.00000057,0.0000019
 9,-0.00000178,-0.00000093,-0.00000046,0.00000358,-0.00000249,0.0000014
 0,0.00000007,-0.00000640,-0.00000142,0.00000051,0.00000248,-0.00000056
 ,-0.00000160,0.00000071,-0.00000055,0.00000038,-0.00000132,0.00000088,
 0.00000067,0.00000043,-0.00000010,0.00000033,0.00000010,-0.00000049,-0
 .00000058,-0.00000013,0.00000044,-0.00000010,0.00000085,0.00000002,-0.
 00000045,0.00000047,0.00000060,-0.00000032,-0.00000047,-0.00000153,-0.
 00000156,0.00000217,-0.00000051,0.00000214,-0.00000201,-0.00000035,-0.
 00000031,-0.00000009,-0.00000019,-0.00000024,0.00000007,0.00000026,0.0
 0000037,0.00000023,-0.00000025,0.00000056,0.00000072,-0.00000023,-0.00
 000036,0.00000067,-0.00000064,-0.00000053,-0.00000102,0.00000003,0.000
 00108,-0.00000626,0.00000092,-0.00000043,0.00000736,-0.00000380,-0.000
 00447,-0.00000249,0.00000904,0.00000550,-0.00000560,-0.00001758,0.0000
 0203,-0.00000081,-0.00000144,0.00000088,-0.00000557,-0.00000191,0.0000
 0204,-0.00000280,-0.00000169,0.00000085,0.00000246,0.00000077,0.000001
 87,0.00000015,0.00000202,-0.00000092,0.00000026,-0.00000251,-0.0000022
 3,-0.00000100,0.00000055,0.00000396,-0.00000189,-0.00000139,0.00000246
 ,-0.00000725,0.00001772,0.00000078,0.00000153,0.00000169,0.00000281,-0
 .00000515,0.00000014,0.00000174,0.00000127,-0.00000061,-0.00000308,-0.
 00000080,0.00000040,-0.00000098,0.00000306,0.00000081,0.00000025,-0.00
 000213,0.00000017,-0.00000040,0.,0.00000002,-0.00000057,-0.00000084,0.
 00000021,-0.00000006,-0.00000089,-0.00000015,-0.00000058,0.00000278,-0
 .00000113,0.00000059,-0.00000206,0.00000175,0.00000090,0.00000341,-0.0
 0000493,-0.00000217,0.00000694,0.00000260,-0.00000334,-0.00000132,-0.0
 0000916,0.00000504,0.00000636,0.00000959,-0.00000207,0.00000827,-0.000
 00893,-0.00000158,0.00000470,0.00000670,-0.00000161,-0.00000373,-0.000
 00122,-0.00000453,0.00000276,0.00000329,-0.00000378,-0.00000763,-0.000
 02257,0.00001500,-0.00000469,0.00001191,-0.00000527,0.00001097,0.00000
 141,-0.00001373,0.00000066,-0.00000339,0.00000815,-0.00000294,0.000006
 58,0.00000060,-0.00000344,0.00000288,0.00000110,0.00002050,0.00000097,
 -0.00001289,-0.00000230,-0.00000103,-0.00000156,-0.00000802,-0.0000037
 4,0.00000376,-0.00000552,-0.00000025,0.00000990,0.00001586,-0.00000763
 ,0.00000368,-0.00000396,0.00000217,-0.00000250,-0.00000092,0.00000634,
 -0.00000093,0.00000067,0.00000459,-0.00000322,-0.00000088,-0.00000125,
 -0.00000117,-0.00000271,0.00000149,0.00000031\\\@


 IT IS IMPOSSIBLE TO MEDITATE ON TIME AND THE MYSTERY 
 OF NATURE WITHOUT AN OVERWHELMING EMOTION AT THE
 LIMITATIONS OF HUMAN INTELLIGENCE.

                                         -- ALFRED NORTH WHITEHEAD
 Job cpu time:       0 days  0 hours  0 minutes  0.9 seconds.
 Elapsed time:       0 days  0 hours  0 minutes 53.3 seconds.
 File lengths (MBytes):  RWF=     22 Int=      0 D2E=      0 Chk=      3 Scr=      2
 Normal termination of Gaussian 16 at Fri May 31 12:10:02 2024.
