 Entering Gaussian System, Link 0=g16
 Input=gaussian.com
 Output=gaussian.log
 Initial command:
 /mlatom/software/Gaussian/g16-avx2/l1.exe "/mlatom/home/qhzhang/git/ts-analysis/calculations/_other/irc/da/ani/irc_1/Gau-43308.inp" -scrdir="/mlatom/home/qhzhang/git/ts-analysis/calculations/_other/irc/da/ani/irc_1/"
 Entering Link 1 = /mlatom/software/Gaussian/g16-avx2/l1.exe PID=     43310.
  
 Copyright (c) 1988,1990,1992,1993,1995,1998,2003,2009,2016,
            Gaussian, Inc.  All Rights Reserved.
  
 This is part of the Gaussian(R) 16 program.  It is based on
 the Gaussian(R) 09 system (copyright 2009, Gaussian, Inc.),
 the Gaussian(R) 03 system (copyright 2003, Gaussian, Inc.),
 the Gaussian(R) 98 system (copyright 1998, Gaussian, Inc.),
 the Gaussian(R) 94 system (copyright 1995, Gaussian, Inc.),
 the Gaussian 92(TM) system (copyright 1992, Gaussian, Inc.),
 the Gaussian 90(TM) system (copyright 1990, Gaussian, Inc.),
 the Gaussian 88(TM) system (copyright 1988, Gaussian, Inc.),
 the Gaussian 86(TM) system (copyright 1986, Carnegie Mellon
 University), and the Gaussian 82(TM) system (copyright 1983,
 Carnegie Mellon University). Gaussian is a federally registered
 trademark of Gaussian, Inc.
  
 This software contains proprietary and confidential information,
 including trade secrets, belonging to Gaussian, Inc.
  
 This software is provided under written license and may be
 used, copied, transmitted, or stored only in accord with that
 written license.
  
 The following legend is applicable only to US Government
 contracts under FAR:
  
                    RESTRICTED RIGHTS LEGEND
  
 Use, reproduction and disclosure by the US Government is
 subject to restrictions as set forth in subparagraphs (a)
 and (c) of the Commercial Computer Software - Restricted
 Rights clause in FAR 52.227-19.
  
 Gaussian, Inc.
 340 Quinnipiac St., Bldg. 40, Wallingford CT 06492
  
  
 ---------------------------------------------------------------
 Warning -- This program may not be used in any manner that
 competes with the business of Gaussian, Inc. or will provide
 assistance to any competitor of Gaussian, Inc.  The licensee
 of this program is prohibited from giving any competitor of
 Gaussian, Inc. access to this program.  By using this program,
 the user acknowledges that Gaussian, Inc. is engaged in the
 business of creating and licensing software in the field of
 computational chemistry and represents and warrants to the
 licensee that it is not a competitor of Gaussian, Inc. and that
 it will not use this program in any manner prohibited above.
 ---------------------------------------------------------------
  

 Cite this work as:
 Gaussian 16, Revision A.03,
 M. J. Frisch, G. W. Trucks, H. B. Schlegel, G. E. Scuseria, 
 M. A. Robb, J. R. Cheeseman, G. Scalmani, V. Barone, 
 G. A. Petersson, H. Nakatsuji, X. Li, M. Caricato, A. V. Marenich, 
 J. Bloino, B. G. Janesko, R. Gomperts, B. Mennucci, H. P. Hratchian, 
 J. V. Ortiz, A. F. Izmaylov, J. L. Sonnenberg, D. Williams-Young, 
 F. Ding, F. Lipparini, F. Egidi, J. Goings, B. Peng, A. Petrone, 
 T. Henderson, D. Ranasinghe, V. G. Zakrzewski, J. Gao, N. Rega, 
 G. Zheng, W. Liang, M. Hada, M. Ehara, K. Toyota, R. Fukuda, 
 J. Hasegawa, M. Ishida, T. Nakajima, Y. Honda, O. Kitao, H. Nakai, 
 T. Vreven, K. Throssell, J. A. Montgomery, Jr., J. E. Peralta, 
 F. Ogliaro, M. J. Bearpark, J. J. Heyd, E. N. Brothers, K. N. Kudin, 
 V. N. Staroverov, T. A. Keith, R. Kobayashi, J. Normand, 
 K. Raghavachari, A. P. Rendell, J. C. Burant, S. S. Iyengar, 
 J. Tomasi, M. Cossi, J. M. Millam, M. Klene, C. Adamo, R. Cammi, 
 J. W. Ochterski, R. L. Martin, K. Morokuma, O. Farkas, 
 J. B. Foresman, and D. J. Fox, Gaussian, Inc., Wallingford CT, 2016.
 
 ******************************************
 Gaussian 16:  ES64L-G16RevA.03 25-Dec-2016
                28-Apr-2024 
 ******************************************
 %nproc=1
 Will use up to    1 processors via shared memory.
 ----------------------------------------------------------------------
 #p irc(calcfc,maxpoint=100,LQA) external='/mlatom/software/miniconda3/
 bin/python /mlatom/software/mlatom/mlatom/interfaces/gaussian_interfac
 e.py model_predict_kwargs'
 ----------------------------------------------------------------------
 1/10=4,18=10,26=1,38=1,42=100,44=3,45=2,172=1/1,23;
 2/12=2,17=6,18=5,29=1,40=1/2;
 3/11=9,25=1,30=1,41=9900000,43=2,71=2,140=1/1;
 4/20=17,22=2,24=3,113=1,114=1/2;
 6/7=2,8=2,9=2,10=2/1;
 7/25=1,44=-1/16;
 1/10=4,18=10,26=1,42=100,44=3,45=2/23(2);
 2/29=1/2;
 99/5=20/99;
 2/29=1/2;
 3/11=9,25=1,30=1,41=9900000,43=2,71=2,140=1/1;
 4/16=2,20=17,22=2,24=3,113=1,114=1/2;
 7/44=-1/16;
 1/18=10,26=1,42=100,44=3,45=2/23(-4);
 2/29=1/2;
 6/7=2,8=2,9=2,10=2/1;
 99/5=20/99;
 Leave Link    1 at Sun Apr 28 19:33:39 2024, MaxMem=           0 cpu:               0.0 elap:               0.9
 (Enter /mlatom/software/Gaussian/g16-avx2/l101.exe)
 ------------------------------------
 0fb7dfa4-ad39-474c-9009-adca666de21f
 ------------------------------------
 Symbolic Z-matrix:
 Charge =  0 Multiplicity = 1
 C                    -0.44856   1.4212    0.49646 
 C                    -1.32021   0.70184  -0.29654 
 H                    -0.11869   1.02732   1.44947 
 H                    -0.37592   2.49976   0.40893 
 H                    -1.86889   1.21983  -1.0788 
 C                    -1.32041  -0.70154  -0.29649 
 C                    -0.44892  -1.42109   0.49651 
 H                    -1.86925  -1.21943  -1.07871 
 H                    -0.37656  -2.49968   0.40903 
 H                    -0.11892  -1.02727   1.4495 
 C                     1.57503   0.6914   -0.23144 
 C                     1.57479  -0.69175  -0.2316 
 H                     2.07116   1.23433   0.56496 
 H                     1.4583    1.24147  -1.15506 
 H                     1.4577   -1.24156  -1.15532 
 H                     2.07082  -1.23506   0.56461 
 
 ITRead=  0  0  0  0  0  0  0  0  0  0  0  0  0  0  0  0
 MicOpt= -1 -1 -1 -1 -1 -1 -1 -1 -1 -1 -1 -1 -1 -1 -1 -1
 NAtoms=     16 NQM=       16 NQMF=       0 NMMI=      0 NMMIF=      0
                NMic=       0 NMicF=      0.
                    Isotopes and Nuclear Properties:
 (Nuclear quadrupole moments (NQMom) in fm**2, nuclear magnetic moments (NMagM)
  in nuclear magnetons)

  Atom         1           2           3           4           5           6           7           8           9          10
 IAtWgt=          12          12           1           1           1          12          12           1           1           1
 AtmWgt=  12.0000000  12.0000000   1.0078250   1.0078250   1.0078250  12.0000000  12.0000000   1.0078250   1.0078250   1.0078250
 NucSpn=           0           0           1           1           1           0           0           1           1           1
 AtZEff=  -0.0000000  -0.0000000  -0.0000000  -0.0000000  -0.0000000  -0.0000000  -0.0000000  -0.0000000  -0.0000000  -0.0000000
 NQMom=    0.0000000   0.0000000   0.0000000   0.0000000   0.0000000   0.0000000   0.0000000   0.0000000   0.0000000   0.0000000
 NMagM=    0.0000000   0.0000000   2.7928460   2.7928460   2.7928460   0.0000000   0.0000000   2.7928460   2.7928460   2.7928460
 AtZNuc=   6.0000000   6.0000000   1.0000000   1.0000000   1.0000000   6.0000000   6.0000000   1.0000000   1.0000000   1.0000000

  Atom        11          12          13          14          15          16
 IAtWgt=          12          12           1           1           1           1
 AtmWgt=  12.0000000  12.0000000   1.0078250   1.0078250   1.0078250   1.0078250
 NucSpn=           0           0           1           1           1           1
 AtZEff=  -0.0000000  -0.0000000  -0.0000000  -0.0000000  -0.0000000  -0.0000000
 NQMom=    0.0000000   0.0000000   0.0000000   0.0000000   0.0000000   0.0000000
 NMagM=    0.0000000   0.0000000   2.7928460   2.7928460   2.7928460   2.7928460
 AtZNuc=   6.0000000   6.0000000   1.0000000   1.0000000   1.0000000   1.0000000
 Leave Link  101 at Sun Apr 28 19:33:46 2024, MaxMem=   104857600 cpu:               0.1 elap:               0.9
 (Enter /mlatom/software/Gaussian/g16-avx2/l123.exe)
 IRC-IRC-IRC-IRC-IRC-IRC-IRC-IRC-IRC-IRC-IRC-IRC-IRC-IRC-IRC-IRC-IRC-IRC
 ------------------------------------------------------------------------
 INPUT DATA FOR L123
 ------------------------------------------------------------------------
 GENERAL PARAMETERS:
 Follow reaction path in both directions.
 Maximum points per path      = 100
 Step size                    =   0.100 bohr
 Integration scheme           = LQA                                 
 Initial Hessian              = CalcFC
 Hessian evaluation           = All updating
 Hessian updating method      = Bofill                              
 ------------------------------------------------------------------------
 IRC-IRC-IRC-IRC-IRC-IRC-IRC-IRC-IRC-IRC-IRC-IRC-IRC-IRC-IRC-IRC-IRC-IRC
 Leave Link  123 at Sun Apr 28 19:33:52 2024, MaxMem=   104857600 cpu:               0.0 elap:               1.0
 (Enter /mlatom/software/Gaussian/g16-avx2/l202.exe)
                          Input orientation:                          
 ---------------------------------------------------------------------
 Center     Atomic      Atomic             Coordinates (Angstroms)
 Number     Number       Type             X           Y           Z
 ---------------------------------------------------------------------
      1          6           0       -0.448562    1.421201    0.496458
      2          6           0       -1.320208    0.701837   -0.296538
      3          1           0       -0.118690    1.027320    1.449468
      4          1           0       -0.375920    2.499762    0.408929
      5          1           0       -1.868893    1.219833   -1.078797
      6          6           0       -1.320407   -0.701544   -0.296491
      7          6           0       -0.448924   -1.421093    0.496514
      8          1           0       -1.869251   -1.219435   -1.078708
      9          1           0       -0.376564   -2.499677    0.409028
     10          1           0       -0.118921   -1.027269    1.449503
     11          6           0        1.575026    0.691400   -0.231445
     12          6           0        1.574785   -0.691755   -0.231601
     13          1           0        2.071156    1.234334    0.564964
     14          1           0        1.458303    1.241471   -1.155059
     15          1           0        1.457700   -1.241557   -1.155325
     16          1           0        2.070819   -1.235059    0.564614
 ---------------------------------------------------------------------
                    Distance matrix (angstroms):
                    1          2          3          4          5
     1  C    0.000000
     2  C    1.380614   0.000000
     3  H    1.082676   2.144324   0.000000
     4  H    1.084542   2.149860   1.821256   0.000000
     5  H    2.130567   1.086878   3.080973   2.465870   0.000000
     6  C    2.427947   1.403380   2.735227   3.411456   2.145816
     7  C    2.842294   2.427941   2.647999   3.922512   3.387094
     8  H    3.387102   2.145815   3.808417   4.274988   2.439268
     9  H    3.922514   3.411448   3.686289   4.999439   4.274976
    10  H    2.648011   2.735243   2.054589   3.686297   3.808434
    11  C    2.270983   2.895985   2.409769   2.736136   3.585781
    12  C    3.014728   3.213612   2.940930   3.794905   4.028750
    13  H    2.527567   3.539363   2.370786   2.759318   4.269209
    14  H    2.529020   2.957767   3.052266   2.719140   3.328140
    15  H    3.667765   3.497294   3.797071   4.450451   4.138903
    16  H    3.661645   3.999026   3.270363   4.467623   4.924289
                    6          7          8          9         10
     6  C    0.000000
     7  C    1.380613   0.000000
     8  H    1.086878   2.130568   0.000000
     9  H    2.149856   1.084544   2.465865   0.000000
    10  H    2.144332   1.082676   3.080979   1.821252   0.000000
    11  C    3.213730   3.014784   4.028919   3.794981   2.940896
    12  C    2.895936   2.271010   3.585725   2.736193   2.409839
    13  H    3.999053   3.661527   4.924373   4.467493   3.270121
    14  H    3.497667   3.668031   4.139384   4.450763   3.797178
    15  H    2.957547   2.529035   3.327906   2.719299   3.052341
    16  H    3.539287   2.527519   4.269063   2.759194   2.370900
                   11         12         13         14         15
    11  C    0.000000
    12  C    1.383155   0.000000
    13  H    1.084061   2.142596   0.000000
    14  H    1.081326   2.145624   1.825957   0.000000
    15  H    2.145610   1.081322   3.076647   2.483028   0.000000
    16  H    2.142607   1.084061   2.469393   3.076630   1.825965
                   16
    16  H    0.000000
 Symmetry turned off by external request.
 Stoichiometry    C6H10
 Framework group  C1[X(C6H10)]
 Deg. of freedom    42
 Full point group                 C1      NOp   1
 Rotational constants (GHZ):           4.3878323           3.4619918           2.2750798
 Leave Link  202 at Sun Apr 28 19:33:57 2024, MaxMem=   104857600 cpu:               0.0 elap:               1.2
 (Enter /mlatom/software/Gaussian/g16-avx2/l301.exe)
 Standard basis: STO-3G (5D, 7F)
 Ernie: Thresh=  0.10000D-02 Tol=  0.10000D-05 Strict=F.
    40 basis functions,   120 primitive gaussians,    40 cartesian basis functions
    23 alpha electrons       23 beta electrons
       nuclear repulsion energy       224.6599182347 Hartrees.
 IExCor=    0 DFT=F Ex=HF Corr=None ExCW=0 ScaHFX=  1.000000
 ScaDFX=  1.000000  1.000000  1.000000  1.000000 ScalE2=  1.000000  1.000000
 IRadAn=      5 IRanWt=     -1 IRanGd=            0 ICorTp=0 IEmpDi=  4
 NAtoms=   16 NActive=   16 NUniq=   16 SFac= 1.00D+00 NAtFMM=   60 NAOKFM=F Big=F
 Integral buffers will be    131072 words long.
 Raffenetti 1 integral format.
 Two-electron integral symmetry is turned off.
 Leave Link  301 at Sun Apr 28 19:34:04 2024, MaxMem=   104857600 cpu:               0.1 elap:               1.1
 (Enter /mlatom/software/Gaussian/g16-avx2/l402.exe)
 External calculation of energy, first and second derivatives.
 Running external command "/mlatom/software/miniconda3/bin/python /mlatom/software/mlatom/mlatom/interfaces/gaussian_interface.py model_predict_kwargs R"
         input file       "/mlatom/home/qhzhang/git/ts-analysis/calculations/_other/irc/da/ani/irc_1/Gau-43310.EIn"
         output file      "/mlatom/home/qhzhang/git/ts-analysis/calculations/_other/irc/da/ani/irc_1/Gau-43310.EOu"
         message file     "/mlatom/home/qhzhang/git/ts-analysis/calculations/_other/irc/da/ani/irc_1/Gau-43310.EMs"
         fchk file        "/mlatom/home/qhzhang/git/ts-analysis/calculations/_other/irc/da/ani/irc_1/Gau-43310.EFC"
         mat. el file     "/mlatom/home/qhzhang/git/ts-analysis/calculations/_other/irc/da/ani/irc_1/Gau-43310.EUF"
model loaded from /mlatom/home/qhzhang/git/ts-analysis/calculations/_other/irc/da/ani/irc/da_energy_iteration27.npz
 Recovered energy= -234.566071903     dipole=      0.000000000000      0.000000000000      0.000000000000
 Energy=    -234.566072     NIter=   0.
 Dipole moment=       0.000000       0.000000       0.000000
 Leave Link  402 at Sun Apr 28 19:35:41 2024, MaxMem=   104857600 cpu:               0.0 elap:              92.1
 (Enter /mlatom/software/Gaussian/g16-avx2/l601.exe)
 Leave Link  601 at Sun Apr 28 19:35:47 2024, MaxMem=   104857600 cpu:               0.0 elap:               1.2
 (Enter /mlatom/software/Gaussian/g16-avx2/l716.exe)
 Dipole        = 0.00000000D+00 0.00000000D+00 0.00000000D+00
 -------------------------------------------------------------------
 Center     Atomic                   Forces (Hartrees/Bohr)
 Number     Number              X              Y              Z
 -------------------------------------------------------------------
      1        6          -0.000006431   -0.000024722    0.000001361
      2        6           0.000002099   -0.000011006    0.000004487
      3        1          -0.000000407   -0.000004008    0.000002335
      4        1           0.000001845   -0.000003812    0.000000761
      5        1          -0.000001087    0.000003857   -0.000004731
      6        6           0.000004937    0.000014306    0.000004070
      7        6          -0.000006800    0.000022566    0.000001447
      8        1          -0.000001039   -0.000003751   -0.000004619
      9        1           0.000002788    0.000004486   -0.000000074
     10        1           0.000000810    0.000005154    0.000001601
     11        6          -0.000002641   -0.000001220   -0.000003292
     12        6          -0.000002231    0.000000966   -0.000003476
     13        1           0.000003146   -0.000000094    0.000001835
     14        1          -0.000000346   -0.000001226   -0.000001837
     15        1           0.000003382   -0.000001450   -0.000002770
     16        1           0.000001975   -0.000000049    0.000002901
 -------------------------------------------------------------------
 Cartesian Forces:  Max     0.000024722 RMS     0.000006233
 Z-matrix is all fixed cartesians, so copy forces.
 Leave Link  716 at Sun Apr 28 19:35:54 2024, MaxMem=   104857600 cpu:               0.1 elap:               1.4
 (Enter /mlatom/software/Gaussian/g16-avx2/l123.exe)
 IRC-IRC-IRC-IRC-IRC-IRC-IRC-IRC-IRC-IRC-IRC-IRC-IRC-IRC-IRC-IRC-IRC-IRC
          ******** Start new reaction path calculation ********
 Current Structure is TS -> form Hessian eigenvectors.
                            Diagonalizing Hessian.
 Supplied step size of   0.1000 bohr.
    Integration on MW PES will use step size of   0.2911 sqrt(amu)*bohr.
 Point Number:   0          Path Number:   1
 Calculating another point on the path.
 Point Number  1 in FORWARD path direction.
 Using LQA Reaction Path Following.
 IRC-IRC-IRC-IRC-IRC-IRC-IRC-IRC-IRC-IRC-IRC-IRC-IRC-IRC-IRC-IRC-IRC-IRC
 Leave Link  123 at Sun Apr 28 19:35:55 2024, MaxMem=   104857600 cpu:               0.0 elap:               1.3
 (Enter /mlatom/software/Gaussian/g16-avx2/l202.exe)
                          Input orientation:                          
 ---------------------------------------------------------------------
 Center     Atomic      Atomic             Coordinates (Angstroms)
 Number     Number       Type             X           Y           Z
 ---------------------------------------------------------------------
      1          6           0       -0.401072    1.414612    0.494585
      2          6           0       -1.291788    0.698343   -0.292803
      3          1           0       -0.098433    1.029560    1.460867
      4          1           0       -0.334130    2.493618    0.408483
      5          1           0       -1.844976    1.220642   -1.069485
      6          6           0       -1.291986   -0.698056   -0.292756
      7          6           0       -0.401432   -1.414515    0.494640
      8          1           0       -1.845333   -1.220249   -1.069396
      9          1           0       -0.334769   -2.493542    0.408577
     10          1           0       -0.098662   -1.029512    1.460902
     11          6           0        1.582886    0.695540   -0.219801
     12          6           0        1.582645   -0.695897   -0.219954
     13          1           0        2.102106    1.233360    0.566068
     14          1           0        1.490710    1.238920   -1.150884
     15          1           0        1.490101   -1.239021   -1.151146
     16          1           0        2.101780   -1.234090    0.565714
 ---------------------------------------------------------------------
                    Distance matrix (angstroms):
                    1          2          3          4          5
     1  C    0.000000
     2  C    1.387947   0.000000
     3  H    1.083309   2.146896   0.000000
     4  H    1.084503   2.152190   1.818388   0.000000
     5  H    2.137474   1.087221   3.080521   2.467288   0.000000
     6  C    2.424253   1.396398   2.735767   3.405291   2.142547
     7  C    2.829127   2.424246   2.645544   3.909662   3.387382
     8  H    3.387391   2.142546   3.809926   4.273250   2.440891
     9  H    3.909663   3.405282   3.684483   4.987160   4.273238
    10  H    2.645556   2.735783   2.059072   3.684491   3.809943
    11  C    2.227892   2.875602   2.400635   2.702365   3.570425
    12  C    2.983279   3.195556   2.937411   3.773853   4.017887
    13  H    2.510750   3.541528   2.384234   2.747422   4.272546
    14  H    2.513419   2.961557   3.064384   2.708493   3.336729
    15  H    3.650580   3.497004   3.806903   4.437663   4.144798
    16  H    3.644853   3.998456   3.281211   4.455804   4.927116
                    6          7          8          9         10
     6  C    0.000000
     7  C    1.387945   0.000000
     8  H    1.087221   2.137475   0.000000
     9  H    2.152186   1.084505   2.467284   0.000000
    10  H    2.146905   1.083309   3.080527   1.818383   0.000000
    11  C    3.195672   2.983332   4.018052   3.773924   2.937375
    12  C    2.875553   2.227918   3.570368   2.702416   2.400702
    13  H    3.998476   3.644729   4.927192   4.455667   3.280961
    14  H    3.497379   3.650845   4.145279   4.437969   3.807009
    15  H    2.961331   2.513425   3.336488   2.708636   3.064451
    16  H    3.541462   2.510712   4.272409   2.747304   2.384357
                   11         12         13         14         15
    11  C    0.000000
    12  C    1.391437   0.000000
    13  H    1.084633   2.147022   0.000000
    14  H    1.081977   2.149093   1.822569   0.000000
    15  H    2.149079   1.081973   3.071814   2.477941   0.000000
    16  H    2.147035   1.084633   2.467451   3.071791   1.822577
                   16
    16  H    0.000000
 Symmetry turned off by external request.
 Stoichiometry    C6H10
 Framework group  C1[X(C6H10)]
 Deg. of freedom    42
 Full point group                 C1      NOp   1
 Rotational constants (GHZ):           4.4139719           3.5124639           2.2999553
 Leave Link  202 at Sun Apr 28 19:35:59 2024, MaxMem=   104857600 cpu:               0.0 elap:               0.5
 (Enter /mlatom/software/Gaussian/g16-avx2/l301.exe)
 Standard basis: STO-3G (5D, 7F)
 Ernie: Thresh=  0.10000D-02 Tol=  0.10000D-05 Strict=F.
    40 basis functions,   120 primitive gaussians,    40 cartesian basis functions
    23 alpha electrons       23 beta electrons
       nuclear repulsion energy       225.2568388640 Hartrees.
 IExCor=    0 DFT=F Ex=HF Corr=None ExCW=0 ScaHFX=  1.000000
 ScaDFX=  1.000000  1.000000  1.000000  1.000000 ScalE2=  1.000000  1.000000
 IRadAn=      5 IRanWt=     -1 IRanGd=            0 ICorTp=0 IEmpDi=  4
 NAtoms=   16 NActive=   16 NUniq=   16 SFac= 1.00D+00 NAtFMM=   60 NAOKFM=F Big=F
 Integral buffers will be    131072 words long.
 Raffenetti 1 integral format.
 Two-electron integral symmetry is turned off.
 Leave Link  301 at Sun Apr 28 19:35:59 2024, MaxMem=   104857600 cpu:               0.1 elap:               0.4
 (Enter /mlatom/software/Gaussian/g16-avx2/l402.exe)
 External calculation of energy and first derivatives.
 Running external command "/mlatom/software/miniconda3/bin/python /mlatom/software/mlatom/mlatom/interfaces/gaussian_interface.py model_predict_kwargs R"
         input file       "/mlatom/home/qhzhang/git/ts-analysis/calculations/_other/irc/da/ani/irc_1/Gau-43310.EIn"
         output file      "/mlatom/home/qhzhang/git/ts-analysis/calculations/_other/irc/da/ani/irc_1/Gau-43310.EOu"
         message file     "/mlatom/home/qhzhang/git/ts-analysis/calculations/_other/irc/da/ani/irc_1/Gau-43310.EMs"
         fchk file        "/mlatom/home/qhzhang/git/ts-analysis/calculations/_other/irc/da/ani/irc_1/Gau-43310.EFC"
         mat. el file     "/mlatom/home/qhzhang/git/ts-analysis/calculations/_other/irc/da/ani/irc_1/Gau-43310.EUF"
model loaded from /mlatom/home/qhzhang/git/ts-analysis/calculations/_other/irc/da/ani/irc/da_energy_iteration27.npz
 Recovered energy= -234.566434888     dipole=      0.000000000000      0.000000000000      0.000000000000
 Energy=    -234.566435     NIter=   0.
 Dipole moment=       0.000000       0.000000       0.000000
 Leave Link  402 at Sun Apr 28 19:36:06 2024, MaxMem=   104857600 cpu:               0.0 elap:               6.6
 (Enter /mlatom/software/Gaussian/g16-avx2/l716.exe)
 Dipole        = 0.00000000D+00 0.00000000D+00 0.00000000D+00
 -------------------------------------------------------------------
 Center     Atomic                   Forces (Hartrees/Bohr)
 Number     Number              X              Y              Z
 -------------------------------------------------------------------
      1        6           0.003791971   -0.001386002   -0.000797595
      2        6           0.000003828   -0.000561052   -0.000238998
      3        1          -0.000271518    0.000232912   -0.000148310
      4        1           0.000157544   -0.000147348   -0.000063971
      5        1          -0.000103787    0.000004128    0.000072667
      6        6           0.000006598    0.000563994   -0.000239478
      7        6           0.003791891    0.001383476   -0.000798273
      8        1          -0.000103390   -0.000003770    0.000073064
      9        1           0.000158543    0.000147639   -0.000064941
     10        1          -0.000270415   -0.000231586   -0.000148844
     11        6          -0.004012148    0.002303608    0.001342864
     12        6          -0.004011311   -0.002303059    0.001342891
     13        1           0.000179052   -0.000297634   -0.000105069
     14        1           0.000250956   -0.000388060   -0.000060514
     15        1           0.000254401    0.000385102   -0.000061214
     16        1           0.000177787    0.000297651   -0.000104277
 -------------------------------------------------------------------
 Cartesian Forces:  Max     0.004012148 RMS     0.001308212
 Z-matrix is all fixed cartesians, so copy forces.
 Leave Link  716 at Sun Apr 28 19:36:07 2024, MaxMem=   104857600 cpu:               0.0 elap:               0.4
 (Enter /mlatom/software/Gaussian/g16-avx2/l123.exe)
 IRC-IRC-IRC-IRC-IRC-IRC-IRC-IRC-IRC-IRC-IRC-IRC-IRC-IRC-IRC-IRC-IRC-IRC
 Pt  1 Step number   1 out of a maximum of  20
 Point Number:   1          Path Number:   1
                    CURRENT STRUCTURE
                Cartesian Coordinates (Ang):                
 ---------------------------------------------------------------------
 Center     Atomic                     Coordinates (Angstroms)
 Number     Number                        X           Y           Z
 ---------------------------------------------------------------------
      1          6                   -0.401072    1.414612    0.494585
      2          6                   -1.291788    0.698343   -0.292803
      3          1                   -0.098433    1.029560    1.460867
      4          1                   -0.334130    2.493618    0.408483
      5          1                   -1.844976    1.220642   -1.069485
      6          6                   -1.291986   -0.698056   -0.292756
      7          6                   -0.401432   -1.414515    0.494640
      8          1                   -1.845333   -1.220249   -1.069396
      9          1                   -0.334769   -2.493542    0.408577
     10          1                   -0.098662   -1.029512    1.460902
     11          6                    1.582886    0.695540   -0.219801
     12          6                    1.582645   -0.695897   -0.219954
     13          1                    2.102106    1.233360    0.566068
     14          1                    1.490710    1.238920   -1.150884
     15          1                    1.490101   -1.239021   -1.151146
     16          1                    2.101780   -1.234090    0.565714
 ---------------------------------------------------------------------
   CHANGE IN THE REACTION COORDINATE =    0.29108
   NET REACTION COORDINATE UP TO THIS POINT =    0.29108
  # OF POINTS ALONG THE PATH =   1
  # OF STEPS =   1

 Calculating another point on the path.
 Point Number  2 in FORWARD path direction.
 Using LQA Reaction Path Following.
   LQA: T_Est iteration completed in    3 iterations.
 IRC-IRC-IRC-IRC-IRC-IRC-IRC-IRC-IRC-IRC-IRC-IRC-IRC-IRC-IRC-IRC-IRC-IRC
 Leave Link  123 at Sun Apr 28 19:36:09 2024, MaxMem=   104857600 cpu:               0.1 elap:               1.1
 (Enter /mlatom/software/Gaussian/g16-avx2/l202.exe)
                          Input orientation:                          
 ---------------------------------------------------------------------
 Center     Atomic      Atomic             Coordinates (Angstroms)
 Number     Number       Type             X           Y           Z
 ---------------------------------------------------------------------
      1          6           0       -0.382115    1.408232    0.488685
      2          6           0       -1.291887    0.694818   -0.293870
      3          1           0       -0.108436    1.033820    1.468548
      4          1           0       -0.322392    2.487623    0.403725
      5          1           0       -1.850095    1.221427   -1.064584
      6          6           0       -1.292078   -0.694525   -0.293826
      7          6           0       -0.382470   -1.408137    0.488733
      8          1           0       -1.850444   -1.221026   -1.064498
      9          1           0       -0.323013   -2.487547    0.403803
     10          1           0       -0.108645   -1.033758    1.468568
     11          6           0        1.562850    0.700977   -0.212814
     12          6           0        1.562617   -0.701337   -0.212962
     13          1           0        2.109874    1.229668    0.561711
     14          1           0        1.500185    1.232459   -1.154563
     15          1           0        1.499636   -1.232603   -1.154813
     16          1           0        2.109536   -1.230387    0.561390
 ---------------------------------------------------------------------
                    Distance matrix (angstroms):
                    1          2          3          4          5
     1  C    0.000000
     2  C    1.396079   0.000000
     3  H    1.084074   2.149789   0.000000
     4  H    1.084376   2.154231   1.814709   0.000000
     5  H    2.145345   1.087619   3.079827   2.468413   0.000000
     6  C    2.421145   1.389343   2.737544   3.398961   2.139234
     7  C    2.816369   2.421142   2.645427   3.897151   3.388411
     8  H    3.388416   2.139232   3.812511   4.271382   2.442453
     9  H    3.897151   3.398957   3.685071   4.975170   4.271373
    10  H    2.645424   2.737558   2.067578   3.685065   3.812527
    11  C    2.185223   2.855894   2.393942   2.669525   3.555921
    12  C    2.953738   3.178677   2.937799   3.755400   4.008601
    13  H    2.499445   3.548247   2.404497   2.742869   4.280918
    14  H    2.504838   2.970777   3.083477   2.706563   3.351506
    15  H    3.635393   3.499825   3.821595   4.425936   4.153445
    16  H    3.629865   4.000945   3.296812   4.445529   4.932936
                    6          7          8          9         10
     6  C    0.000000
     7  C    1.396076   0.000000
     8  H    1.087617   2.145340   0.000000
     9  H    2.154229   1.084377   2.468406   0.000000
    10  H    2.149796   1.084074   3.079830   1.814712   0.000000
    11  C    3.178774   2.953777   4.008745   3.755447   2.937728
    12  C    2.855849   2.185247   3.555865   2.669559   2.393984
    13  H    4.000968   3.629755   4.933009   4.445398   3.296561
    14  H    3.500124   3.635597   4.153844   4.426173   3.821635
    15  H    2.970606   2.504871   3.351318   2.706699   3.083542
    16  H    3.548172   2.499394   4.280776   2.742733   2.404571
                   11         12         13         14         15
    11  C    0.000000
    12  C    1.402314   0.000000
    13  H    1.085652   2.151369   0.000000
    14  H    1.083186   2.151762   1.821353   0.000000
    15  H    2.151764   1.083187   3.062944   2.465062   0.000000
    16  H    2.151377   1.085649   2.460055   3.062909   1.821355
                   16
    16  H    0.000000
 Symmetry turned off by external request.
 Stoichiometry    C6H10
 Framework group  C1[X(C6H10)]
 Deg. of freedom    42
 Full point group                 C1      NOp   1
 Rotational constants (GHZ):           4.4377783           3.5591222           2.3230632
 Leave Link  202 at Sun Apr 28 19:36:13 2024, MaxMem=   104857600 cpu:               0.0 elap:               0.5
 (Enter /mlatom/software/Gaussian/g16-avx2/l301.exe)
 Standard basis: STO-3G (5D, 7F)
 Ernie: Thresh=  0.10000D-02 Tol=  0.10000D-05 Strict=F.
    40 basis functions,   120 primitive gaussians,    40 cartesian basis functions
    23 alpha electrons       23 beta electrons
       nuclear repulsion energy       225.7649549421 Hartrees.
 IExCor=    0 DFT=F Ex=HF Corr=None ExCW=0 ScaHFX=  1.000000
 ScaDFX=  1.000000  1.000000  1.000000  1.000000 ScalE2=  1.000000  1.000000
 IRadAn=      5 IRanWt=     -1 IRanGd=            0 ICorTp=0 IEmpDi=  4
 NAtoms=   16 NActive=   16 NUniq=   16 SFac= 1.00D+00 NAtFMM=   60 NAOKFM=F Big=F
 Integral buffers will be    131072 words long.
 Raffenetti 1 integral format.
 Two-electron integral symmetry is turned off.
 Leave Link  301 at Sun Apr 28 19:36:14 2024, MaxMem=   104857600 cpu:               0.0 elap:               0.4
 (Enter /mlatom/software/Gaussian/g16-avx2/l402.exe)
 External calculation of energy and first derivatives.
 Running external command "/mlatom/software/miniconda3/bin/python /mlatom/software/mlatom/mlatom/interfaces/gaussian_interface.py model_predict_kwargs R"
         input file       "/mlatom/home/qhzhang/git/ts-analysis/calculations/_other/irc/da/ani/irc_1/Gau-43310.EIn"
         output file      "/mlatom/home/qhzhang/git/ts-analysis/calculations/_other/irc/da/ani/irc_1/Gau-43310.EOu"
         message file     "/mlatom/home/qhzhang/git/ts-analysis/calculations/_other/irc/da/ani/irc_1/Gau-43310.EMs"
         fchk file        "/mlatom/home/qhzhang/git/ts-analysis/calculations/_other/irc/da/ani/irc_1/Gau-43310.EFC"
         mat. el file     "/mlatom/home/qhzhang/git/ts-analysis/calculations/_other/irc/da/ani/irc_1/Gau-43310.EUF"
model loaded from /mlatom/home/qhzhang/git/ts-analysis/calculations/_other/irc/da/ani/irc/da_energy_iteration27.npz
 Recovered energy= -234.567783562     dipole=      0.000000000000      0.000000000000      0.000000000000
 Energy=    -234.567784     NIter=   0.
 Dipole moment=       0.000000       0.000000       0.000000
 Leave Link  402 at Sun Apr 28 19:36:20 2024, MaxMem=   104857600 cpu:               0.0 elap:               5.4
 (Enter /mlatom/software/Gaussian/g16-avx2/l716.exe)
 Dipole        = 0.00000000D+00 0.00000000D+00 0.00000000D+00
 -------------------------------------------------------------------
 Center     Atomic                   Forces (Hartrees/Bohr)
 Number     Number              X              Y              Z
 -------------------------------------------------------------------
      1        6           0.010367164   -0.003180083   -0.002047224
      2        6          -0.000460512   -0.002021618   -0.001220161
      3        1          -0.000628131    0.000343734    0.000130816
      4        1           0.000287967    0.000065505   -0.000250006
      5        1          -0.000183008   -0.000111235    0.000352661
      6        6          -0.000457815    0.002023969   -0.001220678
      7        6           0.010368237    0.003177898   -0.002051289
      8        1          -0.000183436    0.000110978    0.000351867
      9        1           0.000288199   -0.000065139   -0.000249831
     10        1          -0.000627825   -0.000343199    0.000131298
     11        6          -0.010384188    0.006753043    0.003447551
     12        6          -0.010383758   -0.006753122    0.003448208
     13        1           0.000395576   -0.000422103   -0.000357382
     14        1           0.000601564   -0.000502445   -0.000055436
     15        1           0.000603545    0.000501722   -0.000054506
     16        1           0.000396423    0.000422096   -0.000355888
 -------------------------------------------------------------------
 Cartesian Forces:  Max     0.010384188 RMS     0.003504967
 Z-matrix is all fixed cartesians, so copy forces.
 Leave Link  716 at Sun Apr 28 19:36:21 2024, MaxMem=   104857600 cpu:               0.0 elap:               0.4
 (Enter /mlatom/software/Gaussian/g16-avx2/l123.exe)
 IRC-IRC-IRC-IRC-IRC-IRC-IRC-IRC-IRC-IRC-IRC-IRC-IRC-IRC-IRC-IRC-IRC-IRC
 Pt  2 Step number   1 out of a maximum of  20
 Point Number:   2          Path Number:   1
                    CURRENT STRUCTURE
                Cartesian Coordinates (Ang):                
 ---------------------------------------------------------------------
 Center     Atomic                     Coordinates (Angstroms)
 Number     Number                        X           Y           Z
 ---------------------------------------------------------------------
      1          6                   -0.382115    1.408232    0.488685
      2          6                   -1.291887    0.694818   -0.293870
      3          1                   -0.108436    1.033820    1.468548
      4          1                   -0.322392    2.487623    0.403725
      5          1                   -1.850095    1.221427   -1.064584
      6          6                   -1.292078   -0.694525   -0.293826
      7          6                   -0.382470   -1.408137    0.488733
      8          1                   -1.850444   -1.221026   -1.064498
      9          1                   -0.323013   -2.487547    0.403803
     10          1                   -0.108645   -1.033758    1.468568
     11          6                    1.562850    0.700977   -0.212814
     12          6                    1.562617   -0.701337   -0.212962
     13          1                    2.109874    1.229668    0.561711
     14          1                    1.500185    1.232459   -1.154563
     15          1                    1.499636   -1.232603   -1.154813
     16          1                    2.109536   -1.230387    0.561390
 ---------------------------------------------------------------------
   CHANGE IN THE REACTION COORDINATE =    0.29040
   NET REACTION COORDINATE UP TO THIS POINT =    0.58147
  # OF POINTS ALONG THE PATH =   2
  # OF STEPS =   1

 Calculating another point on the path.
 Point Number  3 in FORWARD path direction.
 Using LQA Reaction Path Following.
   LQA: T_Est iteration completed in    3 iterations.
 IRC-IRC-IRC-IRC-IRC-IRC-IRC-IRC-IRC-IRC-IRC-IRC-IRC-IRC-IRC-IRC-IRC-IRC
 Leave Link  123 at Sun Apr 28 19:36:23 2024, MaxMem=   104857600 cpu:               0.0 elap:               1.1
 (Enter /mlatom/software/Gaussian/g16-avx2/l202.exe)
                          Input orientation:                          
 ---------------------------------------------------------------------
 Center     Atomic      Atomic             Coordinates (Angstroms)
 Number     Number       Type             X           Y           Z
 ---------------------------------------------------------------------
      1          6           0       -0.363307    1.402654    0.483781
      2          6           0       -1.292310    0.691007   -0.295542
      3          1           0       -0.120707    1.039771    1.477847
      4          1           0       -0.314323    2.483439    0.399088
      5          1           0       -1.855995    1.221583   -1.059399
      6          6           0       -1.292499   -0.690711   -0.295500
      7          6           0       -0.363660   -1.402563    0.483824
      8          1           0       -1.856344   -1.221178   -1.059316
      9          1           0       -0.314940   -2.483363    0.399165
     10          1           0       -0.120914   -1.039702    1.477864
     11          6           0        1.543364    0.709262   -0.206228
     12          6           0        1.543135   -0.709622   -0.206371
     13          1           0        2.120627    1.225696    0.556630
     14          1           0        1.512579    1.226782   -1.159444
     15          1           0        1.512059   -1.226947   -1.159685
     16          1           0        2.120300   -1.226408    0.556322
 ---------------------------------------------------------------------
                    Distance matrix (angstroms):
                    1          2          3          4          5
     1  C    0.000000
     2  C    1.405999   0.000000
     3  H    1.085683   2.153880   0.000000
     4  H    1.085205   2.156799   1.812564   0.000000
     5  H    2.154602   1.087534   3.079269   2.469052   0.000000
     6  C    2.419267   1.381718   2.740880   3.393304   2.134933
     7  C    2.805217   2.419264   2.648038   3.887239   3.390390
     8  H    3.390398   2.134932   3.815956   4.269538   2.442761
     9  H    3.887239   3.393301   3.689682   4.966802   4.269530
    10  H    2.648029   2.740892   2.079473   3.689673   3.815969
    11  C    2.142965   2.837140   2.390497   2.639150   3.542036
    12  C    2.927890   3.163773   2.943694   3.743310   4.001411
    13  H    2.491295   3.558122   2.430389   2.745127   4.292446
    14  H    2.500013   2.983419   3.107716   2.710310   3.370063
    15  H    3.623917   3.505678   3.841941   4.419549   4.165230
    16  H    3.617393   4.006003   3.317663   4.440167   4.941066
                    6          7          8          9         10
     6  C    0.000000
     7  C    1.405995   0.000000
     8  H    1.087535   2.154597   0.000000
     9  H    2.156799   1.085205   2.469049   0.000000
    10  H    2.153886   1.085684   3.079275   1.812566   0.000000
    11  C    3.163861   2.927920   4.001546   3.743347   2.943614
    12  C    2.837097   2.142989   3.541985   2.639180   2.390535
    13  H    4.006017   3.617282   4.941131   4.440034   3.317410
    14  H    3.505944   3.624094   4.165594   4.419758   3.841958
    15  H    2.983272   2.500057   3.369902   2.710447   3.107785
    16  H    3.558057   2.491253   4.292319   2.745000   2.430461
                   11         12         13         14         15
    11  C    0.000000
    12  C    1.418884   0.000000
    13  H    1.087147   2.158964   0.000000
    14  H    1.085079   2.158458   1.820614   0.000000
    15  H    2.158464   1.085080   3.054759   2.453729   0.000000
    16  H    2.158971   1.087147   2.452104   3.054721   1.820615
                   16
    16  H    0.000000
 Symmetry turned off by external request.
 Stoichiometry    C6H10
 Framework group  C1[X(C6H10)]
 Deg. of freedom    42
 Full point group                 C1      NOp   1
 Rotational constants (GHZ):           4.4533492           3.6016516           2.3430052
 Leave Link  202 at Sun Apr 28 19:36:26 2024, MaxMem=   104857600 cpu:               0.0 elap:               0.5
 (Enter /mlatom/software/Gaussian/g16-avx2/l301.exe)
 Standard basis: STO-3G (5D, 7F)
 Ernie: Thresh=  0.10000D-02 Tol=  0.10000D-05 Strict=F.
    40 basis functions,   120 primitive gaussians,    40 cartesian basis functions
    23 alpha electrons       23 beta electrons
       nuclear repulsion energy       226.1005457110 Hartrees.
 IExCor=    0 DFT=F Ex=HF Corr=None ExCW=0 ScaHFX=  1.000000
 ScaDFX=  1.000000  1.000000  1.000000  1.000000 ScalE2=  1.000000  1.000000
 IRadAn=      5 IRanWt=     -1 IRanGd=            0 ICorTp=0 IEmpDi=  4
 NAtoms=   16 NActive=   16 NUniq=   16 SFac= 1.00D+00 NAtFMM=   60 NAOKFM=F Big=F
 Integral buffers will be    131072 words long.
 Raffenetti 1 integral format.
 Two-electron integral symmetry is turned off.
 Leave Link  301 at Sun Apr 28 19:36:27 2024, MaxMem=   104857600 cpu:               0.1 elap:               0.4
 (Enter /mlatom/software/Gaussian/g16-avx2/l402.exe)
 External calculation of energy and first derivatives.
 Running external command "/mlatom/software/miniconda3/bin/python /mlatom/software/mlatom/mlatom/interfaces/gaussian_interface.py model_predict_kwargs R"
         input file       "/mlatom/home/qhzhang/git/ts-analysis/calculations/_other/irc/da/ani/irc_1/Gau-43310.EIn"
         output file      "/mlatom/home/qhzhang/git/ts-analysis/calculations/_other/irc/da/ani/irc_1/Gau-43310.EOu"
         message file     "/mlatom/home/qhzhang/git/ts-analysis/calculations/_other/irc/da/ani/irc_1/Gau-43310.EMs"
         fchk file        "/mlatom/home/qhzhang/git/ts-analysis/calculations/_other/irc/da/ani/irc_1/Gau-43310.EFC"
         mat. el file     "/mlatom/home/qhzhang/git/ts-analysis/calculations/_other/irc/da/ani/irc_1/Gau-43310.EUF"
model loaded from /mlatom/home/qhzhang/git/ts-analysis/calculations/_other/irc/da/ani/irc/da_energy_iteration27.npz
 Recovered energy= -234.570506455     dipole=      0.000000000000      0.000000000000      0.000000000000
 Energy=    -234.570506     NIter=   0.
 Dipole moment=       0.000000       0.000000       0.000000
 Leave Link  402 at Sun Apr 28 19:36:33 2024, MaxMem=   104857600 cpu:               0.0 elap:               5.2
 (Enter /mlatom/software/Gaussian/g16-avx2/l716.exe)
 Dipole        = 0.00000000D+00 0.00000000D+00 0.00000000D+00
 -------------------------------------------------------------------
 Center     Atomic                   Forces (Hartrees/Bohr)
 Number     Number              X              Y              Z
 -------------------------------------------------------------------
      1        6           0.018843625   -0.004726951   -0.003338105
      2        6          -0.000929329   -0.003455663   -0.002330401
      3        1          -0.001393279    0.000512714    0.000420890
      4        1           0.000201848    0.000074625   -0.000380614
      5        1          -0.000465752    0.000001334    0.000468575
      6        6          -0.000927542    0.003457825   -0.002333429
      7        6           0.018846564    0.004723792   -0.003340939
      8        1          -0.000465293   -0.000000764    0.000468760
      9        1           0.000201841   -0.000074232   -0.000380799
     10        1          -0.001392894   -0.000512557    0.000420129
     11        6          -0.016779678    0.006887087    0.005401791
     12        6          -0.016778121   -0.006886784    0.005406044
     13        1           0.000095607   -0.000671722   -0.000774604
     14        1           0.000422039   -0.000708983    0.000533125
     15        1           0.000423905    0.000707690    0.000533454
     16        1           0.000096462    0.000672588   -0.000773872
 -------------------------------------------------------------------
 Cartesian Forces:  Max     0.018846564 RMS     0.005664455
 Z-matrix is all fixed cartesians, so copy forces.
 Leave Link  716 at Sun Apr 28 19:36:34 2024, MaxMem=   104857600 cpu:               0.0 elap:               0.4
 (Enter /mlatom/software/Gaussian/g16-avx2/l123.exe)
 IRC-IRC-IRC-IRC-IRC-IRC-IRC-IRC-IRC-IRC-IRC-IRC-IRC-IRC-IRC-IRC-IRC-IRC
 Pt  3 Step number   1 out of a maximum of  20
 Point Number:   3          Path Number:   1
                    CURRENT STRUCTURE
                Cartesian Coordinates (Ang):                
 ---------------------------------------------------------------------
 Center     Atomic                     Coordinates (Angstroms)
 Number     Number                        X           Y           Z
 ---------------------------------------------------------------------
      1          6                   -0.363307    1.402654    0.483781
      2          6                   -1.292310    0.691007   -0.295542
      3          1                   -0.120707    1.039771    1.477847
      4          1                   -0.314323    2.483439    0.399088
      5          1                   -1.855995    1.221583   -1.059399
      6          6                   -1.292499   -0.690711   -0.295500
      7          6                   -0.363660   -1.402563    0.483824
      8          1                   -1.856344   -1.221178   -1.059316
      9          1                   -0.314940   -2.483363    0.399165
     10          1                   -0.120914   -1.039702    1.477864
     11          6                    1.543364    0.709262   -0.206228
     12          6                    1.543135   -0.709622   -0.206371
     13          1                    2.120627    1.225696    0.556630
     14          1                    1.512579    1.226782   -1.159444
     15          1                    1.512059   -1.226947   -1.159685
     16          1                    2.120300   -1.226408    0.556322
 ---------------------------------------------------------------------
   CHANGE IN THE REACTION COORDINATE =    0.29067
   NET REACTION COORDINATE UP TO THIS POINT =    0.87214
  # OF POINTS ALONG THE PATH =   3
  # OF STEPS =   1

 Calculating another point on the path.
 Point Number  4 in FORWARD path direction.
 Using LQA Reaction Path Following.
   LQA: T_Est iteration completed in    3 iterations.
 IRC-IRC-IRC-IRC-IRC-IRC-IRC-IRC-IRC-IRC-IRC-IRC-IRC-IRC-IRC-IRC-IRC-IRC
 Leave Link  123 at Sun Apr 28 19:36:36 2024, MaxMem=   104857600 cpu:               0.1 elap:               1.1
 (Enter /mlatom/software/Gaussian/g16-avx2/l202.exe)
                          Input orientation:                          
 ---------------------------------------------------------------------
 Center     Atomic      Atomic             Coordinates (Angstroms)
 Number     Number       Type             X           Y           Z
 ---------------------------------------------------------------------
      1          6           0       -0.343080    1.397431    0.479221
      2          6           0       -1.292862    0.687331   -0.297732
      3          1           0       -0.137149    1.046105    1.488478
      4          1           0       -0.309592    2.480431    0.394725
      5          1           0       -1.862769    1.222459   -1.054015
      6          6           0       -1.293049   -0.687032   -0.297693
      7          6           0       -0.343430   -1.397343    0.479260
      8          1           0       -1.863115   -1.222049   -1.053934
      9          1           0       -0.310207   -2.480352    0.394799
     10          1           0       -0.137349   -1.046031    1.488491
     11          6           0        1.524227    0.716112   -0.199956
     12          6           0        1.523999   -0.716472   -0.200095
     13          1           0        2.126766    1.220926    0.551640
     14          1           0        1.518451    1.221661   -1.160395
     15          1           0        1.517952   -1.221841   -1.160631
     16          1           0        2.126449   -1.221630    0.551341
 ---------------------------------------------------------------------
                    Distance matrix (angstroms):
                    1          2          3          4          5
     1  C    0.000000
     2  C    1.417739   0.000000
     3  H    1.088319   2.157531   0.000000
     4  H    1.086807   2.159056   1.811994   0.000000
     5  H    2.165845   1.087713   3.077847   2.468542   0.000000
     6  C    2.418889   1.374363   2.744135   3.388134   2.131375
     7  C    2.794774   2.418885   2.651700   3.878842   3.394508
     8  H    3.394517   2.131375   3.819338   4.268536   2.444508
     9  H    3.878841   3.388130   3.696212   4.960783   4.268527
    10  H    2.651689   2.744148   2.092136   3.696204   3.819353
    11  C    2.100550   2.818933   2.391627   2.613304   3.529525
    12  C    2.901041   3.148794   2.952519   3.733102   3.994851
    13  H    2.477203   3.563708   2.456326   2.747147   4.300526
    14  H    2.486872   2.988842   3.128635   2.710100   3.382893
    15  H    3.607373   3.505739   3.860145   4.412014   4.173157
    16  H    3.600452   4.007087   3.338372   4.434420   4.946171
                    6          7          8          9         10
     6  C    0.000000
     7  C    1.417735   0.000000
     8  H    1.087713   2.165839   0.000000
     9  H    2.159055   1.086806   2.468538   0.000000
    10  H    2.157539   1.088318   3.077853   1.811993   0.000000
    11  C    3.148875   2.901064   3.994976   3.733132   2.952430
    12  C    2.818892   2.100572   3.529475   2.613329   2.391655
    13  H    4.007094   3.600339   4.946225   4.434286   3.338113
    14  H    3.505980   3.607527   4.173492   4.412201   3.860142
    15  H    2.988713   2.486923   3.382750   2.710236   3.128702
    16  H    3.563653   2.477171   4.300411   2.747031   2.456394
                   11         12         13         14         15
    11  C    0.000000
    12  C    1.432584   0.000000
    13  H    1.087560   2.163780   0.000000
    14  H    1.085383   2.162999   1.816897   0.000000
    15  H    2.163007   1.085386   3.044608   2.443502   0.000000
    16  H    2.163785   1.087561   2.442556   3.044565   1.816898
                   16
    16  H    0.000000
 Symmetry turned off by external request.
 Stoichiometry    C6H10
 Framework group  C1[X(C6H10)]
 Deg. of freedom    42
 Full point group                 C1      NOp   1
 Rotational constants (GHZ):           4.4687926           3.6454075           2.3634321
 Leave Link  202 at Sun Apr 28 19:36:39 2024, MaxMem=   104857600 cpu:               0.0 elap:               0.5
 (Enter /mlatom/software/Gaussian/g16-avx2/l301.exe)
 Standard basis: STO-3G (5D, 7F)
 Ernie: Thresh=  0.10000D-02 Tol=  0.10000D-05 Strict=F.
    40 basis functions,   120 primitive gaussians,    40 cartesian basis functions
    23 alpha electrons       23 beta electrons
       nuclear repulsion energy       226.4691977940 Hartrees.
 IExCor=    0 DFT=F Ex=HF Corr=None ExCW=0 ScaHFX=  1.000000
 ScaDFX=  1.000000  1.000000  1.000000  1.000000 ScalE2=  1.000000  1.000000
 IRadAn=      5 IRanWt=     -1 IRanGd=            0 ICorTp=0 IEmpDi=  4
 NAtoms=   16 NActive=   16 NUniq=   16 SFac= 1.00D+00 NAtFMM=   60 NAOKFM=F Big=F
 Integral buffers will be    131072 words long.
 Raffenetti 1 integral format.
 Two-electron integral symmetry is turned off.
 Leave Link  301 at Sun Apr 28 19:36:41 2024, MaxMem=   104857600 cpu:               0.0 elap:               0.8
 (Enter /mlatom/software/Gaussian/g16-avx2/l402.exe)
 External calculation of energy and first derivatives.
 Running external command "/mlatom/software/miniconda3/bin/python /mlatom/software/mlatom/mlatom/interfaces/gaussian_interface.py model_predict_kwargs R"
         input file       "/mlatom/home/qhzhang/git/ts-analysis/calculations/_other/irc/da/ani/irc_1/Gau-43310.EIn"
         output file      "/mlatom/home/qhzhang/git/ts-analysis/calculations/_other/irc/da/ani/irc_1/Gau-43310.EOu"
         message file     "/mlatom/home/qhzhang/git/ts-analysis/calculations/_other/irc/da/ani/irc_1/Gau-43310.EMs"
         fchk file        "/mlatom/home/qhzhang/git/ts-analysis/calculations/_other/irc/da/ani/irc_1/Gau-43310.EFC"
         mat. el file     "/mlatom/home/qhzhang/git/ts-analysis/calculations/_other/irc/da/ani/irc_1/Gau-43310.EUF"
model loaded from /mlatom/home/qhzhang/git/ts-analysis/calculations/_other/irc/da/ani/irc/da_energy_iteration27.npz
 Recovered energy= -234.574409799     dipole=      0.000000000000      0.000000000000      0.000000000000
 Energy=    -234.574410     NIter=   0.
 Dipole moment=       0.000000       0.000000       0.000000
 Leave Link  402 at Sun Apr 28 19:36:48 2024, MaxMem=   104857600 cpu:               0.0 elap:               6.7
 (Enter /mlatom/software/Gaussian/g16-avx2/l716.exe)
 Dipole        = 0.00000000D+00 0.00000000D+00 0.00000000D+00
 -------------------------------------------------------------------
 Center     Atomic                   Forces (Hartrees/Bohr)
 Number     Number              X              Y              Z
 -------------------------------------------------------------------
      1        6           0.023927739   -0.006666286   -0.004554740
      2        6          -0.000212856   -0.003477881   -0.002889517
      3        1          -0.001630637    0.001094060   -0.000344942
      4        1           0.000589343   -0.000255225   -0.000371829
      5        1          -0.000609438    0.000078061    0.000959022
      6        6          -0.000211276    0.003479862   -0.002891289
      7        6           0.023932005    0.006661460   -0.004559125
      8        1          -0.000609059   -0.000077322    0.000958569
      9        1           0.000589221    0.000254873   -0.000372255
     10        1          -0.001630604   -0.001093298   -0.000344284
     11        6          -0.022768371    0.007712821    0.007750088
     12        6          -0.022765893   -0.007711837    0.007755106
     13        1           0.000313123   -0.000627438   -0.000666214
     14        1           0.000386321   -0.000467160    0.000118001
     15        1           0.000386674    0.000466725    0.000119572
     16        1           0.000313709    0.000628587   -0.000666163
 -------------------------------------------------------------------
 Cartesian Forces:  Max     0.023932005 RMS     0.007369356
 Z-matrix is all fixed cartesians, so copy forces.
 Leave Link  716 at Sun Apr 28 19:36:49 2024, MaxMem=   104857600 cpu:               0.0 elap:               0.5
 (Enter /mlatom/software/Gaussian/g16-avx2/l123.exe)
 IRC-IRC-IRC-IRC-IRC-IRC-IRC-IRC-IRC-IRC-IRC-IRC-IRC-IRC-IRC-IRC-IRC-IRC
 Pt  4 Step number   1 out of a maximum of  20
 Point Number:   4          Path Number:   1
                    CURRENT STRUCTURE
                Cartesian Coordinates (Ang):                
 ---------------------------------------------------------------------
 Center     Atomic                     Coordinates (Angstroms)
 Number     Number                        X           Y           Z
 ---------------------------------------------------------------------
      1          6                   -0.343080    1.397431    0.479221
      2          6                   -1.292862    0.687331   -0.297732
      3          1                   -0.137149    1.046105    1.488478
      4          1                   -0.309592    2.480431    0.394725
      5          1                   -1.862769    1.222459   -1.054015
      6          6                   -1.293049   -0.687032   -0.297693
      7          6                   -0.343430   -1.397343    0.479260
      8          1                   -1.863115   -1.222049   -1.053934
      9          1                   -0.310207   -2.480352    0.394799
     10          1                   -0.137349   -1.046031    1.488491
     11          6                    1.524227    0.716112   -0.199956
     12          6                    1.523999   -0.716472   -0.200095
     13          1                    2.126766    1.220926    0.551640
     14          1                    1.518451    1.221661   -1.160395
     15          1                    1.517952   -1.221841   -1.160631
     16          1                    2.126449   -1.221630    0.551341
 ---------------------------------------------------------------------
   CHANGE IN THE REACTION COORDINATE =    0.29083
   NET REACTION COORDINATE UP TO THIS POINT =    1.16296
  # OF POINTS ALONG THE PATH =   4
  # OF STEPS =   1

 Calculating another point on the path.
 Point Number  5 in FORWARD path direction.
 Using LQA Reaction Path Following.
   LQA: T_Est iteration completed in    3 iterations.
 IRC-IRC-IRC-IRC-IRC-IRC-IRC-IRC-IRC-IRC-IRC-IRC-IRC-IRC-IRC-IRC-IRC-IRC
 Leave Link  123 at Sun Apr 28 19:36:51 2024, MaxMem=   104857600 cpu:               0.0 elap:               1.1
 (Enter /mlatom/software/Gaussian/g16-avx2/l202.exe)
                          Input orientation:                          
 ---------------------------------------------------------------------
 Center     Atomic      Atomic             Coordinates (Angstroms)
 Number     Number       Type             X           Y           Z
 ---------------------------------------------------------------------
      1          6           0       -0.323034    1.392083    0.474410
      2          6           0       -1.292779    0.684180   -0.299995
      3          1           0       -0.150270    1.053008    1.494469
      4          1           0       -0.302959    2.476966    0.390706
      5          1           0       -1.870649    1.224498   -1.045966
      6          6           0       -1.292964   -0.683880   -0.299957
      7          6           0       -0.323380   -1.392000    0.474446
      8          1           0       -1.870991   -1.224081   -1.045890
      9          1           0       -0.303574   -2.476889    0.390776
     10          1           0       -0.150471   -1.052930    1.494483
     11          6           0        1.504554    0.722488   -0.193332
     12          6           0        1.504327   -0.722845   -0.193467
     13          1           0        2.131662    1.216066    0.547183
     14          1           0        1.522454    1.217557   -1.160616
     15          1           0        1.521956   -1.217746   -1.160842
     16          1           0        2.131354   -1.216764    0.546888
 ---------------------------------------------------------------------
                    Distance matrix (angstroms):
                    1          2          3          4          5
     1  C    0.000000
     2  C    1.428719   0.000000
     3  H    1.088732   2.159042   0.000000
     4  H    1.088293   2.161225   1.808110   0.000000
     5  H    2.175946   1.087359   3.072934   2.467864   0.000000
     6  C    2.418684   1.368059   2.746360   3.383500   2.128885
     7  C    2.784083   2.418680   2.654897   3.869926   3.398787
     8  H    3.398794   2.128884   3.820921   4.268522   2.448578
     9  H    3.869925   3.383497   3.701597   4.953856   4.268514
    10  H    2.654885   2.746374   2.105938   3.701587   3.820938
    11  C    2.057745   2.799628   2.386704   2.585807   3.517242
    12  C    2.873713   3.132870   2.956429   3.721067   3.988654
    13  H    2.462074   3.567549   2.476116   2.746222   4.307747
    14  H    2.471759   2.991771   3.142380   2.706445   3.395046
    15  H    3.590160   3.504442   3.873415   4.403239   4.181808
    16  H    3.582647   4.006930   3.354935   4.426502   4.951058
                    6          7          8          9         10
     6  C    0.000000
     7  C    1.428715   0.000000
     8  H    1.087359   2.175941   0.000000
     9  H    2.161224   1.088292   2.467860   0.000000
    10  H    2.159052   1.088734   3.072943   1.808113   0.000000
    11  C    3.132946   2.873731   3.988771   3.721092   2.956338
    12  C    2.799589   2.057763   3.517192   2.585831   2.386732
    13  H    4.006932   3.582531   4.951103   4.426370   3.354676
    14  H    3.504679   3.590309   4.182131   4.403422   3.873414
    15  H    2.991641   2.471801   3.394900   2.706570   3.142440
    16  H    3.567502   2.462047   4.307640   2.746118   2.476188
                   11         12         13         14         15
    11  C    0.000000
    12  C    1.445333   0.000000
    13  H    1.088689   2.168291   0.000000
    14  H    1.086762   2.168148   1.813205   0.000000
    15  H    2.168153   1.086763   3.035215   2.435303   0.000000
    16  H    2.168295   1.088689   2.432830   3.035168   1.813204
                   16
    16  H    0.000000
 Symmetry turned off by external request.
 Stoichiometry    C6H10
 Framework group  C1[X(C6H10)]
 Deg. of freedom    42
 Full point group                 C1      NOp   1
 Rotational constants (GHZ):           4.4862088           3.6929289           2.3846958
 Leave Link  202 at Sun Apr 28 19:36:54 2024, MaxMem=   104857600 cpu:               0.0 elap:               0.5
 (Enter /mlatom/software/Gaussian/g16-avx2/l301.exe)
 Standard basis: STO-3G (5D, 7F)
 Ernie: Thresh=  0.10000D-02 Tol=  0.10000D-05 Strict=F.
    40 basis functions,   120 primitive gaussians,    40 cartesian basis functions
    23 alpha electrons       23 beta electrons
       nuclear repulsion energy       226.9262110262 Hartrees.
 IExCor=    0 DFT=F Ex=HF Corr=None ExCW=0 ScaHFX=  1.000000
 ScaDFX=  1.000000  1.000000  1.000000  1.000000 ScalE2=  1.000000  1.000000
 IRadAn=      5 IRanWt=     -1 IRanGd=            0 ICorTp=0 IEmpDi=  4
 NAtoms=   16 NActive=   16 NUniq=   16 SFac= 1.00D+00 NAtFMM=   60 NAOKFM=F Big=F
 Integral buffers will be    131072 words long.
 Raffenetti 1 integral format.
 Two-electron integral symmetry is turned off.
 Leave Link  301 at Sun Apr 28 19:36:55 2024, MaxMem=   104857600 cpu:               0.1 elap:               0.4
 (Enter /mlatom/software/Gaussian/g16-avx2/l402.exe)
 External calculation of energy and first derivatives.
 Running external command "/mlatom/software/miniconda3/bin/python /mlatom/software/mlatom/mlatom/interfaces/gaussian_interface.py model_predict_kwargs R"
         input file       "/mlatom/home/qhzhang/git/ts-analysis/calculations/_other/irc/da/ani/irc_1/Gau-43310.EIn"
         output file      "/mlatom/home/qhzhang/git/ts-analysis/calculations/_other/irc/da/ani/irc_1/Gau-43310.EOu"
         message file     "/mlatom/home/qhzhang/git/ts-analysis/calculations/_other/irc/da/ani/irc_1/Gau-43310.EMs"
         fchk file        "/mlatom/home/qhzhang/git/ts-analysis/calculations/_other/irc/da/ani/irc_1/Gau-43310.EFC"
         mat. el file     "/mlatom/home/qhzhang/git/ts-analysis/calculations/_other/irc/da/ani/irc_1/Gau-43310.EUF"
model loaded from /mlatom/home/qhzhang/git/ts-analysis/calculations/_other/irc/da/ani/irc/da_energy_iteration27.npz
 Recovered energy= -234.579323461     dipole=      0.000000000000      0.000000000000      0.000000000000
 Energy=    -234.579323     NIter=   0.
 Dipole moment=       0.000000       0.000000       0.000000
 Leave Link  402 at Sun Apr 28 19:37:02 2024, MaxMem=   104857600 cpu:               0.0 elap:               5.9
 (Enter /mlatom/software/Gaussian/g16-avx2/l716.exe)
 Dipole        = 0.00000000D+00 0.00000000D+00 0.00000000D+00
 -------------------------------------------------------------------
 Center     Atomic                   Forces (Hartrees/Bohr)
 Number     Number              X              Y              Z
 -------------------------------------------------------------------
      1        6           0.028652232   -0.008024135   -0.007148331
      2        6           0.000744705   -0.003495317   -0.003103023
      3        1          -0.001409892    0.001093680   -0.000052593
      4        1           0.000930119   -0.000578492   -0.000431709
      5        1          -0.000886913    0.000181830    0.001242941
      6        6           0.000746413    0.003497553   -0.003104917
      7        6           0.028656373    0.008018330   -0.007151969
      8        1          -0.000886647   -0.000181433    0.001242367
      9        1           0.000930310    0.000578076   -0.000432055
     10        1          -0.001410167   -0.001093285   -0.000053087
     11        6          -0.028974336    0.011258248    0.010193353
     12        6          -0.028973063   -0.011254521    0.010199502
     13        1           0.000424787   -0.000649209   -0.001016757
     14        1           0.000515035   -0.000467047    0.000316466
     15        1           0.000515233    0.000465524    0.000316408
     16        1           0.000425810    0.000650196   -0.001016599
 -------------------------------------------------------------------
 Cartesian Forces:  Max     0.028974336 RMS     0.009215598
 Z-matrix is all fixed cartesians, so copy forces.
 Leave Link  716 at Sun Apr 28 19:37:03 2024, MaxMem=   104857600 cpu:               0.0 elap:               0.4
 (Enter /mlatom/software/Gaussian/g16-avx2/l123.exe)
 IRC-IRC-IRC-IRC-IRC-IRC-IRC-IRC-IRC-IRC-IRC-IRC-IRC-IRC-IRC-IRC-IRC-IRC
 Pt  5 Step number   1 out of a maximum of  20
 Point Number:   5          Path Number:   1
                    CURRENT STRUCTURE
                Cartesian Coordinates (Ang):                
 ---------------------------------------------------------------------
 Center     Atomic                     Coordinates (Angstroms)
 Number     Number                        X           Y           Z
 ---------------------------------------------------------------------
      1          6                   -0.323034    1.392083    0.474410
      2          6                   -1.292779    0.684180   -0.299995
      3          1                   -0.150270    1.053008    1.494469
      4          1                   -0.302959    2.476966    0.390706
      5          1                   -1.870649    1.224498   -1.045966
      6          6                   -1.292964   -0.683880   -0.299957
      7          6                   -0.323380   -1.392000    0.474446
      8          1                   -1.870991   -1.224081   -1.045890
      9          1                   -0.303574   -2.476889    0.390776
     10          1                   -0.150471   -1.052930    1.494483
     11          6                    1.504554    0.722488   -0.193332
     12          6                    1.504327   -0.722845   -0.193467
     13          1                    2.131662    1.216066    0.547183
     14          1                    1.522454    1.217557   -1.160616
     15          1                    1.521956   -1.217746   -1.160842
     16          1                    2.131354   -1.216764    0.546888
 ---------------------------------------------------------------------
   CHANGE IN THE REACTION COORDINATE =    0.29088
   NET REACTION COORDINATE UP TO THIS POINT =    1.45384
  # OF POINTS ALONG THE PATH =   5
  # OF STEPS =   1

 Calculating another point on the path.
 Point Number  6 in FORWARD path direction.
 Using LQA Reaction Path Following.
   LQA: T_Est iteration completed in    3 iterations.
 IRC-IRC-IRC-IRC-IRC-IRC-IRC-IRC-IRC-IRC-IRC-IRC-IRC-IRC-IRC-IRC-IRC-IRC
 Leave Link  123 at Sun Apr 28 19:37:05 2024, MaxMem=   104857600 cpu:               0.0 elap:               1.1
 (Enter /mlatom/software/Gaussian/g16-avx2/l202.exe)
                          Input orientation:                          
 ---------------------------------------------------------------------
 Center     Atomic      Atomic             Coordinates (Angstroms)
 Number     Number       Type             X           Y           Z
 ---------------------------------------------------------------------
      1          6           0       -0.303578    1.386808    0.469143
      2          6           0       -1.292178    0.681572   -0.302046
      3          1           0       -0.160242    1.059739    1.498191
      4          1           0       -0.295057    2.472968    0.386802
      5          1           0       -1.879077    1.226789   -1.036690
      6          6           0       -1.292362   -0.681271   -0.302009
      7          6           0       -0.303922   -1.386729    0.469177
      8          1           0       -1.879417   -1.226368   -1.036617
      9          1           0       -0.295671   -2.472893    0.386870
     10          1           0       -0.160442   -1.059656    1.498204
     11          6           0        1.484621    0.729789   -0.186365
     12          6           0        1.484395   -0.730143   -0.186497
     13          1           0        2.136774    1.212354    0.541376
     14          1           0        1.526332    1.214570   -1.159711
     15          1           0        1.525837   -1.214769   -1.159934
     16          1           0        2.136477   -1.213048    0.541084
 ---------------------------------------------------------------------
                    Distance matrix (angstroms):
                    1          2          3          4          5
     1  C    0.000000
     2  C    1.438549   0.000000
     3  H    1.089246   2.159895   0.000000
     4  H    1.089310   2.162837   1.802936   0.000000
     5  H    2.185255   1.086928   3.067233   2.467470   0.000000
     6  C    2.418537   1.362843   2.748369   3.379098   2.127130
     7  C    2.773537   2.418533   2.657954   3.860586   3.402826
     8  H    3.402833   2.127129   3.821924   4.268654   2.453158
     9  H    3.860586   3.379095   3.705788   4.945861   4.268647
    10  H    2.657939   2.748382   2.119396   3.705775   3.821940
    11  C    2.014701   2.779626   2.377429   2.556257   3.504929
    12  C    2.847489   3.116994   2.957479   3.708780   3.983134
    13  H    2.447646   3.570828   2.493004   2.743510   4.314807
    14  H    2.455892   2.993941   3.151658   2.700505   3.407653
    15  H    3.573353   3.503325   3.883539   4.394024   4.191638
    16  H    3.566271   4.007010   3.369945   4.418470   4.956495
                    6          7          8          9         10
     6  C    0.000000
     7  C    1.438546   0.000000
     8  H    1.086928   2.185250   0.000000
     9  H    2.162836   1.089310   2.467466   0.000000
    10  H    2.159904   1.089247   3.067243   1.802939   0.000000
    11  C    3.117066   2.847502   3.983243   3.708802   2.957384
    12  C    2.779589   2.014718   3.504878   2.556278   2.377453
    13  H    4.007006   3.566153   4.956533   4.418338   3.369682
    14  H    3.503556   3.573494   4.191952   4.394200   3.883533
    15  H    2.993810   2.455929   3.407505   2.700624   3.151712
    16  H    3.570788   2.447627   4.314709   2.743416   2.493079
                   11         12         13         14         15
    11  C    0.000000
    12  C    1.459932   0.000000
    13  H    1.089854   2.174557   0.000000
    14  H    1.088189   2.175044   1.807303   0.000000
    15  H    2.175049   1.088191   3.026322   2.429339   0.000000
    16  H    2.174560   1.089853   2.425402   3.026270   1.807303
                   16
    16  H    0.000000
 Symmetry turned off by external request.
 Stoichiometry    C6H10
 Framework group  C1[X(C6H10)]
 Deg. of freedom    42
 Full point group                 C1      NOp   1
 Rotational constants (GHZ):           4.5030034           3.7428274           2.4055251
 Leave Link  202 at Sun Apr 28 19:37:08 2024, MaxMem=   104857600 cpu:               0.0 elap:               0.5
 (Enter /mlatom/software/Gaussian/g16-avx2/l301.exe)
 Standard basis: STO-3G (5D, 7F)
 Ernie: Thresh=  0.10000D-02 Tol=  0.10000D-05 Strict=F.
    40 basis functions,   120 primitive gaussians,    40 cartesian basis functions
    23 alpha electrons       23 beta electrons
       nuclear repulsion energy       227.4148962957 Hartrees.
 IExCor=    0 DFT=F Ex=HF Corr=None ExCW=0 ScaHFX=  1.000000
 ScaDFX=  1.000000  1.000000  1.000000  1.000000 ScalE2=  1.000000  1.000000
 IRadAn=      5 IRanWt=     -1 IRanGd=            0 ICorTp=0 IEmpDi=  4
 NAtoms=   16 NActive=   16 NUniq=   16 SFac= 1.00D+00 NAtFMM=   60 NAOKFM=F Big=F
 Integral buffers will be    131072 words long.
 Raffenetti 1 integral format.
 Two-electron integral symmetry is turned off.
 Leave Link  301 at Sun Apr 28 19:37:09 2024, MaxMem=   104857600 cpu:               0.0 elap:               0.4
 (Enter /mlatom/software/Gaussian/g16-avx2/l402.exe)
 External calculation of energy and first derivatives.
 Running external command "/mlatom/software/miniconda3/bin/python /mlatom/software/mlatom/mlatom/interfaces/gaussian_interface.py model_predict_kwargs R"
         input file       "/mlatom/home/qhzhang/git/ts-analysis/calculations/_other/irc/da/ani/irc_1/Gau-43310.EIn"
         output file      "/mlatom/home/qhzhang/git/ts-analysis/calculations/_other/irc/da/ani/irc_1/Gau-43310.EOu"
         message file     "/mlatom/home/qhzhang/git/ts-analysis/calculations/_other/irc/da/ani/irc_1/Gau-43310.EMs"
         fchk file        "/mlatom/home/qhzhang/git/ts-analysis/calculations/_other/irc/da/ani/irc_1/Gau-43310.EFC"
         mat. el file     "/mlatom/home/qhzhang/git/ts-analysis/calculations/_other/irc/da/ani/irc_1/Gau-43310.EUF"
model loaded from /mlatom/home/qhzhang/git/ts-analysis/calculations/_other/irc/da/ani/irc/da_energy_iteration27.npz
 Recovered energy= -234.585265213     dipole=      0.000000000000      0.000000000000      0.000000000000
 Energy=    -234.585265     NIter=   0.
 Dipole moment=       0.000000       0.000000       0.000000
 Leave Link  402 at Sun Apr 28 19:37:14 2024, MaxMem=   104857600 cpu:               0.0 elap:               4.8
 (Enter /mlatom/software/Gaussian/g16-avx2/l716.exe)
 Dipole        = 0.00000000D+00 0.00000000D+00 0.00000000D+00
 -------------------------------------------------------------------
 Center     Atomic                   Forces (Hartrees/Bohr)
 Number     Number              X              Y              Z
 -------------------------------------------------------------------
      1        6           0.032804025   -0.008387691   -0.008677476
      2        6           0.001092643   -0.004600270   -0.003842772
      3        1          -0.001196365    0.000809618    0.000034817
      4        1           0.001157061   -0.000595047   -0.000654181
      5        1          -0.001129217    0.000250941    0.001706561
      6        6           0.001094871    0.004602274   -0.003844849
      7        6           0.032808941    0.008381219   -0.008682281
      8        1          -0.001129114   -0.000250466    0.001705957
      9        1           0.001157357    0.000594823   -0.000654465
     10        1          -0.001196381   -0.000809210    0.000034860
     11        6          -0.033795247    0.014541440    0.012101946
     12        6          -0.033795862   -0.014537006    0.012107773
     13        1           0.000541845   -0.001008408   -0.001078781
     14        1           0.000521005   -0.000850692    0.000410443
     15        1           0.000521230    0.000849311    0.000411296
     16        1           0.000543208    0.001009162   -0.001078845
 -------------------------------------------------------------------
 Cartesian Forces:  Max     0.033795862 RMS     0.010745543
 Z-matrix is all fixed cartesians, so copy forces.
 Leave Link  716 at Sun Apr 28 19:37:15 2024, MaxMem=   104857600 cpu:               0.0 elap:               0.4
 (Enter /mlatom/software/Gaussian/g16-avx2/l123.exe)
 IRC-IRC-IRC-IRC-IRC-IRC-IRC-IRC-IRC-IRC-IRC-IRC-IRC-IRC-IRC-IRC-IRC-IRC
 Pt  6 Step number   1 out of a maximum of  20
 Point Number:   6          Path Number:   1
                    CURRENT STRUCTURE
                Cartesian Coordinates (Ang):                
 ---------------------------------------------------------------------
 Center     Atomic                     Coordinates (Angstroms)
 Number     Number                        X           Y           Z
 ---------------------------------------------------------------------
      1          6                   -0.303578    1.386808    0.469143
      2          6                   -1.292178    0.681572   -0.302046
      3          1                   -0.160242    1.059739    1.498191
      4          1                   -0.295057    2.472968    0.386802
      5          1                   -1.879077    1.226789   -1.036690
      6          6                   -1.292362   -0.681271   -0.302009
      7          6                   -0.303922   -1.386729    0.469177
      8          1                   -1.879417   -1.226368   -1.036617
      9          1                   -0.295671   -2.472893    0.386870
     10          1                   -0.160442   -1.059656    1.498204
     11          6                    1.484621    0.729789   -0.186365
     12          6                    1.484395   -0.730143   -0.186497
     13          1                    2.136774    1.212354    0.541376
     14          1                    1.526332    1.214570   -1.159711
     15          1                    1.525837   -1.214769   -1.159934
     16          1                    2.136477   -1.213048    0.541084
 ---------------------------------------------------------------------
   CHANGE IN THE REACTION COORDINATE =    0.29096
   NET REACTION COORDINATE UP TO THIS POINT =    1.74480
  # OF POINTS ALONG THE PATH =   6
  # OF STEPS =   1

 Calculating another point on the path.
 Point Number  7 in FORWARD path direction.
 Using LQA Reaction Path Following.
   LQA: T_Est iteration completed in    3 iterations.
 IRC-IRC-IRC-IRC-IRC-IRC-IRC-IRC-IRC-IRC-IRC-IRC-IRC-IRC-IRC-IRC-IRC-IRC
 Leave Link  123 at Sun Apr 28 19:37:17 2024, MaxMem=   104857600 cpu:               0.0 elap:               1.1
 (Enter /mlatom/software/Gaussian/g16-avx2/l202.exe)
                          Input orientation:                          
 ---------------------------------------------------------------------
 Center     Atomic      Atomic             Coordinates (Angstroms)
 Number     Number       Type             X           Y           Z
 ---------------------------------------------------------------------
      1          6           0       -0.284464    1.381996    0.463854
      2          6           0       -1.291416    0.678792   -0.304209
      3          1           0       -0.167961    1.064688    1.500034
      4          1           0       -0.286621    2.469152    0.382084
      5          1           0       -1.888470    1.229357   -1.025539
      6          6           0       -1.291599   -0.678490   -0.304173
      7          6           0       -0.284805   -1.381921    0.463884
      8          1           0       -1.888808   -1.228932   -1.025469
      9          1           0       -0.287232   -2.469078    0.382149
     10          1           0       -0.168162   -1.064602    1.500046
     11          6           0        1.464711    0.737883   -0.179215
     12          6           0        1.464484   -0.738234   -0.179343
     13          1           0        2.142257    1.206904    0.535882
     14          1           0        1.529904    1.209909   -1.158888
     15          1           0        1.529408   -1.210116   -1.159105
     16          1           0        2.141970   -1.207594    0.535590
 ---------------------------------------------------------------------
                    Distance matrix (angstroms):
                    1          2          3          4          5
     1  C    0.000000
     2  C    1.448575   0.000000
     3  H    1.089921   2.160175   0.000000
     4  H    1.090229   2.164717   1.799003   0.000000
     5  H    2.194179   1.086237   3.060356   2.466660   0.000000
     6  C    2.418634   1.357282   2.748889   3.374697   2.125206
     7  C    2.763917   2.418630   2.659539   3.851942   3.407182
     8  H    3.407190   2.125206   3.821016   4.268962   2.458289
     9  H    3.851942   3.374694   3.708287   4.938231   4.268955
    10  H    2.659523   2.748902   2.129290   3.708273   3.821032
    11  C    1.971809   2.759593   2.364804   2.525770   3.493083
    12  C    2.822747   3.101377   2.955624   3.697147   3.978663
    13  H    2.434096   3.574181   2.507374   2.741600   4.322649
    14  H    2.440253   2.995397   3.158116   2.694448   3.421028
    15  H    3.555724   3.500839   3.889320   4.382949   4.201281
    16  H    3.549465   4.006476   3.380709   4.409090   4.961884
                    6          7          8          9         10
     6  C    0.000000
     7  C    1.448572   0.000000
     8  H    1.086238   2.194175   0.000000
     9  H    2.164717   1.090229   2.466658   0.000000
    10  H    2.160186   1.089921   3.060369   1.799007   0.000000
    11  C    3.101446   2.822756   3.978768   3.697165   2.955528
    12  C    2.759555   1.971823   3.493033   2.525788   2.364825
    13  H    4.006466   3.549342   4.961915   4.408957   3.380442
    14  H    3.501066   3.555860   4.201587   4.383118   3.889313
    15  H    2.995266   2.440283   3.420880   2.694556   3.158164
    16  H    3.574150   2.434085   4.322561   2.741515   2.507455
                   11         12         13         14         15
    11  C    0.000000
    12  C    1.476117   0.000000
    13  H    1.091061   2.180479   0.000000
    14  H    1.089411   2.181524   1.802008   0.000000
    15  H    2.181529   1.089413   3.015054   2.420025   0.000000
    16  H    2.180483   1.091061   2.414498   3.014996   1.802007
                   16
    16  H    0.000000
 Symmetry turned off by external request.
 Stoichiometry    C6H10
 Framework group  C1[X(C6H10)]
 Deg. of freedom    42
 Full point group                 C1      NOp   1
 Rotational constants (GHZ):           4.5193691           3.7933590           2.4257278
 Leave Link  202 at Sun Apr 28 19:37:21 2024, MaxMem=   104857600 cpu:               0.0 elap:               0.5
 (Enter /mlatom/software/Gaussian/g16-avx2/l301.exe)
 Standard basis: STO-3G (5D, 7F)
 Ernie: Thresh=  0.10000D-02 Tol=  0.10000D-05 Strict=F.
    40 basis functions,   120 primitive gaussians,    40 cartesian basis functions
    23 alpha electrons       23 beta electrons
       nuclear repulsion energy       227.9209375083 Hartrees.
 IExCor=    0 DFT=F Ex=HF Corr=None ExCW=0 ScaHFX=  1.000000
 ScaDFX=  1.000000  1.000000  1.000000  1.000000 ScalE2=  1.000000  1.000000
 IRadAn=      5 IRanWt=     -1 IRanGd=            0 ICorTp=0 IEmpDi=  4
 NAtoms=   16 NActive=   16 NUniq=   16 SFac= 1.00D+00 NAtFMM=   60 NAOKFM=F Big=F
 Integral buffers will be    131072 words long.
 Raffenetti 1 integral format.
 Two-electron integral symmetry is turned off.
 Leave Link  301 at Sun Apr 28 19:37:22 2024, MaxMem=   104857600 cpu:               0.0 elap:               0.4
 (Enter /mlatom/software/Gaussian/g16-avx2/l402.exe)
 External calculation of energy and first derivatives.
 Running external command "/mlatom/software/miniconda3/bin/python /mlatom/software/mlatom/mlatom/interfaces/gaussian_interface.py model_predict_kwargs R"
         input file       "/mlatom/home/qhzhang/git/ts-analysis/calculations/_other/irc/da/ani/irc_1/Gau-43310.EIn"
         output file      "/mlatom/home/qhzhang/git/ts-analysis/calculations/_other/irc/da/ani/irc_1/Gau-43310.EOu"
         message file     "/mlatom/home/qhzhang/git/ts-analysis/calculations/_other/irc/da/ani/irc_1/Gau-43310.EMs"
         fchk file        "/mlatom/home/qhzhang/git/ts-analysis/calculations/_other/irc/da/ani/irc_1/Gau-43310.EFC"
         mat. el file     "/mlatom/home/qhzhang/git/ts-analysis/calculations/_other/irc/da/ani/irc_1/Gau-43310.EUF"
model loaded from /mlatom/home/qhzhang/git/ts-analysis/calculations/_other/irc/da/ani/irc/da_energy_iteration27.npz
 Recovered energy= -234.591987186     dipole=      0.000000000000      0.000000000000      0.000000000000
 Energy=    -234.591987     NIter=   0.
 Dipole moment=       0.000000       0.000000       0.000000
 Leave Link  402 at Sun Apr 28 19:37:27 2024, MaxMem=   104857600 cpu:               0.0 elap:               5.1
 (Enter /mlatom/software/Gaussian/g16-avx2/l716.exe)
 Dipole        = 0.00000000D+00 0.00000000D+00 0.00000000D+00
 -------------------------------------------------------------------
 Center     Atomic                   Forces (Hartrees/Bohr)
 Number     Number              X              Y              Z
 -------------------------------------------------------------------
      1        6           0.036064806   -0.008828621   -0.010228034
      2        6           0.001769724   -0.003841165   -0.003854856
      3        1          -0.001012457    0.000795882   -0.000153879
      4        1           0.001243409   -0.000726548   -0.000781337
      5        1          -0.001405901    0.000327027    0.001924066
      6        6           0.001771293    0.003842639   -0.003857109
      7        6           0.036069719    0.008821089   -0.010232830
      8        1          -0.001405345   -0.000326059    0.001923692
      9        1           0.001243617    0.000726322   -0.000781425
     10        1          -0.001012450   -0.000795783   -0.000153781
     11        6          -0.037272894    0.016001731    0.013482928
     12        6          -0.037273249   -0.015995874    0.013489157
     13        1           0.000286324   -0.001379065   -0.001003559
     14        1           0.000322984   -0.001238283    0.000615036
     15        1           0.000322901    0.001236708    0.000615435
     16        1           0.000287509    0.001380000   -0.001003506
 -------------------------------------------------------------------
 Cartesian Forces:  Max     0.037273249 RMS     0.011829386
 Z-matrix is all fixed cartesians, so copy forces.
 Leave Link  716 at Sun Apr 28 19:37:28 2024, MaxMem=   104857600 cpu:               0.0 elap:               0.6
 (Enter /mlatom/software/Gaussian/g16-avx2/l123.exe)
 IRC-IRC-IRC-IRC-IRC-IRC-IRC-IRC-IRC-IRC-IRC-IRC-IRC-IRC-IRC-IRC-IRC-IRC
 Pt  7 Step number   1 out of a maximum of  20
 Point Number:   7          Path Number:   1
                    CURRENT STRUCTURE
                Cartesian Coordinates (Ang):                
 ---------------------------------------------------------------------
 Center     Atomic                     Coordinates (Angstroms)
 Number     Number                        X           Y           Z
 ---------------------------------------------------------------------
      1          6                   -0.284464    1.381996    0.463854
      2          6                   -1.291416    0.678792   -0.304209
      3          1                   -0.167961    1.064688    1.500034
      4          1                   -0.286621    2.469152    0.382084
      5          1                   -1.888470    1.229357   -1.025539
      6          6                   -1.291599   -0.678490   -0.304173
      7          6                   -0.284805   -1.381921    0.463884
      8          1                   -1.888808   -1.228932   -1.025469
      9          1                   -0.287232   -2.469078    0.382149
     10          1                   -0.168162   -1.064602    1.500046
     11          6                    1.464711    0.737883   -0.179215
     12          6                    1.464484   -0.738234   -0.179343
     13          1                    2.142257    1.206904    0.535882
     14          1                    1.529904    1.209909   -1.158888
     15          1                    1.529408   -1.210116   -1.159105
     16          1                    2.141970   -1.207594    0.535590
 ---------------------------------------------------------------------
   CHANGE IN THE REACTION COORDINATE =    0.29098
   NET REACTION COORDINATE UP TO THIS POINT =    2.03578
  # OF POINTS ALONG THE PATH =   7
  # OF STEPS =   1

 Calculating another point on the path.
 Point Number  8 in FORWARD path direction.
 Using LQA Reaction Path Following.
   LQA: T_Est iteration completed in    3 iterations.
 IRC-IRC-IRC-IRC-IRC-IRC-IRC-IRC-IRC-IRC-IRC-IRC-IRC-IRC-IRC-IRC-IRC-IRC
 Leave Link  123 at Sun Apr 28 19:37:31 2024, MaxMem=   104857600 cpu:               0.0 elap:               1.4
 (Enter /mlatom/software/Gaussian/g16-avx2/l202.exe)
                          Input orientation:                          
 ---------------------------------------------------------------------
 Center     Atomic      Atomic             Coordinates (Angstroms)
 Number     Number       Type             X           Y           Z
 ---------------------------------------------------------------------
      1          6           0       -0.265352    1.377394    0.458194
      2          6           0       -1.290377    0.676688   -0.306166
      3          1           0       -0.173831    1.069204    1.500246
      4          1           0       -0.278270    2.465160    0.376880
      5          1           0       -1.898431    1.232073   -1.013696
      6          6           0       -1.290559   -0.676385   -0.306131
      7          6           0       -0.265691   -1.377322    0.458223
      8          1           0       -1.898767   -1.231641   -1.013630
      9          1           0       -0.278880   -2.465088    0.376945
     10          1           0       -0.174031   -1.069118    1.500259
     11          6           0        1.444781    0.745939   -0.171956
     12          6           0        1.444554   -0.746287   -0.172081
     13          1           0        2.145279    1.199689    0.531720
     14          1           0        1.531706    1.203543   -1.157325
     15          1           0        1.531210   -1.203759   -1.157537
     16          1           0        2.144999   -1.200375    0.531430
 ---------------------------------------------------------------------
                    Distance matrix (angstroms):
                    1          2          3          4          5
     1  C    0.000000
     2  C    1.458050   0.000000
     3  H    1.090517   2.159599   0.000000
     4  H    1.090878   2.165535   1.794868   0.000000
     5  H    2.203299   1.085717   3.052978   2.465589   0.000000
     6  C    2.419349   1.353074   2.749029   3.370540   2.124234
     7  C    2.754715   2.419345   2.660778   3.843363   3.411939
     8  H    3.411945   2.124233   3.819537   4.269176   2.463714
     9  H    3.843364   3.370538   3.709994   4.930248   4.269172
    10  H    2.660762   2.749043   2.138321   3.709982   3.819555
    11  C    1.928829   2.739324   2.349609   2.495165   3.481655
    12  C    2.798401   3.085885   2.951585   3.685495   3.974641
    13  H    2.418290   3.574816   2.516612   2.738426   4.329082
    14  H    2.422714   2.994361   3.160630   2.687280   3.433262
    15  H    3.535615   3.496036   3.890673   4.369167   4.209086
    16  H    3.529879   4.003341   3.386231   4.396847   4.965233
                    6          7          8          9         10
     6  C    0.000000
     7  C    1.458047   0.000000
     8  H    1.085717   2.203295   0.000000
     9  H    2.165536   1.090878   2.465588   0.000000
    10  H    2.159610   1.090519   3.052993   1.794870   0.000000
    11  C    3.085951   2.798406   3.974739   3.685511   2.951488
    12  C    2.739288   1.928841   3.481604   2.495181   2.349630
    13  H    4.003327   3.529754   4.965257   4.396714   3.385964
    14  H    3.496261   3.535746   4.209384   4.369332   3.890665
    15  H    2.994227   2.422738   3.433108   2.687380   3.160673
    16  H    3.574791   2.418284   4.328999   2.738348   2.516696
                   11         12         13         14         15
    11  C    0.000000
    12  C    1.492226   0.000000
    13  H    1.091672   2.184760   0.000000
    14  H    1.089912   2.186353   1.797042   0.000000
    15  H    2.186358   1.089914   3.001206   2.407303   0.000000
    16  H    2.184764   1.091672   2.400064   3.001140   1.797041
                   16
    16  H    0.000000
 Symmetry turned off by external request.
 Stoichiometry    C6H10
 Framework group  C1[X(C6H10)]
 Deg. of freedom    42
 Full point group                 C1      NOp   1
 Rotational constants (GHZ):           4.5362412           3.8461882           2.4460628
 Leave Link  202 at Sun Apr 28 19:37:34 2024, MaxMem=   104857600 cpu:               0.0 elap:               0.7
 (Enter /mlatom/software/Gaussian/g16-avx2/l301.exe)
 Standard basis: STO-3G (5D, 7F)
 Ernie: Thresh=  0.10000D-02 Tol=  0.10000D-05 Strict=F.
    40 basis functions,   120 primitive gaussians,    40 cartesian basis functions
    23 alpha electrons       23 beta electrons
       nuclear repulsion energy       228.4833048941 Hartrees.
 IExCor=    0 DFT=F Ex=HF Corr=None ExCW=0 ScaHFX=  1.000000
 ScaDFX=  1.000000  1.000000  1.000000  1.000000 ScalE2=  1.000000  1.000000
 IRadAn=      5 IRanWt=     -1 IRanGd=            0 ICorTp=0 IEmpDi=  4
 NAtoms=   16 NActive=   16 NUniq=   16 SFac= 1.00D+00 NAtFMM=   60 NAOKFM=F Big=F
 Integral buffers will be    131072 words long.
 Raffenetti 1 integral format.
 Two-electron integral symmetry is turned off.
 Leave Link  301 at Sun Apr 28 19:37:36 2024, MaxMem=   104857600 cpu:               0.0 elap:               0.4
 (Enter /mlatom/software/Gaussian/g16-avx2/l402.exe)
 External calculation of energy and first derivatives.
 Running external command "/mlatom/software/miniconda3/bin/python /mlatom/software/mlatom/mlatom/interfaces/gaussian_interface.py model_predict_kwargs R"
         input file       "/mlatom/home/qhzhang/git/ts-analysis/calculations/_other/irc/da/ani/irc_1/Gau-43310.EIn"
         output file      "/mlatom/home/qhzhang/git/ts-analysis/calculations/_other/irc/da/ani/irc_1/Gau-43310.EOu"
         message file     "/mlatom/home/qhzhang/git/ts-analysis/calculations/_other/irc/da/ani/irc_1/Gau-43310.EMs"
         fchk file        "/mlatom/home/qhzhang/git/ts-analysis/calculations/_other/irc/da/ani/irc_1/Gau-43310.EFC"
         mat. el file     "/mlatom/home/qhzhang/git/ts-analysis/calculations/_other/irc/da/ani/irc_1/Gau-43310.EUF"
model loaded from /mlatom/home/qhzhang/git/ts-analysis/calculations/_other/irc/da/ani/irc/da_energy_iteration27.npz
 Recovered energy= -234.599249781     dipole=      0.000000000000      0.000000000000      0.000000000000
 Energy=    -234.599250     NIter=   0.
 Dipole moment=       0.000000       0.000000       0.000000
 Leave Link  402 at Sun Apr 28 19:37:41 2024, MaxMem=   104857600 cpu:               0.1 elap:               5.2
 (Enter /mlatom/software/Gaussian/g16-avx2/l716.exe)
 Dipole        = 0.00000000D+00 0.00000000D+00 0.00000000D+00
 -------------------------------------------------------------------
 Center     Atomic                   Forces (Hartrees/Bohr)
 Number     Number              X              Y              Z
 -------------------------------------------------------------------
      1        6           0.038889873   -0.009229547   -0.011792077
      2        6           0.002454096   -0.003878516   -0.003787779
      3        1          -0.000883736    0.000698840   -0.000251316
      4        1           0.001367652   -0.000701138   -0.000883977
      5        1          -0.001601836    0.000447559    0.002161062
      6        6           0.002454467    0.003879268   -0.003789511
      7        6           0.038894631    0.009220422   -0.011796154
      8        1          -0.001601528   -0.000446907    0.002160432
      9        1           0.001367843    0.000701181   -0.000884213
     10        1          -0.000883681   -0.000698691   -0.000251596
     11        6          -0.039798912    0.014060249    0.014482122
     12        6          -0.039799740   -0.014053591    0.014488380
     13        1          -0.000275068   -0.000945087   -0.000786769
     14        1          -0.000154344   -0.000894595    0.000858427
     15        1          -0.000156064    0.000894484    0.000859456
     16        1          -0.000273647    0.000946066   -0.000786491
 -------------------------------------------------------------------
 Cartesian Forces:  Max     0.039799740 RMS     0.012547740
 Z-matrix is all fixed cartesians, so copy forces.
 Leave Link  716 at Sun Apr 28 19:37:42 2024, MaxMem=   104857600 cpu:               0.0 elap:               0.5
 (Enter /mlatom/software/Gaussian/g16-avx2/l123.exe)
 IRC-IRC-IRC-IRC-IRC-IRC-IRC-IRC-IRC-IRC-IRC-IRC-IRC-IRC-IRC-IRC-IRC-IRC
 Pt  8 Step number   1 out of a maximum of  20
 Point Number:   8          Path Number:   1
                    CURRENT STRUCTURE
                Cartesian Coordinates (Ang):                
 ---------------------------------------------------------------------
 Center     Atomic                     Coordinates (Angstroms)
 Number     Number                        X           Y           Z
 ---------------------------------------------------------------------
      1          6                   -0.265352    1.377394    0.458194
      2          6                   -1.290377    0.676688   -0.306166
      3          1                   -0.173831    1.069204    1.500246
      4          1                   -0.278270    2.465160    0.376880
      5          1                   -1.898431    1.232073   -1.013696
      6          6                   -1.290559   -0.676385   -0.306131
      7          6                   -0.265691   -1.377322    0.458223
      8          1                   -1.898767   -1.231641   -1.013630
      9          1                   -0.278880   -2.465088    0.376945
     10          1                   -0.174031   -1.069118    1.500259
     11          6                    1.444781    0.745939   -0.171956
     12          6                    1.444554   -0.746287   -0.172081
     13          1                    2.145279    1.199689    0.531720
     14          1                    1.531706    1.203543   -1.157325
     15          1                    1.531210   -1.203759   -1.157537
     16          1                    2.144999   -1.200375    0.531430
 ---------------------------------------------------------------------
   CHANGE IN THE REACTION COORDINATE =    0.29098
   NET REACTION COORDINATE UP TO THIS POINT =    2.32676
  # OF POINTS ALONG THE PATH =   8
  # OF STEPS =   1

 Calculating another point on the path.
 Point Number  9 in FORWARD path direction.
 Using LQA Reaction Path Following.
   LQA: T_Est iteration completed in    3 iterations.
 IRC-IRC-IRC-IRC-IRC-IRC-IRC-IRC-IRC-IRC-IRC-IRC-IRC-IRC-IRC-IRC-IRC-IRC
 Leave Link  123 at Sun Apr 28 19:37:44 2024, MaxMem=   104857600 cpu:               0.0 elap:               1.1
 (Enter /mlatom/software/Gaussian/g16-avx2/l202.exe)
                          Input orientation:                          
 ---------------------------------------------------------------------
 Center     Atomic      Atomic             Coordinates (Angstroms)
 Number     Number       Type             X           Y           Z
 ---------------------------------------------------------------------
      1          6           0       -0.245914    1.372796    0.452055
      2          6           0       -1.288995    0.674745   -0.307946
      3          1           0       -0.178433    1.072922    1.499369
      4          1           0       -0.269662    2.461164    0.371428
      5          1           0       -1.908657    1.235169   -1.001046
      6          6           0       -1.289177   -0.674442   -0.307912
      7          6           0       -0.246250   -1.372729    0.452082
      8          1           0       -1.908991   -1.234733   -1.000983
      9          1           0       -0.270271   -2.461093    0.371492
     10          1           0       -0.178632   -1.072835    1.499381
     11          6           0        1.424778    0.752721   -0.164623
     12          6           0        1.424551   -0.753065   -0.164745
     13          1           0        2.143387    1.194846    0.528423
     14          1           0        1.530075    1.198984   -1.153372
     15          1           0        1.529566   -1.199200   -1.153579
     16          1           0        2.143115   -1.195527    0.528134
 ---------------------------------------------------------------------
                    Distance matrix (angstroms):
                    1          2          3          4          5
     1  C    0.000000
     2  C    1.467275   0.000000
     3  H    1.091487   2.158305   0.000000
     4  H    1.091609   2.166075   1.791030   0.000000
     5  H    2.212501   1.085561   3.045008   2.464357   0.000000
     6  C    2.420152   1.349187   2.748327   3.366443   2.123865
     7  C    2.745526   2.420147   2.661320   3.834813   3.417062
     8  H    3.417069   2.123865   3.817312   4.269727   2.469903
     9  H    3.834813   3.366440   3.710769   4.922257   4.269722
    10  H    2.661302   2.748340   2.145758   3.710756   3.817330
    11  C    1.885735   2.718674   2.332741   2.465210   3.470469
    12  C    2.773118   3.069606   2.945006   3.672752   3.970233
    13  H    2.397135   3.570892   2.519612   2.729654   4.331277
    14  H    2.400363   2.989436   3.157835   2.675289   3.442295
    15  H    3.513625   3.488704   3.888179   4.354439   4.215543
    16  H    3.508494   3.997040   3.388030   4.383770   4.966240
                    6          7          8          9         10
     6  C    0.000000
     7  C    1.467274   0.000000
     8  H    1.085561   2.212498   0.000000
     9  H    2.166076   1.091608   2.464356   0.000000
    10  H    2.158318   1.091487   3.045024   1.791031   0.000000
    11  C    3.069671   2.773121   3.970326   3.672766   2.944908
    12  C    2.718639   1.885745   3.470418   2.465224   2.332758
    13  H    3.997023   3.508367   4.966257   4.383636   3.387759
    14  H    3.488941   3.513762   4.215849   4.354609   3.888179
    15  H    2.989287   2.400372   3.442125   2.675374   3.157864
    16  H    3.570873   2.397134   4.331201   2.729583   2.519699
                   11         12         13         14         15
    11  C    0.000000
    12  C    1.505786   0.000000
    13  H    1.091873   2.188965   0.000000
    14  H    1.089891   2.190665   1.790141   0.000000
    15  H    2.190664   1.089889   2.989543   2.398184   0.000000
    16  H    2.188970   1.091873   2.390374   2.989475   1.790144
                   16
    16  H    0.000000
 Symmetry turned off by external request.
 Stoichiometry    C6H10
 Framework group  C1[X(C6H10)]
 Deg. of freedom    42
 Full point group                 C1      NOp   1
 Rotational constants (GHZ):           4.5554459           3.9030243           2.4675111
 Leave Link  202 at Sun Apr 28 19:37:48 2024, MaxMem=   104857600 cpu:               0.0 elap:               0.5
 (Enter /mlatom/software/Gaussian/g16-avx2/l301.exe)
 Standard basis: STO-3G (5D, 7F)
 Ernie: Thresh=  0.10000D-02 Tol=  0.10000D-05 Strict=F.
    40 basis functions,   120 primitive gaussians,    40 cartesian basis functions
    23 alpha electrons       23 beta electrons
       nuclear repulsion energy       229.1416314553 Hartrees.
 IExCor=    0 DFT=F Ex=HF Corr=None ExCW=0 ScaHFX=  1.000000
 ScaDFX=  1.000000  1.000000  1.000000  1.000000 ScalE2=  1.000000  1.000000
 IRadAn=      5 IRanWt=     -1 IRanGd=            0 ICorTp=0 IEmpDi=  4
 NAtoms=   16 NActive=   16 NUniq=   16 SFac= 1.00D+00 NAtFMM=   60 NAOKFM=F Big=F
 Integral buffers will be    131072 words long.
 Raffenetti 1 integral format.
 Two-electron integral symmetry is turned off.
 Leave Link  301 at Sun Apr 28 19:37:49 2024, MaxMem=   104857600 cpu:               0.1 elap:               0.4
 (Enter /mlatom/software/Gaussian/g16-avx2/l402.exe)
 External calculation of energy and first derivatives.
 Running external command "/mlatom/software/miniconda3/bin/python /mlatom/software/mlatom/mlatom/interfaces/gaussian_interface.py model_predict_kwargs R"
         input file       "/mlatom/home/qhzhang/git/ts-analysis/calculations/_other/irc/da/ani/irc_1/Gau-43310.EIn"
         output file      "/mlatom/home/qhzhang/git/ts-analysis/calculations/_other/irc/da/ani/irc_1/Gau-43310.EOu"
         message file     "/mlatom/home/qhzhang/git/ts-analysis/calculations/_other/irc/da/ani/irc_1/Gau-43310.EMs"
         fchk file        "/mlatom/home/qhzhang/git/ts-analysis/calculations/_other/irc/da/ani/irc_1/Gau-43310.EFC"
         mat. el file     "/mlatom/home/qhzhang/git/ts-analysis/calculations/_other/irc/da/ani/irc_1/Gau-43310.EUF"
model loaded from /mlatom/home/qhzhang/git/ts-analysis/calculations/_other/irc/da/ani/irc/da_energy_iteration27.npz
 Recovered energy= -234.606918880     dipole=      0.000000000000      0.000000000000      0.000000000000
 Energy=    -234.606919     NIter=   0.
 Dipole moment=       0.000000       0.000000       0.000000
 Leave Link  402 at Sun Apr 28 19:37:55 2024, MaxMem=   104857600 cpu:               0.0 elap:               5.0
 (Enter /mlatom/software/Gaussian/g16-avx2/l716.exe)
 Dipole        = 0.00000000D+00 0.00000000D+00 0.00000000D+00
 -------------------------------------------------------------------
 Center     Atomic                   Forces (Hartrees/Bohr)
 Number     Number              X              Y              Z
 -------------------------------------------------------------------
      1        6           0.040795097   -0.010422074   -0.013189629
      2        6           0.003431056   -0.002234729   -0.003782778
      3        1          -0.000642269    0.000892653   -0.000395040
      4        1           0.001772837   -0.000770796   -0.000982790
      5        1          -0.001761371    0.000623294    0.002493767
      6        6           0.003433393    0.002234032   -0.003782099
      7        6           0.040797135    0.010413124   -0.013194919
      8        1          -0.001761075   -0.000622548    0.002492942
      9        1           0.001772866    0.000770248   -0.000983085
     10        1          -0.000642046   -0.000892320   -0.000394989
     11        6          -0.042506140    0.012663703    0.015528140
     12        6          -0.042506581   -0.012654383    0.015535925
     13        1          -0.000574663   -0.000631497   -0.000308595
     14        1          -0.000516716   -0.000614994    0.000636369
     15        1          -0.000517844    0.000613909    0.000635922
     16        1          -0.000573680    0.000632377   -0.000309143
 -------------------------------------------------------------------
 Cartesian Forces:  Max     0.042506581 RMS     0.013234897
 Z-matrix is all fixed cartesians, so copy forces.
 Leave Link  716 at Sun Apr 28 19:37:56 2024, MaxMem=   104857600 cpu:               0.0 elap:               0.4
 (Enter /mlatom/software/Gaussian/g16-avx2/l123.exe)
 IRC-IRC-IRC-IRC-IRC-IRC-IRC-IRC-IRC-IRC-IRC-IRC-IRC-IRC-IRC-IRC-IRC-IRC
 Pt  9 Step number   1 out of a maximum of  20
 Point Number:   9          Path Number:   1
                    CURRENT STRUCTURE
                Cartesian Coordinates (Ang):                
 ---------------------------------------------------------------------
 Center     Atomic                     Coordinates (Angstroms)
 Number     Number                        X           Y           Z
 ---------------------------------------------------------------------
      1          6                   -0.245914    1.372796    0.452055
      2          6                   -1.288995    0.674745   -0.307946
      3          1                   -0.178433    1.072922    1.499369
      4          1                   -0.269662    2.461164    0.371428
      5          1                   -1.908657    1.235169   -1.001046
      6          6                   -1.289177   -0.674442   -0.307912
      7          6                   -0.246250   -1.372729    0.452082
      8          1                   -1.908991   -1.234733   -1.000983
      9          1                   -0.270271   -2.461093    0.371492
     10          1                   -0.178632   -1.072835    1.499381
     11          6                    1.424778    0.752721   -0.164623
     12          6                    1.424551   -0.753065   -0.164745
     13          1                    2.143387    1.194846    0.528423
     14          1                    1.530075    1.198984   -1.153372
     15          1                    1.529566   -1.199200   -1.153579
     16          1                    2.143115   -1.195527    0.528134
 ---------------------------------------------------------------------
   CHANGE IN THE REACTION COORDINATE =    0.29100
   NET REACTION COORDINATE UP TO THIS POINT =    2.61776
  # OF POINTS ALONG THE PATH =   9
  # OF STEPS =   1

 Calculating another point on the path.
 Point Number 10 in FORWARD path direction.
 Using LQA Reaction Path Following.
   LQA: T_Est iteration completed in    3 iterations.
 IRC-IRC-IRC-IRC-IRC-IRC-IRC-IRC-IRC-IRC-IRC-IRC-IRC-IRC-IRC-IRC-IRC-IRC
 Leave Link  123 at Sun Apr 28 19:37:57 2024, MaxMem=   104857600 cpu:               0.0 elap:               1.1
 (Enter /mlatom/software/Gaussian/g16-avx2/l202.exe)
                          Input orientation:                          
 ---------------------------------------------------------------------
 Center     Atomic      Atomic             Coordinates (Angstroms)
 Number     Number       Type             X           Y           Z
 ---------------------------------------------------------------------
      1          6           0       -0.226649    1.367894    0.445664
      2          6           0       -1.287236    0.673706   -0.309675
      3          1           0       -0.181259    1.077422    1.497683
      4          1           0       -0.259034    2.456753    0.365552
      5          1           0       -1.919287    1.239395   -0.987181
      6          6           0       -1.287417   -0.673403   -0.309641
      7          6           0       -0.226985   -1.367832    0.445688
      8          1           0       -1.919618   -1.238955   -0.987121
      9          1           0       -0.259643   -2.456685    0.365613
     10          1           0       -0.181457   -1.077334    1.497694
     11          6           0        1.404655    0.758630   -0.157241
     12          6           0        1.404427   -0.758970   -0.157360
     13          1           0        2.138917    1.191074    0.526709
     14          1           0        1.526632    1.195290   -1.149181
     15          1           0        1.526118   -1.195511   -1.149387
     16          1           0        2.138651   -1.191751    0.526418
 ---------------------------------------------------------------------
                    Distance matrix (angstroms):
                    1          2          3          4          5
     1  C    0.000000
     2  C    1.475560   0.000000
     3  H    1.092327   2.157015   0.000000
     4  H    1.092282   2.166191   1.786147   0.000000
     5  H    2.221391   1.085590   3.036696   2.463389   0.000000
     6  C    2.421283   1.347110   2.748708   3.363233   2.125351
     7  C    2.735726   2.421277   2.662339   3.825558   3.422664
     8  H    3.422671   2.125350   3.815986   4.271477   2.478350
     9  H    3.825559   3.363229   3.711824   4.913437   4.271472
    10  H    2.662320   2.748722   2.154756   3.711810   3.816004
    11  C    1.842783   2.697541   2.314200   2.434090   3.459556
    12  C    2.747289   3.053001   2.936989   3.658062   3.965998
    13  H    2.373549   3.564510   2.517721   2.716262   4.331653
    14  H    2.376408   2.982394   3.152249   2.659757   3.450007
    15  H    3.491049   3.480525   3.884371   4.338299   4.222072
    16  H    3.486108   3.989447   3.387401   4.368793   4.966721
                    6          7          8          9         10
     6  C    0.000000
     7  C    1.475557   0.000000
     8  H    1.085591   2.221387   0.000000
     9  H    2.166190   1.092282   2.463387   0.000000
    10  H    2.157027   1.092327   3.036714   1.786149   0.000000
    11  C    3.053064   2.747292   3.966086   3.658075   2.936890
    12  C    2.697506   1.842792   3.459504   2.434104   2.314214
    13  H    3.989426   3.485980   4.966732   4.368660   3.387126
    14  H    3.480763   3.491185   4.222375   4.338467   3.884370
    15  H    2.982239   2.376411   3.449829   2.659837   3.152272
    16  H    3.564494   2.373553   4.331580   2.716198   2.517810
                   11         12         13         14         15
    11  C    0.000000
    12  C    1.517600   0.000000
    13  H    1.092674   2.193194   0.000000
    14  H    1.090640   2.194944   1.784242   0.000000
    15  H    2.194943   1.090640   2.980035   2.390801   0.000000
    16  H    2.193200   1.092674   2.382825   2.979961   1.784246
                   16
    16  H    0.000000
 Symmetry turned off by external request.
 Stoichiometry    C6H10
 Framework group  C1[X(C6H10)]
 Deg. of freedom    42
 Full point group                 C1      NOp   1
 Rotational constants (GHZ):           4.5757375           3.9626293           2.4895988
 Leave Link  202 at Sun Apr 28 19:38:01 2024, MaxMem=   104857600 cpu:               0.0 elap:               0.5
 (Enter /mlatom/software/Gaussian/g16-avx2/l301.exe)
 Standard basis: STO-3G (5D, 7F)
 Ernie: Thresh=  0.10000D-02 Tol=  0.10000D-05 Strict=F.
    40 basis functions,   120 primitive gaussians,    40 cartesian basis functions
    23 alpha electrons       23 beta electrons
       nuclear repulsion energy       229.8543627903 Hartrees.
 IExCor=    0 DFT=F Ex=HF Corr=None ExCW=0 ScaHFX=  1.000000
 ScaDFX=  1.000000  1.000000  1.000000  1.000000 ScalE2=  1.000000  1.000000
 IRadAn=      5 IRanWt=     -1 IRanGd=            0 ICorTp=0 IEmpDi=  4
 NAtoms=   16 NActive=   16 NUniq=   16 SFac= 1.00D+00 NAtFMM=   60 NAOKFM=F Big=F
 Integral buffers will be    131072 words long.
 Raffenetti 1 integral format.
 Two-electron integral symmetry is turned off.
 Leave Link  301 at Sun Apr 28 19:38:02 2024, MaxMem=   104857600 cpu:               0.1 elap:               0.4
 (Enter /mlatom/software/Gaussian/g16-avx2/l402.exe)
 External calculation of energy and first derivatives.
 Running external command "/mlatom/software/miniconda3/bin/python /mlatom/software/mlatom/mlatom/interfaces/gaussian_interface.py model_predict_kwargs R"
         input file       "/mlatom/home/qhzhang/git/ts-analysis/calculations/_other/irc/da/ani/irc_1/Gau-43310.EIn"
         output file      "/mlatom/home/qhzhang/git/ts-analysis/calculations/_other/irc/da/ani/irc_1/Gau-43310.EOu"
         message file     "/mlatom/home/qhzhang/git/ts-analysis/calculations/_other/irc/da/ani/irc_1/Gau-43310.EMs"
         fchk file        "/mlatom/home/qhzhang/git/ts-analysis/calculations/_other/irc/da/ani/irc_1/Gau-43310.EFC"
         mat. el file     "/mlatom/home/qhzhang/git/ts-analysis/calculations/_other/irc/da/ani/irc_1/Gau-43310.EUF"
model loaded from /mlatom/home/qhzhang/git/ts-analysis/calculations/_other/irc/da/ani/irc/da_energy_iteration27.npz
 Recovered energy= -234.614937515     dipole=      0.000000000000      0.000000000000      0.000000000000
 Energy=    -234.614938     NIter=   0.
 Dipole moment=       0.000000       0.000000       0.000000
 Leave Link  402 at Sun Apr 28 19:38:07 2024, MaxMem=   104857600 cpu:               0.0 elap:               4.9
 (Enter /mlatom/software/Gaussian/g16-avx2/l716.exe)
 Dipole        = 0.00000000D+00 0.00000000D+00 0.00000000D+00
 -------------------------------------------------------------------
 Center     Atomic                   Forces (Hartrees/Bohr)
 Number     Number              X              Y              Z
 -------------------------------------------------------------------
      1        6           0.041440477   -0.011248847   -0.014404543
      2        6           0.004374620   -0.001582182   -0.003592254
      3        1          -0.000434061    0.000940422   -0.000269683
      4        1           0.002167193   -0.000860564   -0.001151339
      5        1          -0.001869212    0.000677325    0.002744987
      6        6           0.004375463    0.001581966   -0.003592890
      7        6           0.041443766    0.011238900   -0.014409023
      8        1          -0.001868821   -0.000676621    0.002744405
      9        1           0.002167339    0.000860058   -0.001151631
     10        1          -0.000434062   -0.000940145   -0.000269608
     11        6          -0.043766894    0.011904009    0.015960848
     12        6          -0.043767911   -0.011894364    0.015966700
     13        1          -0.001038438   -0.000489916   -0.000054292
     14        1          -0.000875606   -0.000587624    0.000766204
     15        1          -0.000876334    0.000586655    0.000766550
     16        1          -0.001037513    0.000490933   -0.000054434
 -------------------------------------------------------------------
 Cartesian Forces:  Max     0.043767911 RMS     0.013571434
 Z-matrix is all fixed cartesians, so copy forces.
 Leave Link  716 at Sun Apr 28 19:38:09 2024, MaxMem=   104857600 cpu:               0.0 elap:               0.5
 (Enter /mlatom/software/Gaussian/g16-avx2/l123.exe)
 IRC-IRC-IRC-IRC-IRC-IRC-IRC-IRC-IRC-IRC-IRC-IRC-IRC-IRC-IRC-IRC-IRC-IRC
 Pt 10 Step number   1 out of a maximum of  20
 Point Number:  10          Path Number:   1
                    CURRENT STRUCTURE
                Cartesian Coordinates (Ang):                
 ---------------------------------------------------------------------
 Center     Atomic                     Coordinates (Angstroms)
 Number     Number                        X           Y           Z
 ---------------------------------------------------------------------
      1          6                   -0.226649    1.367894    0.445664
      2          6                   -1.287236    0.673706   -0.309675
      3          1                   -0.181259    1.077422    1.497683
      4          1                   -0.259034    2.456753    0.365552
      5          1                   -1.919287    1.239395   -0.987181
      6          6                   -1.287417   -0.673403   -0.309641
      7          6                   -0.226985   -1.367832    0.445688
      8          1                   -1.919618   -1.238955   -0.987121
      9          1                   -0.259643   -2.456685    0.365613
     10          1                   -0.181457   -1.077334    1.497694
     11          6                    1.404655    0.758630   -0.157241
     12          6                    1.404427   -0.758970   -0.157360
     13          1                    2.138917    1.191074    0.526709
     14          1                    1.526632    1.195290   -1.149181
     15          1                    1.526118   -1.195511   -1.149387
     16          1                    2.138651   -1.191751    0.526418
 ---------------------------------------------------------------------
   CHANGE IN THE REACTION COORDINATE =    0.29100
   NET REACTION COORDINATE UP TO THIS POINT =    2.90876
  # OF POINTS ALONG THE PATH =  10
  # OF STEPS =   1

 Calculating another point on the path.
 Point Number 11 in FORWARD path direction.
 Using LQA Reaction Path Following.
   LQA: T_Est iteration completed in    3 iterations.
 IRC-IRC-IRC-IRC-IRC-IRC-IRC-IRC-IRC-IRC-IRC-IRC-IRC-IRC-IRC-IRC-IRC-IRC
 Leave Link  123 at Sun Apr 28 19:38:10 2024, MaxMem=   104857600 cpu:               0.0 elap:               1.1
 (Enter /mlatom/software/Gaussian/g16-avx2/l202.exe)
                          Input orientation:                          
 ---------------------------------------------------------------------
 Center     Atomic      Atomic             Coordinates (Angstroms)
 Number     Number       Type             X           Y           Z
 ---------------------------------------------------------------------
      1          6           0       -0.207660    1.362710    0.438978
      2          6           0       -1.285081    0.672975   -0.311250
      3          1           0       -0.183281    1.082477    1.496052
      4          1           0       -0.246480    2.451877    0.358761
      5          1           0       -1.930183    1.243678   -0.972354
      6          6           0       -1.285262   -0.672673   -0.311217
      7          6           0       -0.207994   -1.362652    0.439000
      8          1           0       -1.930512   -1.243233   -0.972298
      9          1           0       -0.247088   -2.451812    0.358821
     10          1           0       -0.183480   -1.082388    1.496064
     11          6           0        1.384583    0.764030   -0.149877
     12          6           0        1.384354   -0.764366   -0.149993
     13          1           0        2.131927    1.188137    0.526277
     14          1           0        1.521228    1.191901   -1.144459
     15          1           0        1.520711   -1.192127   -1.144663
     16          1           0        2.131667   -1.188807    0.525986
 ---------------------------------------------------------------------
                    Distance matrix (angstroms):
                    1          2          3          4          5
     1  C    0.000000
     2  C    1.483042   0.000000
     3  H    1.093861   2.155922   0.000000
     4  H    1.092807   2.166125   1.781202   0.000000
     5  H    2.230048   1.085779   3.028314   2.463020   0.000000
     6  C    2.422147   1.345648   2.749752   3.360171   2.127305
     7  C    2.725361   2.422141   2.663950   3.815566   3.427945
     8  H    3.427952   2.127303   3.815036   4.273350   2.486911
     9  H    3.815567   3.360167   3.713296   4.903688   4.273345
    10  H    2.663929   2.749765   2.164865   3.713280   3.815054
    11  C    1.800112   2.676086   2.295362   2.401646   3.448797
    12  C    2.721369   3.036090   2.928784   3.641795   3.961650
    13  H    2.347715   3.555671   2.512333   2.698504   4.330095
    14  H    2.350638   2.973028   3.144778   2.640455   3.456087
    15  H    3.467330   3.470685   3.879535   4.319955   4.227470
    16  H    3.462695   3.980121   3.385077   4.351795   4.965947
                    6          7          8          9         10
     6  C    0.000000
     7  C    1.483038   0.000000
     8  H    1.085779   2.230043   0.000000
     9  H    2.166124   1.092807   2.463018   0.000000
    10  H    2.155934   1.093861   3.028333   1.781204   0.000000
    11  C    3.036151   2.721370   3.961734   3.641807   2.928685
    12  C    2.676051   1.800120   3.448745   2.401659   2.295374
    13  H    3.980099   3.462568   4.965955   4.351664   3.384801
    14  H    3.470924   3.467462   4.227769   4.320120   3.879533
    15  H    2.972869   2.350636   3.455903   2.640527   3.144796
    16  H    3.555658   2.347723   4.330025   2.698443   2.512425
                   11         12         13         14         15
    11  C    0.000000
    12  C    1.528397   0.000000
    13  H    1.093423   2.197379   0.000000
    14  H    1.091302   2.198791   1.778856   0.000000
    15  H    2.198791   1.091302   2.971747   2.384029   0.000000
    16  H    2.197384   1.093423   2.376944   2.971665   1.778861
                   16
    16  H    0.000000
 Symmetry turned off by external request.
 Stoichiometry    C6H10
 Framework group  C1[X(C6H10)]
 Deg. of freedom    42
 Full point group                 C1      NOp   1
 Rotational constants (GHZ):           4.5976859           4.0247581           2.5124177
 Leave Link  202 at Sun Apr 28 19:38:14 2024, MaxMem=   104857600 cpu:               0.0 elap:               0.5
 (Enter /mlatom/software/Gaussian/g16-avx2/l301.exe)
 Standard basis: STO-3G (5D, 7F)
 Ernie: Thresh=  0.10000D-02 Tol=  0.10000D-05 Strict=F.
    40 basis functions,   120 primitive gaussians,    40 cartesian basis functions
    23 alpha electrons       23 beta electrons
       nuclear repulsion energy       230.6315961450 Hartrees.
 IExCor=    0 DFT=F Ex=HF Corr=None ExCW=0 ScaHFX=  1.000000
 ScaDFX=  1.000000  1.000000  1.000000  1.000000 ScalE2=  1.000000  1.000000
 IRadAn=      5 IRanWt=     -1 IRanGd=            0 ICorTp=0 IEmpDi=  4
 NAtoms=   16 NActive=   16 NUniq=   16 SFac= 1.00D+00 NAtFMM=   60 NAOKFM=F Big=F
 Integral buffers will be    131072 words long.
 Raffenetti 1 integral format.
 Two-electron integral symmetry is turned off.
 Leave Link  301 at Sun Apr 28 19:38:15 2024, MaxMem=   104857600 cpu:               0.1 elap:               0.4
 (Enter /mlatom/software/Gaussian/g16-avx2/l402.exe)
 External calculation of energy and first derivatives.
 Running external command "/mlatom/software/miniconda3/bin/python /mlatom/software/mlatom/mlatom/interfaces/gaussian_interface.py model_predict_kwargs R"
         input file       "/mlatom/home/qhzhang/git/ts-analysis/calculations/_other/irc/da/ani/irc_1/Gau-43310.EIn"
         output file      "/mlatom/home/qhzhang/git/ts-analysis/calculations/_other/irc/da/ani/irc_1/Gau-43310.EOu"
         message file     "/mlatom/home/qhzhang/git/ts-analysis/calculations/_other/irc/da/ani/irc_1/Gau-43310.EMs"
         fchk file        "/mlatom/home/qhzhang/git/ts-analysis/calculations/_other/irc/da/ani/irc_1/Gau-43310.EFC"
         mat. el file     "/mlatom/home/qhzhang/git/ts-analysis/calculations/_other/irc/da/ani/irc_1/Gau-43310.EUF"
model loaded from /mlatom/home/qhzhang/git/ts-analysis/calculations/_other/irc/da/ani/irc/da_energy_iteration27.npz
 Recovered energy= -234.623052338     dipole=      0.000000000000      0.000000000000      0.000000000000
 Energy=    -234.623052     NIter=   0.
 Dipole moment=       0.000000       0.000000       0.000000
 Leave Link  402 at Sun Apr 28 19:38:21 2024, MaxMem=   104857600 cpu:               0.1 elap:               4.8
 (Enter /mlatom/software/Gaussian/g16-avx2/l716.exe)
 Dipole        = 0.00000000D+00 0.00000000D+00 0.00000000D+00
 -------------------------------------------------------------------
 Center     Atomic                   Forces (Hartrees/Bohr)
 Number     Number              X              Y              Z
 -------------------------------------------------------------------
      1        6           0.040473449   -0.011516762   -0.014680308
      2        6           0.005220336   -0.001139847   -0.003366655
      3        1          -0.000273970    0.001027930   -0.000512312
      4        1           0.002484746   -0.000964008   -0.001250999
      5        1          -0.001912750    0.000660751    0.002956027
      6        6           0.005221333    0.001139584   -0.003367366
      7        6           0.040477088    0.011507406   -0.014683944
      8        1          -0.001912463   -0.000660083    0.002955424
      9        1           0.002484935    0.000963198   -0.001251351
     10        1          -0.000273963   -0.001027907   -0.000512547
     11        6          -0.043508668    0.010708804    0.015940492
     12        6          -0.043509993   -0.010699274    0.015945828
     13        1          -0.001360230   -0.000428715    0.000069371
     14        1          -0.001125044   -0.000575226    0.000844092
     15        1          -0.001125621    0.000574657    0.000844793
     16        1          -0.001359180    0.000429493    0.000069459
 -------------------------------------------------------------------
 Cartesian Forces:  Max     0.043509993 RMS     0.013409103
 Z-matrix is all fixed cartesians, so copy forces.
 Leave Link  716 at Sun Apr 28 19:38:22 2024, MaxMem=   104857600 cpu:               0.0 elap:               0.4
 (Enter /mlatom/software/Gaussian/g16-avx2/l123.exe)
 IRC-IRC-IRC-IRC-IRC-IRC-IRC-IRC-IRC-IRC-IRC-IRC-IRC-IRC-IRC-IRC-IRC-IRC
 Pt 11 Step number   1 out of a maximum of  20
 Point Number:  11          Path Number:   1
                    CURRENT STRUCTURE
                Cartesian Coordinates (Ang):                
 ---------------------------------------------------------------------
 Center     Atomic                     Coordinates (Angstroms)
 Number     Number                        X           Y           Z
 ---------------------------------------------------------------------
      1          6                   -0.207660    1.362710    0.438978
      2          6                   -1.285081    0.672975   -0.311250
      3          1                   -0.183281    1.082477    1.496052
      4          1                   -0.246480    2.451877    0.358761
      5          1                   -1.930183    1.243678   -0.972354
      6          6                   -1.285262   -0.672673   -0.311217
      7          6                   -0.207994   -1.362652    0.439000
      8          1                   -1.930512   -1.243233   -0.972298
      9          1                   -0.247088   -2.451812    0.358821
     10          1                   -0.183480   -1.082388    1.496064
     11          6                    1.384583    0.764030   -0.149877
     12          6                    1.384354   -0.764366   -0.149993
     13          1                    2.131927    1.188137    0.526277
     14          1                    1.521228    1.191901   -1.144459
     15          1                    1.520711   -1.192127   -1.144663
     16          1                    2.131667   -1.188807    0.525986
 ---------------------------------------------------------------------
   CHANGE IN THE REACTION COORDINATE =    0.29100
   NET REACTION COORDINATE UP TO THIS POINT =    3.19976
  # OF POINTS ALONG THE PATH =  11
  # OF STEPS =   1

 Calculating another point on the path.
 Point Number 12 in FORWARD path direction.
 Using LQA Reaction Path Following.
   LQA: T_Est iteration completed in    2 iterations.
 IRC-IRC-IRC-IRC-IRC-IRC-IRC-IRC-IRC-IRC-IRC-IRC-IRC-IRC-IRC-IRC-IRC-IRC
 Leave Link  123 at Sun Apr 28 19:38:23 2024, MaxMem=   104857600 cpu:               0.0 elap:               1.1
 (Enter /mlatom/software/Gaussian/g16-avx2/l202.exe)
                          Input orientation:                          
 ---------------------------------------------------------------------
 Center     Atomic      Atomic             Coordinates (Angstroms)
 Number     Number       Type             X           Y           Z
 ---------------------------------------------------------------------
      1          6           0       -0.189063    1.357390    0.432095
      2          6           0       -1.282485    0.672429   -0.312739
      3          1           0       -0.184283    1.087841    1.493461
      4          1           0       -0.232034    2.446532    0.351356
      5          1           0       -1.941581    1.247895   -0.956241
      6          6           0       -1.282665   -0.672127   -0.312706
      7          6           0       -0.189396   -1.357336    0.432116
      8          1           0       -1.941909   -1.247446   -0.956187
      9          1           0       -0.232641   -2.446471    0.351414
     10          1           0       -0.184481   -1.087751    1.493472
     11          6           0        1.364499    0.768892   -0.142473
     12          6           0        1.364270   -0.769223   -0.142587
     13          1           0        2.123413    1.185524    0.526552
     14          1           0        1.514469    1.188526   -1.139335
     15          1           0        1.513949   -1.188755   -1.139535
     16          1           0        2.123158   -1.186189    0.526260
 ---------------------------------------------------------------------
                    Distance matrix (angstroms):
                    1          2          3          4          5
     1  C    0.000000
     2  C    1.489806   0.000000
     3  H    1.095070   2.154292   0.000000
     4  H    1.092976   2.166082   1.775592   0.000000
     5  H    2.238478   1.086122   3.019065   2.463552   0.000000
     6  C    2.422732   1.344556   2.750667   3.357206   2.129505
     7  C    2.714725   2.422726   2.665590   3.804964   3.432916
     8  H    3.432924   2.129504   3.813606   4.275373   2.495341
     9  H    3.804965   3.357202   3.714561   4.893002   4.275368
    10  H    2.665568   2.750681   2.175591   3.714545   3.813624
    11  C    1.757843   2.654208   2.275244   2.367966   3.438288
    12  C    2.695475   3.018713   2.919479   3.623982   3.957202
    13  H    2.320777   3.545112   2.503980   2.677493   4.327440
    14  H    2.323775   2.961853   3.134887   2.618208   3.461406
    15  H    3.442837   3.459428   3.872926   4.299596   4.232204
    16  H    3.438753   3.969482   3.380972   4.332918   4.964340
                    6          7          8          9         10
     6  C    0.000000
     7  C    1.489802   0.000000
     8  H    1.086123   2.238473   0.000000
     9  H    2.166080   1.092976   2.463549   0.000000
    10  H    2.154305   1.095070   3.019087   1.775594   0.000000
    11  C    3.018773   2.695475   3.957282   3.623994   2.919379
    12  C    2.654173   1.757850   3.438235   2.367978   2.275254
    13  H    3.969457   3.438625   4.964343   4.332788   3.380694
    14  H    3.459668   3.442968   4.232500   4.299759   3.872924
    15  H    2.961690   2.323767   3.461216   2.618274   3.134900
    16  H    3.545103   2.320788   4.327374   2.677437   2.504074
                   11         12         13         14         15
    11  C    0.000000
    12  C    1.538115   0.000000
    13  H    1.094133   2.201155   0.000000
    14  H    1.091933   2.202010   1.773697   0.000000
    15  H    2.202010   1.091933   2.963865   2.377281   0.000000
    16  H    2.201160   1.094133   2.371713   2.963778   1.773701
                   16
    16  H    0.000000
 Symmetry turned off by external request.
 Stoichiometry    C6H10
 Framework group  C1[X(C6H10)]
 Deg. of freedom    42
 Full point group                 C1      NOp   1
 Rotational constants (GHZ):           4.6215635           4.0894465           2.5359174
 Leave Link  202 at Sun Apr 28 19:38:27 2024, MaxMem=   104857600 cpu:               0.0 elap:               0.5
 (Enter /mlatom/software/Gaussian/g16-avx2/l301.exe)
 Standard basis: STO-3G (5D, 7F)
 Ernie: Thresh=  0.10000D-02 Tol=  0.10000D-05 Strict=F.
    40 basis functions,   120 primitive gaussians,    40 cartesian basis functions
    23 alpha electrons       23 beta electrons
       nuclear repulsion energy       231.4821021811 Hartrees.
 IExCor=    0 DFT=F Ex=HF Corr=None ExCW=0 ScaHFX=  1.000000
 ScaDFX=  1.000000  1.000000  1.000000  1.000000 ScalE2=  1.000000  1.000000
 IRadAn=      5 IRanWt=     -1 IRanGd=            0 ICorTp=0 IEmpDi=  4
 NAtoms=   16 NActive=   16 NUniq=   16 SFac= 1.00D+00 NAtFMM=   60 NAOKFM=F Big=F
 Integral buffers will be    131072 words long.
 Raffenetti 1 integral format.
 Two-electron integral symmetry is turned off.
 Leave Link  301 at Sun Apr 28 19:38:27 2024, MaxMem=   104857600 cpu:               0.1 elap:               0.4
 (Enter /mlatom/software/Gaussian/g16-avx2/l402.exe)
 External calculation of energy and first derivatives.
 Running external command "/mlatom/software/miniconda3/bin/python /mlatom/software/mlatom/mlatom/interfaces/gaussian_interface.py model_predict_kwargs R"
         input file       "/mlatom/home/qhzhang/git/ts-analysis/calculations/_other/irc/da/ani/irc_1/Gau-43310.EIn"
         output file      "/mlatom/home/qhzhang/git/ts-analysis/calculations/_other/irc/da/ani/irc_1/Gau-43310.EOu"
         message file     "/mlatom/home/qhzhang/git/ts-analysis/calculations/_other/irc/da/ani/irc_1/Gau-43310.EMs"
         fchk file        "/mlatom/home/qhzhang/git/ts-analysis/calculations/_other/irc/da/ani/irc_1/Gau-43310.EFC"
         mat. el file     "/mlatom/home/qhzhang/git/ts-analysis/calculations/_other/irc/da/ani/irc_1/Gau-43310.EUF"
model loaded from /mlatom/home/qhzhang/git/ts-analysis/calculations/_other/irc/da/ani/irc/da_energy_iteration27.npz
 Recovered energy= -234.630975434     dipole=      0.000000000000      0.000000000000      0.000000000000
 Energy=    -234.630975     NIter=   0.
 Dipole moment=       0.000000       0.000000       0.000000
 Leave Link  402 at Sun Apr 28 19:38:33 2024, MaxMem=   104857600 cpu:               0.0 elap:               4.8
 (Enter /mlatom/software/Gaussian/g16-avx2/l716.exe)
 Dipole        = 0.00000000D+00 0.00000000D+00 0.00000000D+00
 -------------------------------------------------------------------
 Center     Atomic                   Forces (Hartrees/Bohr)
 Number     Number              X              Y              Z
 -------------------------------------------------------------------
      1        6           0.038040415   -0.011150781   -0.014465091
      2        6           0.005576868   -0.000792726   -0.003273045
      3        1          -0.000154845    0.001114026   -0.000530683
      4        1           0.002593852   -0.000879695   -0.001302413
      5        1          -0.001771413    0.000614109    0.003218053
      6        6           0.005577141    0.000792804   -0.003273888
      7        6           0.038045868    0.011141292   -0.014468046
      8        1          -0.001771078   -0.000613288    0.003217499
      9        1           0.002593997    0.000879667   -0.001302802
     10        1          -0.000154976   -0.001114457   -0.000530402
     11        6          -0.041280499    0.008386610    0.015274676
     12        6          -0.041281848   -0.008378335    0.015280281
     13        1          -0.001623743   -0.000321258    0.000178615
     14        1          -0.001382993   -0.000479622    0.000899147
     15        1          -0.001383439    0.000479222    0.000899600
     16        1          -0.001623299    0.000322431    0.000178502
 -------------------------------------------------------------------
 Cartesian Forces:  Max     0.041281848 RMS     0.012684280
 Z-matrix is all fixed cartesians, so copy forces.
 Leave Link  716 at Sun Apr 28 19:38:34 2024, MaxMem=   104857600 cpu:               0.0 elap:               0.4
 (Enter /mlatom/software/Gaussian/g16-avx2/l123.exe)
 IRC-IRC-IRC-IRC-IRC-IRC-IRC-IRC-IRC-IRC-IRC-IRC-IRC-IRC-IRC-IRC-IRC-IRC
 Pt 12 Step number   1 out of a maximum of  20
 Point Number:  12          Path Number:   1
                    CURRENT STRUCTURE
                Cartesian Coordinates (Ang):                
 ---------------------------------------------------------------------
 Center     Atomic                     Coordinates (Angstroms)
 Number     Number                        X           Y           Z
 ---------------------------------------------------------------------
      1          6                   -0.189063    1.357390    0.432095
      2          6                   -1.282485    0.672429   -0.312739
      3          1                   -0.184283    1.087841    1.493461
      4          1                   -0.232034    2.446532    0.351356
      5          1                   -1.941581    1.247895   -0.956241
      6          6                   -1.282665   -0.672127   -0.312706
      7          6                   -0.189396   -1.357336    0.432116
      8          1                   -1.941909   -1.247446   -0.956187
      9          1                   -0.232641   -2.446471    0.351414
     10          1                   -0.184481   -1.087751    1.493472
     11          6                    1.364499    0.768892   -0.142473
     12          6                    1.364270   -0.769223   -0.142587
     13          1                    2.123413    1.185524    0.526552
     14          1                    1.514469    1.188526   -1.139335
     15          1                    1.513949   -1.188755   -1.139535
     16          1                    2.123158   -1.186189    0.526260
 ---------------------------------------------------------------------
   CHANGE IN THE REACTION COORDINATE =    0.29100
   NET REACTION COORDINATE UP TO THIS POINT =    3.49076
  # OF POINTS ALONG THE PATH =  12
  # OF STEPS =   1

 Calculating another point on the path.
 Point Number 13 in FORWARD path direction.
 Using LQA Reaction Path Following.
   LQA: T_Est iteration completed in    4 iterations.
 IRC-IRC-IRC-IRC-IRC-IRC-IRC-IRC-IRC-IRC-IRC-IRC-IRC-IRC-IRC-IRC-IRC-IRC
 Leave Link  123 at Sun Apr 28 19:38:36 2024, MaxMem=   104857600 cpu:               0.1 elap:               1.1
 (Enter /mlatom/software/Gaussian/g16-avx2/l202.exe)
                          Input orientation:                          
 ---------------------------------------------------------------------
 Center     Atomic      Atomic             Coordinates (Angstroms)
 Number     Number       Type             X           Y           Z
 ---------------------------------------------------------------------
      1          6           0       -0.170746    1.352034    0.424969
      2          6           0       -1.279547    0.672002   -0.314210
      3          1           0       -0.184755    1.094247    1.490622
      4          1           0       -0.216319    2.441152    0.343190
      5          1           0       -1.953205    1.252466   -0.938171
      6          6           0       -1.279727   -0.671700   -0.314177
      7          6           0       -0.171076   -1.351985    0.424988
      8          1           0       -1.953531   -1.252012   -0.938120
      9          1           0       -0.216925   -2.441093    0.343245
     10          1           0       -0.184954   -1.094161    1.490635
     11          6           0        1.344546    0.772844   -0.135044
     12          6           0        1.344316   -0.773172   -0.135155
     13          1           0        2.112980    1.183364    0.527519
     14          1           0        1.505770    1.185423   -1.133469
     15          1           0        1.505248   -1.185654   -1.133667
     16          1           0        2.112727   -1.184022    0.527227
 ---------------------------------------------------------------------
                    Distance matrix (angstroms):
                    1          2          3          4          5
     1  C    0.000000
     2  C    1.496085   0.000000
     3  H    1.096479   2.152738   0.000000
     4  H    1.093134   2.166222   1.769675   0.000000
     5  H    2.246158   1.086315   3.008568   2.464068   0.000000
     6  C    2.423154   1.343702   2.752241   3.354521   2.131983
     7  C    2.704019   2.423148   2.668298   3.794288   3.437637
     8  H    3.437643   2.131982   3.812124   4.277747   2.504478
     9  H    3.794289   3.354516   3.717007   4.882245   4.277742
    10  H    2.668279   2.752259   2.188408   3.716995   3.812147
    11  C    1.716155   2.632136   2.254961   2.334151   3.427859
    12  C    2.669392   3.000875   2.910062   3.605034   3.952428
    13  H    2.292242   3.532597   2.493009   2.653610   4.322833
    14  H    2.295037   2.948352   3.122826   2.592869   3.465133
    15  H    3.417333   3.446372   3.865353   4.277689   4.235982
    16  H    3.414131   3.957319   3.375954   4.312797   4.961418
                    6          7          8          9         10
     6  C    0.000000
     7  C    1.496082   0.000000
     8  H    1.086315   2.246154   0.000000
     9  H    2.166219   1.093134   2.464064   0.000000
    10  H    2.152754   1.096480   3.008593   1.769676   0.000000
    11  C    3.000934   2.669390   3.952504   3.605045   2.909967
    12  C    2.632100   1.716158   3.427804   2.334160   2.254971
    13  H    3.957294   3.414003   4.961418   4.312668   3.375680
    14  H    3.446612   3.417461   4.236274   4.277848   3.865355
    15  H    2.948186   2.295024   3.464938   2.592928   3.122838
    16  H    3.532588   2.292252   4.322768   2.653555   2.493104
                   11         12         13         14         15
    11  C    0.000000
    12  C    1.546016   0.000000
    13  H    1.094535   2.204090   0.000000
    14  H    1.092276   2.204266   1.768499   0.000000
    15  H    2.204266   1.092276   2.956539   2.371077   0.000000
    16  H    2.204094   1.094533   2.367387   2.956447   1.768503
                   16
    16  H    0.000000
 Symmetry turned off by external request.
 Stoichiometry    C6H10
 Framework group  C1[X(C6H10)]
 Deg. of freedom    42
 Full point group                 C1      NOp   1
 Rotational constants (GHZ):           4.6472980           4.1566192           2.5600269
 Leave Link  202 at Sun Apr 28 19:38:39 2024, MaxMem=   104857600 cpu:               0.0 elap:               0.5
 (Enter /mlatom/software/Gaussian/g16-avx2/l301.exe)
 Standard basis: STO-3G (5D, 7F)
 Ernie: Thresh=  0.10000D-02 Tol=  0.10000D-05 Strict=F.
    40 basis functions,   120 primitive gaussians,    40 cartesian basis functions
    23 alpha electrons       23 beta electrons
       nuclear repulsion energy       232.4038491125 Hartrees.
 IExCor=    0 DFT=F Ex=HF Corr=None ExCW=0 ScaHFX=  1.000000
 ScaDFX=  1.000000  1.000000  1.000000  1.000000 ScalE2=  1.000000  1.000000
 IRadAn=      5 IRanWt=     -1 IRanGd=            0 ICorTp=0 IEmpDi=  4
 NAtoms=   16 NActive=   16 NUniq=   16 SFac= 1.00D+00 NAtFMM=   60 NAOKFM=F Big=F
 Integral buffers will be    131072 words long.
 Raffenetti 1 integral format.
 Two-electron integral symmetry is turned off.
 Leave Link  301 at Sun Apr 28 19:38:40 2024, MaxMem=   104857600 cpu:               0.0 elap:               0.4
 (Enter /mlatom/software/Gaussian/g16-avx2/l402.exe)
 External calculation of energy and first derivatives.
 Running external command "/mlatom/software/miniconda3/bin/python /mlatom/software/mlatom/mlatom/interfaces/gaussian_interface.py model_predict_kwargs R"
         input file       "/mlatom/home/qhzhang/git/ts-analysis/calculations/_other/irc/da/ani/irc_1/Gau-43310.EIn"
         output file      "/mlatom/home/qhzhang/git/ts-analysis/calculations/_other/irc/da/ani/irc_1/Gau-43310.EOu"
         message file     "/mlatom/home/qhzhang/git/ts-analysis/calculations/_other/irc/da/ani/irc_1/Gau-43310.EMs"
         fchk file        "/mlatom/home/qhzhang/git/ts-analysis/calculations/_other/irc/da/ani/irc_1/Gau-43310.EFC"
         mat. el file     "/mlatom/home/qhzhang/git/ts-analysis/calculations/_other/irc/da/ani/irc_1/Gau-43310.EUF"
model loaded from /mlatom/home/qhzhang/git/ts-analysis/calculations/_other/irc/da/ani/irc/da_energy_iteration27.npz
 Recovered energy= -234.638255121     dipole=      0.000000000000      0.000000000000      0.000000000000
 Energy=    -234.638255     NIter=   0.
 Dipole moment=       0.000000       0.000000       0.000000
 Leave Link  402 at Sun Apr 28 19:38:45 2024, MaxMem=   104857600 cpu:               0.0 elap:               5.3
 (Enter /mlatom/software/Gaussian/g16-avx2/l716.exe)
 Dipole        = 0.00000000D+00 0.00000000D+00 0.00000000D+00
 -------------------------------------------------------------------
 Center     Atomic                   Forces (Hartrees/Bohr)
 Number     Number              X              Y              Z
 -------------------------------------------------------------------
      1        6           0.032388997   -0.009766313   -0.013626077
      2        6           0.006270651   -0.000453440   -0.002827769
      3        1          -0.000012655    0.001205721   -0.000567788
      4        1           0.002716740   -0.000598451   -0.001321124
      5        1          -0.001559778    0.000451807    0.003427283
      6        6           0.006272070    0.000453505   -0.002828391
      7        6           0.032392953    0.009759051   -0.013628208
      8        1          -0.001559710   -0.000451407    0.003426656
      9        1           0.002716902    0.000597448   -0.001321447
     10        1          -0.000012743   -0.001206007   -0.000568290
     11        6          -0.036577145    0.005767319    0.013859949
     12        6          -0.036577855   -0.005760043    0.013863892
     13        1          -0.001723077   -0.000403334    0.000069101
     14        1          -0.001506300   -0.000585158    0.000985974
     15        1          -0.001506866    0.000584991    0.000986893
     16        1          -0.001722201    0.000404317    0.000069348
 -------------------------------------------------------------------
 Cartesian Forces:  Max     0.036577855 RMS     0.011130602
 Z-matrix is all fixed cartesians, so copy forces.
 Leave Link  716 at Sun Apr 28 19:38:46 2024, MaxMem=   104857600 cpu:               0.0 elap:               0.4
 (Enter /mlatom/software/Gaussian/g16-avx2/l123.exe)
 IRC-IRC-IRC-IRC-IRC-IRC-IRC-IRC-IRC-IRC-IRC-IRC-IRC-IRC-IRC-IRC-IRC-IRC
 Pt 13 Step number   1 out of a maximum of  20
 Point Number:  13          Path Number:   1
                    CURRENT STRUCTURE
                Cartesian Coordinates (Ang):                
 ---------------------------------------------------------------------
 Center     Atomic                     Coordinates (Angstroms)
 Number     Number                        X           Y           Z
 ---------------------------------------------------------------------
      1          6                   -0.170746    1.352034    0.424969
      2          6                   -1.279547    0.672002   -0.314210
      3          1                   -0.184755    1.094247    1.490622
      4          1                   -0.216319    2.441152    0.343190
      5          1                   -1.953205    1.252466   -0.938171
      6          6                   -1.279727   -0.671700   -0.314177
      7          6                   -0.171076   -1.351985    0.424988
      8          1                   -1.953531   -1.252012   -0.938120
      9          1                   -0.216925   -2.441093    0.343245
     10          1                   -0.184954   -1.094161    1.490635
     11          6                    1.344546    0.772844   -0.135044
     12          6                    1.344316   -0.773172   -0.135155
     13          1                    2.112980    1.183364    0.527519
     14          1                    1.505770    1.185423   -1.133469
     15          1                    1.505248   -1.185654   -1.133667
     16          1                    2.112727   -1.184022    0.527227
 ---------------------------------------------------------------------
   CHANGE IN THE REACTION COORDINATE =    0.29100
   NET REACTION COORDINATE UP TO THIS POINT =    3.78176
  # OF POINTS ALONG THE PATH =  13
  # OF STEPS =   1

 Calculating another point on the path.
 Point Number 14 in FORWARD path direction.
 Using LQA Reaction Path Following.
   LQA: T_Est iteration completed in    4 iterations.
 IRC-IRC-IRC-IRC-IRC-IRC-IRC-IRC-IRC-IRC-IRC-IRC-IRC-IRC-IRC-IRC-IRC-IRC
 Leave Link  123 at Sun Apr 28 19:38:48 2024, MaxMem=   104857600 cpu:               0.1 elap:               1.1
 (Enter /mlatom/software/Gaussian/g16-avx2/l202.exe)
                          Input orientation:                          
 ---------------------------------------------------------------------
 Center     Atomic      Atomic             Coordinates (Angstroms)
 Number     Number       Type             X           Y           Z
 ---------------------------------------------------------------------
      1          6           0       -0.153443    1.347047    0.417404
      2          6           0       -1.275664    0.671678   -0.315576
      3          1           0       -0.184449    1.102476    1.487008
      4          1           0       -0.197275    2.436218    0.333322
      5          1           0       -1.966053    1.257022   -0.916394
      6          6           0       -1.275843   -0.671375   -0.315544
      7          6           0       -0.153771   -1.347002    0.417422
      8          1           0       -1.966378   -1.256564   -0.916346
      9          1           0       -0.197880   -2.436164    0.333376
     10          1           0       -0.184647   -1.102390    1.487019
     11          6           0        1.324737    0.775704   -0.127463
     12          6           0        1.324507   -0.776027   -0.127572
     13          1           0        2.101087    1.180694    0.528507
     14          1           0        1.494740    1.181253   -1.126666
     15          1           0        1.494213   -1.181487   -1.126859
     16          1           0        2.100840   -1.181345    0.528215
 ---------------------------------------------------------------------
                    Distance matrix (angstroms):
                    1          2          3          4          5
     1  C    0.000000
     2  C    1.500920   0.000000
     3  H    1.097647   2.150732   0.000000
     4  H    1.093290   2.167393   1.763526   0.000000
     5  H    2.252260   1.086391   2.995720   2.465941   0.000000
     6  C    2.423019   1.343053   2.754429   3.352830   2.134508
     7  C    2.694049   2.423014   2.672994   3.784404   3.441564
     8  H    3.441571   2.134508   3.810046   4.281124   2.513585
     9  H    3.784405   3.352825   3.721965   4.872382   4.281119
    10  H    2.672974   2.754448   2.204866   3.721951   3.810068
    11  C    1.675807   2.609271   2.234041   2.299163   3.418096
    12  C    2.643630   2.981960   2.900446   3.584238   3.947570
    13  H    2.263388   3.517673   2.479620   2.626197   4.316850
    14  H    2.264541   2.931326   3.107599   2.563087   3.468003
    15  H    3.390133   3.429959   3.855734   4.252181   4.238403
    16  H    3.389224   3.942900   3.370113   4.290230   4.957030
                    6          7          8          9         10
     6  C    0.000000
     7  C    1.500917   0.000000
     8  H    1.086392   2.252256   0.000000
     9  H    2.167390   1.093291   2.465937   0.000000
    10  H    2.150747   1.097646   2.995746   1.763525   0.000000
    11  C    2.982017   2.643627   3.947643   3.584248   2.900350
    12  C    2.609234   1.675809   3.418041   2.299172   2.234046
    13  H    3.942872   3.389096   4.957025   4.290104   3.369836
    14  H    3.430201   3.390261   4.238694   4.252340   3.855738
    15  H    2.931153   2.264520   3.467801   2.563139   3.107601
    16  H    3.517668   2.263403   4.316791   2.626148   2.479716
                   11         12         13         14         15
    11  C    0.000000
    12  C    1.551731   0.000000
    13  H    1.094090   2.205056   0.000000
    14  H    1.091685   2.204113   1.762740   0.000000
    15  H    2.204112   1.091683   2.947614   2.362740   0.000000
    16  H    2.205060   1.094090   2.362038   2.947517   1.762745
                   16
    16  H    0.000000
 Symmetry turned off by external request.
 Stoichiometry    C6H10
 Framework group  C1[X(C6H10)]
 Deg. of freedom    42
 Full point group                 C1      NOp   1
 Rotational constants (GHZ):           4.6750613           4.2278969           2.5849261
 Leave Link  202 at Sun Apr 28 19:38:52 2024, MaxMem=   104857600 cpu:               0.0 elap:               0.5
 (Enter /mlatom/software/Gaussian/g16-avx2/l301.exe)
 Standard basis: STO-3G (5D, 7F)
 Ernie: Thresh=  0.10000D-02 Tol=  0.10000D-05 Strict=F.
    40 basis functions,   120 primitive gaussians,    40 cartesian basis functions
    23 alpha electrons       23 beta electrons
       nuclear repulsion energy       233.4257487163 Hartrees.
 IExCor=    0 DFT=F Ex=HF Corr=None ExCW=0 ScaHFX=  1.000000
 ScaDFX=  1.000000  1.000000  1.000000  1.000000 ScalE2=  1.000000  1.000000
 IRadAn=      5 IRanWt=     -1 IRanGd=            0 ICorTp=0 IEmpDi=  4
 NAtoms=   16 NActive=   16 NUniq=   16 SFac= 1.00D+00 NAtFMM=   60 NAOKFM=F Big=F
 Integral buffers will be    131072 words long.
 Raffenetti 1 integral format.
 Two-electron integral symmetry is turned off.
 Leave Link  301 at Sun Apr 28 19:38:53 2024, MaxMem=   104857600 cpu:               0.0 elap:               0.4
 (Enter /mlatom/software/Gaussian/g16-avx2/l402.exe)
 External calculation of energy and first derivatives.
 Running external command "/mlatom/software/miniconda3/bin/python /mlatom/software/mlatom/mlatom/interfaces/gaussian_interface.py model_predict_kwargs R"
         input file       "/mlatom/home/qhzhang/git/ts-analysis/calculations/_other/irc/da/ani/irc_1/Gau-43310.EIn"
         output file      "/mlatom/home/qhzhang/git/ts-analysis/calculations/_other/irc/da/ani/irc_1/Gau-43310.EOu"
         message file     "/mlatom/home/qhzhang/git/ts-analysis/calculations/_other/irc/da/ani/irc_1/Gau-43310.EMs"
         fchk file        "/mlatom/home/qhzhang/git/ts-analysis/calculations/_other/irc/da/ani/irc_1/Gau-43310.EFC"
         mat. el file     "/mlatom/home/qhzhang/git/ts-analysis/calculations/_other/irc/da/ani/irc_1/Gau-43310.EUF"
model loaded from /mlatom/home/qhzhang/git/ts-analysis/calculations/_other/irc/da/ani/irc/da_energy_iteration27.npz
 Recovered energy= -234.644600072     dipole=      0.000000000000      0.000000000000      0.000000000000
 Energy=    -234.644600     NIter=   0.
 Dipole moment=       0.000000       0.000000       0.000000
 Leave Link  402 at Sun Apr 28 19:38:59 2024, MaxMem=   104857600 cpu:               0.1 elap:               5.0
 (Enter /mlatom/software/Gaussian/g16-avx2/l716.exe)
 Dipole        = 0.00000000D+00 0.00000000D+00 0.00000000D+00
 -------------------------------------------------------------------
 Center     Atomic                   Forces (Hartrees/Bohr)
 Number     Number              X              Y              Z
 -------------------------------------------------------------------
      1        6           0.025843786   -0.007751322   -0.012116885
      2        6           0.006585391    0.000095229   -0.002310212
      3        1           0.000079070    0.001202913   -0.000364763
      4        1           0.002445992   -0.000150462   -0.001376299
      5        1          -0.001334332    0.000219414    0.003397084
      6        6           0.006586148   -0.000095609   -0.002311185
      7        6           0.025848726    0.007744867   -0.012119100
      8        1          -0.001333824   -0.000218599    0.003396849
      9        1           0.002446130    0.000150429   -0.001376619
     10        1           0.000078684   -0.001203313   -0.000363799
     11        6          -0.030861142    0.002582044    0.012016280
     12        6          -0.030862165   -0.002576159    0.012021150
     13        1          -0.001384225   -0.000364139    0.000173448
     14        1          -0.001376964   -0.000590014    0.000580540
     15        1          -0.001377025    0.000589597    0.000580422
     16        1          -0.001384256    0.000365124    0.000173092
 -------------------------------------------------------------------
 Cartesian Forces:  Max     0.030862165 RMS     0.009252670
 Z-matrix is all fixed cartesians, so copy forces.
 Leave Link  716 at Sun Apr 28 19:39:00 2024, MaxMem=   104857600 cpu:               0.0 elap:               0.4
 (Enter /mlatom/software/Gaussian/g16-avx2/l123.exe)
 IRC-IRC-IRC-IRC-IRC-IRC-IRC-IRC-IRC-IRC-IRC-IRC-IRC-IRC-IRC-IRC-IRC-IRC
 Pt 14 Step number   1 out of a maximum of  20
 Point Number:  14          Path Number:   1
                    CURRENT STRUCTURE
                Cartesian Coordinates (Ang):                
 ---------------------------------------------------------------------
 Center     Atomic                     Coordinates (Angstroms)
 Number     Number                        X           Y           Z
 ---------------------------------------------------------------------
      1          6                   -0.153443    1.347047    0.417404
      2          6                   -1.275664    0.671678   -0.315576
      3          1                   -0.184449    1.102476    1.487008
      4          1                   -0.197275    2.436218    0.333322
      5          1                   -1.966053    1.257022   -0.916394
      6          6                   -1.275843   -0.671375   -0.315544
      7          6                   -0.153771   -1.347002    0.417422
      8          1                   -1.966378   -1.256564   -0.916346
      9          1                   -0.197880   -2.436164    0.333376
     10          1                   -0.184647   -1.102390    1.487019
     11          6                    1.324737    0.775704   -0.127463
     12          6                    1.324507   -0.776027   -0.127572
     13          1                    2.101087    1.180694    0.528507
     14          1                    1.494740    1.181253   -1.126666
     15          1                    1.494213   -1.181487   -1.126859
     16          1                    2.100840   -1.181345    0.528215
 ---------------------------------------------------------------------
   CHANGE IN THE REACTION COORDINATE =    0.29094
   NET REACTION COORDINATE UP TO THIS POINT =    4.07270
  # OF POINTS ALONG THE PATH =  14
  # OF STEPS =   1

 Calculating another point on the path.
 Point Number 15 in FORWARD path direction.
 Using LQA Reaction Path Following.
   LQA: T_Est iteration completed in    4 iterations.
 IRC-IRC-IRC-IRC-IRC-IRC-IRC-IRC-IRC-IRC-IRC-IRC-IRC-IRC-IRC-IRC-IRC-IRC
 Leave Link  123 at Sun Apr 28 19:39:02 2024, MaxMem=   104857600 cpu:               0.1 elap:               1.1
 (Enter /mlatom/software/Gaussian/g16-avx2/l202.exe)
                          Input orientation:                          
 ---------------------------------------------------------------------
 Center     Atomic      Atomic             Coordinates (Angstroms)
 Number     Number       Type             X           Y           Z
 ---------------------------------------------------------------------
      1          6           0       -0.137085    1.342708    0.409487
      2          6           0       -1.270772    0.671557   -0.316794
      3          1           0       -0.183500    1.112897    1.483406
      4          1           0       -0.177568    2.432693    0.321265
      5          1           0       -1.979886    1.260923   -0.891447
      6          6           0       -1.270950   -0.671254   -0.316762
      7          6           0       -0.137409   -1.342666    0.409504
      8          1           0       -1.980208   -1.260458   -0.891403
      9          1           0       -0.178170   -2.432643    0.321316
     10          1           0       -0.183704   -1.112817    1.483423
     11          6           0        1.304879    0.777211   -0.119709
     12          6           0        1.304647   -0.777531   -0.119815
     13          1           0        2.089309    1.177241    0.529557
     14          1           0        1.483113    1.175274   -1.120577
     15          1           0        1.482587   -1.175508   -1.120769
     16          1           0        2.089062   -1.177886    0.529265
 ---------------------------------------------------------------------
                    Distance matrix (angstroms):
                    1          2          3          4          5
     1  C    0.000000
     2  C    1.504385   0.000000
     3  H    1.099213   2.148875   0.000000
     4  H    1.094299   2.168829   1.758541   0.000000
     5  H    2.257218   1.086472   2.981416   2.468212   0.000000
     6  C    2.422629   1.342811   2.757961   3.352171   2.136858
     7  C    2.685374   2.422625   2.680519   3.776604   3.444687
     8  H    3.444690   2.136857   3.807977   4.284792   2.521381
     9  H    3.776604   3.352166   3.731130   4.865336   4.284787
    10  H    2.680506   2.757986   2.225714   3.731124   3.808007
    11  C    1.636794   2.585340   2.213127   2.265552   3.408700
    12  C    2.618046   2.961662   2.891127   3.563292   3.941937
    13  H    2.235761   3.501738   2.465690   2.599669   4.310987
    14  H    2.234764   2.912676   3.092283   2.533352   3.471628
    15  H    3.362504   3.411599   3.846345   4.225481   4.239988
    16  H    3.365036   3.927434   3.364908   4.268156   4.952025
                    6          7          8          9         10
     6  C    0.000000
     7  C    1.504383   0.000000
     8  H    1.086472   2.257216   0.000000
     9  H    2.168824   1.094298   2.468207   0.000000
    10  H    2.148894   1.099217   2.981447   1.758541   0.000000
    11  C    2.961718   2.618041   3.942005   3.563299   2.891041
    12  C    2.585301   1.636791   3.408642   2.265555   2.213138
    13  H    3.927407   3.364910   4.952017   4.268031   3.364642
    14  H    3.411839   3.362627   4.240272   4.225633   3.846356
    15  H    2.912501   2.234740   3.471422   2.533399   3.092293
    16  H    3.501731   2.235771   4.310925   2.599616   2.465790
                   11         12         13         14         15
    11  C    0.000000
    12  C    1.554742   0.000000
    13  H    1.094030   2.204203   0.000000
    14  H    1.091768   2.201549   1.757959   0.000000
    15  H    2.201548   1.091768   2.937195   2.350782   0.000000
    16  H    2.204204   1.094027   2.355127   2.937092   1.757962
                   16
    16  H    0.000000
 Symmetry turned off by external request.
 Stoichiometry    C6H10
 Framework group  C1[X(C6H10)]
 Deg. of freedom    42
 Full point group                 C1      NOp   1
 Rotational constants (GHZ):           4.7034889           4.3027562           2.6104014
 Leave Link  202 at Sun Apr 28 19:39:06 2024, MaxMem=   104857600 cpu:               0.0 elap:               0.5
 (Enter /mlatom/software/Gaussian/g16-avx2/l301.exe)
 Standard basis: STO-3G (5D, 7F)
 Ernie: Thresh=  0.10000D-02 Tol=  0.10000D-05 Strict=F.
    40 basis functions,   120 primitive gaussians,    40 cartesian basis functions
    23 alpha electrons       23 beta electrons
       nuclear repulsion energy       234.5043847326 Hartrees.
 IExCor=    0 DFT=F Ex=HF Corr=None ExCW=0 ScaHFX=  1.000000
 ScaDFX=  1.000000  1.000000  1.000000  1.000000 ScalE2=  1.000000  1.000000
 IRadAn=      5 IRanWt=     -1 IRanGd=            0 ICorTp=0 IEmpDi=  4
 NAtoms=   16 NActive=   16 NUniq=   16 SFac= 1.00D+00 NAtFMM=   60 NAOKFM=F Big=F
 Integral buffers will be    131072 words long.
 Raffenetti 1 integral format.
 Two-electron integral symmetry is turned off.
 Leave Link  301 at Sun Apr 28 19:39:07 2024, MaxMem=   104857600 cpu:               0.1 elap:               0.4
 (Enter /mlatom/software/Gaussian/g16-avx2/l402.exe)
 External calculation of energy and first derivatives.
 Running external command "/mlatom/software/miniconda3/bin/python /mlatom/software/mlatom/mlatom/interfaces/gaussian_interface.py model_predict_kwargs R"
         input file       "/mlatom/home/qhzhang/git/ts-analysis/calculations/_other/irc/da/ani/irc_1/Gau-43310.EIn"
         output file      "/mlatom/home/qhzhang/git/ts-analysis/calculations/_other/irc/da/ani/irc_1/Gau-43310.EOu"
         message file     "/mlatom/home/qhzhang/git/ts-analysis/calculations/_other/irc/da/ani/irc_1/Gau-43310.EMs"
         fchk file        "/mlatom/home/qhzhang/git/ts-analysis/calculations/_other/irc/da/ani/irc_1/Gau-43310.EFC"
         mat. el file     "/mlatom/home/qhzhang/git/ts-analysis/calculations/_other/irc/da/ani/irc_1/Gau-43310.EUF"
model loaded from /mlatom/home/qhzhang/git/ts-analysis/calculations/_other/irc/da/ani/irc/da_energy_iteration27.npz
 Recovered energy= -234.649666601     dipole=      0.000000000000      0.000000000000      0.000000000000
 Energy=    -234.649667     NIter=   0.
 Dipole moment=       0.000000       0.000000       0.000000
 Leave Link  402 at Sun Apr 28 19:39:12 2024, MaxMem=   104857600 cpu:               0.1 elap:               4.8
 (Enter /mlatom/software/Gaussian/g16-avx2/l716.exe)
 Dipole        = 0.00000000D+00 0.00000000D+00 0.00000000D+00
 -------------------------------------------------------------------
 Center     Atomic                   Forces (Hartrees/Bohr)
 Number     Number              X              Y              Z
 -------------------------------------------------------------------
      1        6           0.018202137   -0.004515088   -0.009609276
      2        6           0.006240694    0.000625960   -0.001840512
      3        1           0.000080205    0.001092315   -0.000559256
      4        1           0.001950859   -0.000061762   -0.001320134
      5        1          -0.000886948   -0.000015160    0.003325847
      6        6           0.006243276   -0.000626597   -0.001840200
      7        6           0.018203135    0.004511062   -0.009608455
      8        1          -0.000886688    0.000015898    0.003325402
      9        1           0.001951011    0.000061244   -0.001320554
     10        1           0.000080734   -0.001093174   -0.000560813
     11        6          -0.023299170    0.000301364    0.009332689
     12        6          -0.023298742   -0.000296521    0.009335016
     13        1          -0.000990016   -0.000368802    0.000255319
     14        1          -0.001300314   -0.000620041    0.000414121
     15        1          -0.001301219    0.000620134    0.000415042
     16        1          -0.000988957    0.000369170    0.000255767
 -------------------------------------------------------------------
 Cartesian Forces:  Max     0.023299170 RMS     0.006889515
 Z-matrix is all fixed cartesians, so copy forces.
 Leave Link  716 at Sun Apr 28 19:39:13 2024, MaxMem=   104857600 cpu:               0.0 elap:               0.4
 (Enter /mlatom/software/Gaussian/g16-avx2/l123.exe)
 IRC-IRC-IRC-IRC-IRC-IRC-IRC-IRC-IRC-IRC-IRC-IRC-IRC-IRC-IRC-IRC-IRC-IRC
 Pt 15 Step number   1 out of a maximum of  20
 Point Number:  15          Path Number:   1
                    CURRENT STRUCTURE
                Cartesian Coordinates (Ang):                
 ---------------------------------------------------------------------
 Center     Atomic                     Coordinates (Angstroms)
 Number     Number                        X           Y           Z
 ---------------------------------------------------------------------
      1          6                   -0.137085    1.342708    0.409487
      2          6                   -1.270772    0.671557   -0.316794
      3          1                   -0.183500    1.112897    1.483406
      4          1                   -0.177568    2.432693    0.321265
      5          1                   -1.979886    1.260923   -0.891447
      6          6                   -1.270950   -0.671254   -0.316762
      7          6                   -0.137409   -1.342666    0.409504
      8          1                   -1.980208   -1.260458   -0.891403
      9          1                   -0.178170   -2.432643    0.321316
     10          1                   -0.183704   -1.112817    1.483423
     11          6                    1.304879    0.777211   -0.119709
     12          6                    1.304647   -0.777531   -0.119815
     13          1                    2.089309    1.177241    0.529557
     14          1                    1.483113    1.175274   -1.120577
     15          1                    1.482587   -1.175508   -1.120769
     16          1                    2.089062   -1.177886    0.529265
 ---------------------------------------------------------------------
   CHANGE IN THE REACTION COORDINATE =    0.29090
   NET REACTION COORDINATE UP TO THIS POINT =    4.36360
  # OF POINTS ALONG THE PATH =  15
  # OF STEPS =   1

 Calculating another point on the path.
 Point Number 16 in FORWARD path direction.
 Using LQA Reaction Path Following.
   LQA: T_Est iteration completed in    4 iterations.
 IRC-IRC-IRC-IRC-IRC-IRC-IRC-IRC-IRC-IRC-IRC-IRC-IRC-IRC-IRC-IRC-IRC-IRC
 Leave Link  123 at Sun Apr 28 19:39:15 2024, MaxMem=   104857600 cpu:               0.1 elap:               1.1
 (Enter /mlatom/software/Gaussian/g16-avx2/l202.exe)
                          Input orientation:                          
 ---------------------------------------------------------------------
 Center     Atomic      Atomic             Coordinates (Angstroms)
 Number     Number       Type             X           Y           Z
 ---------------------------------------------------------------------
      1          6           0       -0.122615    1.340092    0.401123
      2          6           0       -1.264437    0.671821   -0.317882
      3          1           0       -0.181891    1.125630    1.477992
      4          1           0       -0.155712    2.430369    0.305029
      5          1           0       -1.996165    1.265129   -0.860159
      6          6           0       -1.264612   -0.671519   -0.317850
      7          6           0       -0.122940   -1.340055    0.401140
      8          1           0       -1.996484   -1.264656   -0.860118
      9          1           0       -0.156315   -2.430324    0.305075
     10          1           0       -0.182083   -1.125555    1.478001
     11          6           0        1.285708    0.777189   -0.111763
     12          6           0        1.285478   -0.777504   -0.111867
     13          1           0        2.077828    1.172271    0.531329
     14          1           0        1.467913    1.167312   -1.114066
     15          1           0        1.467373   -1.167547   -1.114251
     16          1           0        2.077593   -1.172908    0.531036
 ---------------------------------------------------------------------
                    Distance matrix (angstroms):
                    1          2          3          4          5
     1  C    0.000000
     2  C    1.505759   0.000000
     3  H    1.099616   2.145463   0.000000
     4  H    1.095004   2.170202   1.754670   0.000000
     5  H    2.259788   1.086971   2.962769   2.470367   0.000000
     6  C    2.422325   1.343340   2.761716   3.352513   2.140065
     7  C    2.680147   2.422324   2.691224   3.771791   3.447729
     8  H    3.447727   2.140059   3.804336   4.289430   2.529785
     9  H    3.771790   3.352509   3.744489   4.860693   4.289429
    10  H    2.691211   2.761747   2.251185   3.744483   3.804374
    11  C    1.601026   2.560629   2.191479   2.232580   3.401304
    12  C    2.594243   2.940246   2.881448   3.541367   3.937191
    13  H    2.210671   3.484587   2.450444   2.573466   4.306075
    14  H    2.203504   2.888798   3.072842   2.499061   3.474748
    15  H    3.333568   3.388254   3.833857   4.194492   4.240115
    16  H    3.342598   3.910607   3.359356   4.245272   4.947217
                    6          7          8          9         10
     6  C    0.000000
     7  C    1.505756   0.000000
     8  H    1.086969   2.259784   0.000000
     9  H    2.170197   1.095002   2.470361   0.000000
    10  H    2.145483   1.099608   2.962803   1.754663   0.000000
    11  C    2.940299   2.594239   3.937251   3.541373   2.881353
    12  C    2.560589   1.601024   3.401245   2.232581   2.191473
    13  H    3.910572   3.342470   4.947197   4.245147   3.359076
    14  H    3.388503   3.333699   4.240401   4.194647   3.833867
    15  H    2.888606   2.203467   3.474525   2.499091   3.072823
    16  H    3.484585   2.210691   4.306023   2.573421   2.450535
                   11         12         13         14         15
    11  C    0.000000
    12  C    1.554693   0.000000
    13  H    1.094127   2.200715   0.000000
    14  H    1.090874   2.195449   1.754807   0.000000
    15  H    2.195445   1.090868   2.924951   2.334859   0.000000
    16  H    2.200716   1.094128   2.345179   2.924842   1.754812
                   16
    16  H    0.000000
 Symmetry turned off by external request.
 Stoichiometry    C6H10
 Framework group  C1[X(C6H10)]
 Deg. of freedom    42
 Full point group                 C1      NOp   1
 Rotational constants (GHZ):           4.7307348           4.3818123           2.6353349
 Leave Link  202 at Sun Apr 28 19:39:18 2024, MaxMem=   104857600 cpu:               0.0 elap:               0.5
 (Enter /mlatom/software/Gaussian/g16-avx2/l301.exe)
 Standard basis: STO-3G (5D, 7F)
 Ernie: Thresh=  0.10000D-02 Tol=  0.10000D-05 Strict=F.
    40 basis functions,   120 primitive gaussians,    40 cartesian basis functions
    23 alpha electrons       23 beta electrons
       nuclear repulsion energy       235.6386753653 Hartrees.
 IExCor=    0 DFT=F Ex=HF Corr=None ExCW=0 ScaHFX=  1.000000
 ScaDFX=  1.000000  1.000000  1.000000  1.000000 ScalE2=  1.000000  1.000000
 IRadAn=      5 IRanWt=     -1 IRanGd=            0 ICorTp=0 IEmpDi=  4
 NAtoms=   16 NActive=   16 NUniq=   16 SFac= 1.00D+00 NAtFMM=   60 NAOKFM=F Big=F
 Integral buffers will be    131072 words long.
 Raffenetti 1 integral format.
 Two-electron integral symmetry is turned off.
 Leave Link  301 at Sun Apr 28 19:39:20 2024, MaxMem=   104857600 cpu:               0.0 elap:               0.4
 (Enter /mlatom/software/Gaussian/g16-avx2/l402.exe)
 External calculation of energy and first derivatives.
 Running external command "/mlatom/software/miniconda3/bin/python /mlatom/software/mlatom/mlatom/interfaces/gaussian_interface.py model_predict_kwargs R"
         input file       "/mlatom/home/qhzhang/git/ts-analysis/calculations/_other/irc/da/ani/irc_1/Gau-43310.EIn"
         output file      "/mlatom/home/qhzhang/git/ts-analysis/calculations/_other/irc/da/ani/irc_1/Gau-43310.EOu"
         message file     "/mlatom/home/qhzhang/git/ts-analysis/calculations/_other/irc/da/ani/irc_1/Gau-43310.EMs"
         fchk file        "/mlatom/home/qhzhang/git/ts-analysis/calculations/_other/irc/da/ani/irc_1/Gau-43310.EFC"
         mat. el file     "/mlatom/home/qhzhang/git/ts-analysis/calculations/_other/irc/da/ani/irc_1/Gau-43310.EUF"
model loaded from /mlatom/home/qhzhang/git/ts-analysis/calculations/_other/irc/da/ani/irc/da_energy_iteration27.npz
 Recovered energy= -234.653389075     dipole=      0.000000000000      0.000000000000      0.000000000000
 Energy=    -234.653389     NIter=   0.
 Dipole moment=       0.000000       0.000000       0.000000
 Leave Link  402 at Sun Apr 28 19:39:25 2024, MaxMem=   104857600 cpu:               0.0 elap:               5.0
 (Enter /mlatom/software/Gaussian/g16-avx2/l716.exe)
 Dipole        = 0.00000000D+00 0.00000000D+00 0.00000000D+00
 -------------------------------------------------------------------
 Center     Atomic                   Forces (Hartrees/Bohr)
 Number     Number              X              Y              Z
 -------------------------------------------------------------------
      1        6           0.011968046   -0.001371683   -0.006928322
      2        6           0.004636082    0.000347945   -0.001495642
      3        1          -0.000192742    0.001072292   -0.000194258
      4        1           0.001148182   -0.000086257   -0.001203640
      5        1          -0.000174929   -0.000533566    0.003012677
      6        6           0.004636837   -0.000347455   -0.001495385
      7        6           0.011970994    0.001368648   -0.006931522
      8        1          -0.000175108    0.000532961    0.003011761
      9        1           0.001148168    0.000085607   -0.001203862
     10        1          -0.000194367   -0.001071738   -0.000190019
     11        6          -0.016021151   -0.001742362    0.006910727
     12        6          -0.016020083    0.001745195    0.006915144
     13        1          -0.000659573   -0.000188139    0.000135186
     14        1          -0.000705200   -0.000328386   -0.000237298
     15        1          -0.000704458    0.000327980   -0.000239521
     16        1          -0.000660693    0.000188958    0.000133973
 -------------------------------------------------------------------
 Cartesian Forces:  Max     0.016021151 RMS     0.004739251
 Z-matrix is all fixed cartesians, so copy forces.
 Leave Link  716 at Sun Apr 28 19:39:26 2024, MaxMem=   104857600 cpu:               0.1 elap:               0.4
 (Enter /mlatom/software/Gaussian/g16-avx2/l123.exe)
 IRC-IRC-IRC-IRC-IRC-IRC-IRC-IRC-IRC-IRC-IRC-IRC-IRC-IRC-IRC-IRC-IRC-IRC
 Pt 16 Step number   1 out of a maximum of  20
 Point Number:  16          Path Number:   1
                    CURRENT STRUCTURE
                Cartesian Coordinates (Ang):                
 ---------------------------------------------------------------------
 Center     Atomic                     Coordinates (Angstroms)
 Number     Number                        X           Y           Z
 ---------------------------------------------------------------------
      1          6                   -0.122615    1.340092    0.401123
      2          6                   -1.264437    0.671821   -0.317882
      3          1                   -0.181891    1.125630    1.477992
      4          1                   -0.155712    2.430369    0.305029
      5          1                   -1.996165    1.265129   -0.860159
      6          6                   -1.264612   -0.671519   -0.317850
      7          6                   -0.122940   -1.340055    0.401140
      8          1                   -1.996484   -1.264656   -0.860118
      9          1                   -0.156315   -2.430324    0.305075
     10          1                   -0.182083   -1.125555    1.478001
     11          6                    1.285708    0.777189   -0.111763
     12          6                    1.285478   -0.777504   -0.111867
     13          1                    2.077828    1.172271    0.531329
     14          1                    1.467913    1.167312   -1.114066
     15          1                    1.467373   -1.167547   -1.114251
     16          1                    2.077593   -1.172908    0.531036
 ---------------------------------------------------------------------
   CHANGE IN THE REACTION COORDINATE =    0.29054
   NET REACTION COORDINATE UP TO THIS POINT =    4.65414
  # OF POINTS ALONG THE PATH =  16
  # OF STEPS =   1

 Calculating another point on the path.
 Point Number 17 in FORWARD path direction.
 Using LQA Reaction Path Following.
   LQA: T_Est iteration completed in    4 iterations.
 IRC-IRC-IRC-IRC-IRC-IRC-IRC-IRC-IRC-IRC-IRC-IRC-IRC-IRC-IRC-IRC-IRC-IRC
 Leave Link  123 at Sun Apr 28 19:39:28 2024, MaxMem=   104857600 cpu:               0.1 elap:               1.1
 (Enter /mlatom/software/Gaussian/g16-avx2/l202.exe)
                          Input orientation:                          
 ---------------------------------------------------------------------
 Center     Atomic      Atomic             Coordinates (Angstroms)
 Number     Number       Type             X           Y           Z
 ---------------------------------------------------------------------
      1          6           0       -0.108929    1.340168    0.392497
      2          6           0       -1.257235    0.671521   -0.318221
      3          1           0       -0.183913    1.145522    1.475128
      4          1           0       -0.138132    2.430281    0.283407
      5          1           0       -2.010151    1.265925   -0.827008
      6          6           0       -1.257409   -0.671221   -0.318189
      7          6           0       -0.109248   -1.340132    0.392515
      8          1           0       -2.010466   -1.265449   -0.826972
      9          1           0       -0.138734   -2.430240    0.283450
     10          1           0       -0.184152   -1.145458    1.475172
     11          6           0        1.266654    0.775932   -0.103928
     12          6           0        1.266423   -0.776245   -0.104031
     13          1           0        2.065139    1.167989    0.532475
     14          1           0        1.457173    1.157161   -1.110437
     15          1           0        1.456652   -1.157390   -1.110635
     16          1           0        2.064894   -1.168624    0.532177
 ---------------------------------------------------------------------
                    Distance matrix (angstroms):
                    1          2          3          4          5
     1  C    0.000000
     2  C    1.506923   0.000000
     3  H    1.102543   2.143082   0.000000
     4  H    1.095946   2.169696   1.752970   0.000000
     5  H    2.259945   1.085846   2.940999   2.468441   0.000000
     6  C    2.422761   1.342742   2.769284   3.351717   2.139638
     7  C    2.680301   2.422761   2.712214   3.772102   3.448507
     8  H    3.448506   2.139635   3.801150   4.289172   2.531374
     9  H    3.772102   3.351712   3.769378   4.860520   4.289167
    10  H    2.712228   2.769328   2.290980   3.769394   3.801193
    11  C    1.567492   2.535121   2.175813   2.204614   3.391223
    12  C    2.572418   2.917319   2.879307   3.522029   3.927988
    13  H    2.185363   3.465304   2.438716   2.551435   4.297182
    14  H    2.178297   2.869052   3.062425   2.471565   3.480589
    15  H    3.308814   3.367198   3.831583   4.166302   4.239295
    16  H    3.322508   3.891767   3.361780   4.226977   4.937652
                    6          7          8          9         10
     6  C    0.000000
     7  C    1.506922   0.000000
     8  H    1.085846   2.259945   0.000000
     9  H    2.169689   1.095946   2.468432   0.000000
    10  H    2.143111   1.102568   2.941035   1.752977   0.000000
    11  C    2.917371   2.572410   3.928046   3.522033   2.879260
    12  C    2.535078   1.567481   3.391159   2.204610   2.175861
    13  H    3.891741   3.322382   4.937638   4.226856   3.361551
    14  H    3.367431   3.308929   4.239565   4.166447   3.831628
    15  H    2.868878   2.178279   3.480381   2.471614   3.062480
    16  H    3.465289   2.185364   4.297118   2.551375   2.438850
                   11         12         13         14         15
    11  C    0.000000
    12  C    1.552177   0.000000
    13  H    1.093753   2.196163   0.000000
    14  H    1.093020   2.187989   1.751827   0.000000
    15  H    2.187988   1.093028   2.911606   2.314551   0.000000
    16  H    2.196159   1.093746   2.336613   2.911491   1.751832
                   16
    16  H    0.000000
 Symmetry turned off by external request.
 Stoichiometry    C6H10
 Framework group  C1[X(C6H10)]
 Deg. of freedom    42
 Full point group                 C1      NOp   1
 Rotational constants (GHZ):           4.7510566           4.4635963           2.6589961
 Leave Link  202 at Sun Apr 28 19:39:32 2024, MaxMem=   104857600 cpu:               0.0 elap:               0.5
 (Enter /mlatom/software/Gaussian/g16-avx2/l301.exe)
 Standard basis: STO-3G (5D, 7F)
 Ernie: Thresh=  0.10000D-02 Tol=  0.10000D-05 Strict=F.
    40 basis functions,   120 primitive gaussians,    40 cartesian basis functions
    23 alpha electrons       23 beta electrons
       nuclear repulsion energy       236.7319645888 Hartrees.
 IExCor=    0 DFT=F Ex=HF Corr=None ExCW=0 ScaHFX=  1.000000
 ScaDFX=  1.000000  1.000000  1.000000  1.000000 ScalE2=  1.000000  1.000000
 IRadAn=      5 IRanWt=     -1 IRanGd=            0 ICorTp=0 IEmpDi=  4
 NAtoms=   16 NActive=   16 NUniq=   16 SFac= 1.00D+00 NAtFMM=   60 NAOKFM=F Big=F
 Integral buffers will be    131072 words long.
 Raffenetti 1 integral format.
 Two-electron integral symmetry is turned off.
 Leave Link  301 at Sun Apr 28 19:39:33 2024, MaxMem=   104857600 cpu:               0.0 elap:               0.4
 (Enter /mlatom/software/Gaussian/g16-avx2/l402.exe)
 External calculation of energy and first derivatives.
 Running external command "/mlatom/software/miniconda3/bin/python /mlatom/software/mlatom/mlatom/interfaces/gaussian_interface.py model_predict_kwargs R"
         input file       "/mlatom/home/qhzhang/git/ts-analysis/calculations/_other/irc/da/ani/irc_1/Gau-43310.EIn"
         output file      "/mlatom/home/qhzhang/git/ts-analysis/calculations/_other/irc/da/ani/irc_1/Gau-43310.EOu"
         message file     "/mlatom/home/qhzhang/git/ts-analysis/calculations/_other/irc/da/ani/irc_1/Gau-43310.EMs"
         fchk file        "/mlatom/home/qhzhang/git/ts-analysis/calculations/_other/irc/da/ani/irc_1/Gau-43310.EFC"
         mat. el file     "/mlatom/home/qhzhang/git/ts-analysis/calculations/_other/irc/da/ani/irc_1/Gau-43310.EUF"
model loaded from /mlatom/home/qhzhang/git/ts-analysis/calculations/_other/irc/da/ani/irc/da_energy_iteration27.npz
 Recovered energy= -234.655727187     dipole=      0.000000000000      0.000000000000      0.000000000000
 Energy=    -234.655727     NIter=   0.
 Dipole moment=       0.000000       0.000000       0.000000
 Leave Link  402 at Sun Apr 28 19:39:39 2024, MaxMem=   104857600 cpu:               0.0 elap:               4.8
 (Enter /mlatom/software/Gaussian/g16-avx2/l716.exe)
 Dipole        = 0.00000000D+00 0.00000000D+00 0.00000000D+00
 -------------------------------------------------------------------
 Center     Atomic                   Forces (Hartrees/Bohr)
 Number     Number              X              Y              Z
 -------------------------------------------------------------------
      1        6           0.004336514    0.001954189   -0.002919620
      2        6           0.003302860    0.000531643   -0.000656713
      3        1          -0.000029561    0.001024479   -0.001261959
      4        1           0.000720950   -0.000202342   -0.001083826
      5        1          -0.000235242   -0.000320068    0.002043217
      6        6           0.003304164   -0.000531646   -0.000658449
      7        6           0.004331455   -0.001955014   -0.002907958
      8        1          -0.000235091    0.000319868    0.002043580
      9        1           0.000721139    0.000202005   -0.001084302
     10        1          -0.000026189   -0.001025542   -0.001275634
     11        6          -0.007388031   -0.002299041    0.002840440
     12        6          -0.007387355    0.002300856    0.002836110
     13        1           0.000211400   -0.000012020    0.000620398
     14        1          -0.000919538   -0.000421997    0.000418456
     15        1          -0.000922023    0.000423263    0.000424472
     16        1           0.000214544    0.000011372    0.000621785
 -------------------------------------------------------------------
 Cartesian Forces:  Max     0.007388031 RMS     0.002245474
 Z-matrix is all fixed cartesians, so copy forces.
 Leave Link  716 at Sun Apr 28 19:39:40 2024, MaxMem=   104857600 cpu:               0.0 elap:               0.4
 (Enter /mlatom/software/Gaussian/g16-avx2/l123.exe)
 IRC-IRC-IRC-IRC-IRC-IRC-IRC-IRC-IRC-IRC-IRC-IRC-IRC-IRC-IRC-IRC-IRC-IRC
 Pt 17 Step number   1 out of a maximum of  20
 Point Number:  17          Path Number:   1
                    CURRENT STRUCTURE
                Cartesian Coordinates (Ang):                
 ---------------------------------------------------------------------
 Center     Atomic                     Coordinates (Angstroms)
 Number     Number                        X           Y           Z
 ---------------------------------------------------------------------
      1          6                   -0.108929    1.340168    0.392497
      2          6                   -1.257235    0.671521   -0.318221
      3          1                   -0.183913    1.145522    1.475128
      4          1                   -0.138132    2.430281    0.283407
      5          1                   -2.010151    1.265925   -0.827008
      6          6                   -1.257409   -0.671221   -0.318189
      7          6                   -0.109248   -1.340132    0.392515
      8          1                   -2.010466   -1.265449   -0.826972
      9          1                   -0.138734   -2.430240    0.283450
     10          1                   -0.184152   -1.145458    1.475172
     11          6                    1.266654    0.775932   -0.103928
     12          6                    1.266423   -0.776245   -0.104031
     13          1                    2.065139    1.167989    0.532475
     14          1                    1.457173    1.157161   -1.110437
     15          1                    1.456652   -1.157390   -1.110635
     16          1                    2.064894   -1.168624    0.532177
 ---------------------------------------------------------------------
   CHANGE IN THE REACTION COORDINATE =    0.29022
   NET REACTION COORDINATE UP TO THIS POINT =    4.94437
  # OF POINTS ALONG THE PATH =  17
  # OF STEPS =   1

 Calculating another point on the path.
 Point Number 18 in FORWARD path direction.
 Using LQA Reaction Path Following.
   LQA: T_Est iteration completed in    4 iterations.
 IRC-IRC-IRC-IRC-IRC-IRC-IRC-IRC-IRC-IRC-IRC-IRC-IRC-IRC-IRC-IRC-IRC-IRC
 Leave Link  123 at Sun Apr 28 19:39:42 2024, MaxMem=   104857600 cpu:               0.0 elap:               1.1
 (Enter /mlatom/software/Gaussian/g16-avx2/l202.exe)
                          Input orientation:                          
 ---------------------------------------------------------------------
 Center     Atomic      Atomic             Coordinates (Angstroms)
 Number     Number       Type             X           Y           Z
 ---------------------------------------------------------------------
      1          6           0       -0.106081    1.347125    0.384945
      2          6           0       -1.249796    0.672653   -0.318804
      3          1           0       -0.181672    1.174242    1.465781
      4          1           0       -0.109799    2.432467    0.243920
      5          1           0       -2.040040    1.269186   -0.779000
      6          6           0       -1.249970   -0.672354   -0.318777
      7          6           0       -0.106421   -1.347097    0.384963
      8          1           0       -2.040374   -1.268708   -0.778952
      9          1           0       -0.110411   -2.432443    0.243976
     10          1           0       -0.181769   -1.174119    1.465700
     11          6           0        1.258819    0.771000   -0.097020
     12          6           0        1.258598   -0.771306   -0.097120
     13          1           0        2.061991    1.159665    0.537320
     14          1           0        1.430466    1.148066   -1.099805
     15          1           0        1.429877   -1.148303   -1.099959
     16          1           0        2.061803   -1.160281    0.537015
 ---------------------------------------------------------------------
                    Distance matrix (angstroms):
                    1          2          3          4          5
     1  C    0.000000
     2  C    1.502750   0.000000
     3  H    1.097183   2.139445   0.000000
     4  H    1.094472   2.170990   1.755346   0.000000
     5  H    2.258548   1.091841   2.915748   2.474958   0.000000
     6  C    2.425284   1.345008   2.781336   3.355076   2.146065
     7  C    2.694222   2.425281   2.744264   3.782196   3.455232
     8  H    3.455246   2.146073   3.802841   4.297916   2.537893
     9  H    3.782198   3.355077   3.808682   4.864909   4.297906
    10  H    2.744163   2.781314   2.348361   3.808594   3.802839
    11  C    1.557935   2.520319   2.163322   2.179410   3.405254
    12  C    2.565636   2.902793   2.881353   3.500426   3.938221
    13  H    2.181489   3.455150   2.428224   2.534320   4.309449
    14  H    2.145946   2.831923   3.030166   2.414063   3.487406
    15  H    3.285006   3.332677   3.817634   4.122927   4.241178
    16  H    3.318121   3.880562   3.368350   4.208277   4.945636
                    6          7          8          9         10
     6  C    0.000000
     7  C    1.502742   0.000000
     8  H    1.091850   2.258543   0.000000
     9  H    2.170990   1.094471   2.474958   0.000000
    10  H    2.139434   1.097084   2.915788   1.755301   0.000000
    11  C    2.902838   2.565642   3.938288   3.500444   2.881124
    12  C    2.520286   1.557953   3.405220   2.179428   2.163174
    13  H    3.880500   3.317993   4.945600   4.208161   3.367922
    14  H    3.332968   3.285179   4.241518   4.123117   3.817547
    15  H    2.831670   2.145862   3.487146   2.414055   3.029964
    16  H    3.455184   2.181562   4.309452   2.534320   2.428222
                   11         12         13         14         15
    11  C    0.000000
    12  C    1.542306   0.000000
    13  H    1.094775   2.185544   0.000000
    14  H    1.084998   2.172305   1.754747   0.000000
    15  H    2.172296   1.084965   2.899477   2.296369   0.000000
    16  H    2.185550   1.094790   2.319946   2.899351   1.754753
                   16
    16  H    0.000000
 Symmetry turned off by external request.
 Stoichiometry    C6H10
 Framework group  C1[X(C6H10)]
 Deg. of freedom    42
 Full point group                 C1      NOp   1
 Rotational constants (GHZ):           4.7557665           4.5172853           2.6653635
 Leave Link  202 at Sun Apr 28 19:39:46 2024, MaxMem=   104857600 cpu:               0.0 elap:               0.5
 (Enter /mlatom/software/Gaussian/g16-avx2/l301.exe)
 Standard basis: STO-3G (5D, 7F)
 Ernie: Thresh=  0.10000D-02 Tol=  0.10000D-05 Strict=F.
    40 basis functions,   120 primitive gaussians,    40 cartesian basis functions
    23 alpha electrons       23 beta electrons
       nuclear repulsion energy       237.3596390037 Hartrees.
 IExCor=    0 DFT=F Ex=HF Corr=None ExCW=0 ScaHFX=  1.000000
 ScaDFX=  1.000000  1.000000  1.000000  1.000000 ScalE2=  1.000000  1.000000
 IRadAn=      5 IRanWt=     -1 IRanGd=            0 ICorTp=0 IEmpDi=  4
 NAtoms=   16 NActive=   16 NUniq=   16 SFac= 1.00D+00 NAtFMM=   60 NAOKFM=F Big=F
 Integral buffers will be    131072 words long.
 Raffenetti 1 integral format.
 Two-electron integral symmetry is turned off.
 Leave Link  301 at Sun Apr 28 19:39:47 2024, MaxMem=   104857600 cpu:               0.0 elap:               0.4
 (Enter /mlatom/software/Gaussian/g16-avx2/l402.exe)
 External calculation of energy and first derivatives.
 Running external command "/mlatom/software/miniconda3/bin/python /mlatom/software/mlatom/mlatom/interfaces/gaussian_interface.py model_predict_kwargs R"
         input file       "/mlatom/home/qhzhang/git/ts-analysis/calculations/_other/irc/da/ani/irc_1/Gau-43310.EIn"
         output file      "/mlatom/home/qhzhang/git/ts-analysis/calculations/_other/irc/da/ani/irc_1/Gau-43310.EOu"
         message file     "/mlatom/home/qhzhang/git/ts-analysis/calculations/_other/irc/da/ani/irc_1/Gau-43310.EMs"
         fchk file        "/mlatom/home/qhzhang/git/ts-analysis/calculations/_other/irc/da/ani/irc_1/Gau-43310.EFC"
         mat. el file     "/mlatom/home/qhzhang/git/ts-analysis/calculations/_other/irc/da/ani/irc_1/Gau-43310.EUF"
model loaded from /mlatom/home/qhzhang/git/ts-analysis/calculations/_other/irc/da/ani/irc/da_energy_iteration27.npz
 Recovered energy= -234.656457418     dipole=      0.000000000000      0.000000000000      0.000000000000
 Energy=    -234.656457     NIter=   0.
 Dipole moment=       0.000000       0.000000       0.000000
 Leave Link  402 at Sun Apr 28 19:39:53 2024, MaxMem=   104857600 cpu:               0.0 elap:               5.2
 (Enter /mlatom/software/Gaussian/g16-avx2/l716.exe)
 Dipole        = 0.00000000D+00 0.00000000D+00 0.00000000D+00
 -------------------------------------------------------------------
 Center     Atomic                   Forces (Hartrees/Bohr)
 Number     Number              X              Y              Z
 -------------------------------------------------------------------
      1        6           0.006502498    0.001972555   -0.004213062
      2        6          -0.003331754    0.000370067   -0.000703706
      3        1          -0.001323898    0.000861346    0.001909723
      4        1          -0.001313778    0.000721723   -0.000059704
      5        1           0.003453128   -0.003062928    0.002127917
      6        6          -0.003339770   -0.000373067   -0.000703559
      7        6           0.006525738   -0.001976687   -0.004257367
      8        1           0.003458660    0.003066247    0.002128547
      9        1          -0.001314022   -0.000719305   -0.000058331
     10        1          -0.001340370   -0.000857868    0.001967159
     11        6          -0.005929331   -0.001567816    0.005454015
     12        6          -0.005932099    0.001566538    0.005466505
     13        1          -0.000166854    0.000720844   -0.000431534
     14        1           0.002111375    0.001085681   -0.004084946
     15        1           0.002119021   -0.001088940   -0.004103052
     16        1          -0.000178543   -0.000718386   -0.000438606
 -------------------------------------------------------------------
 Cartesian Forces:  Max     0.006525738 RMS     0.002894063
 Z-matrix is all fixed cartesians, so copy forces.
 Leave Link  716 at Sun Apr 28 19:39:54 2024, MaxMem=   104857600 cpu:               0.0 elap:               0.5
 (Enter /mlatom/software/Gaussian/g16-avx2/l123.exe)
 IRC-IRC-IRC-IRC-IRC-IRC-IRC-IRC-IRC-IRC-IRC-IRC-IRC-IRC-IRC-IRC-IRC-IRC
 Pt 18 Step number   1 out of a maximum of  20
 Point Number:  18          Path Number:   1
                    CURRENT STRUCTURE
                Cartesian Coordinates (Ang):                
 ---------------------------------------------------------------------
 Center     Atomic                     Coordinates (Angstroms)
 Number     Number                        X           Y           Z
 ---------------------------------------------------------------------
      1          6                   -0.106081    1.347125    0.384945
      2          6                   -1.249796    0.672653   -0.318804
      3          1                   -0.181672    1.174242    1.465781
      4          1                   -0.109799    2.432467    0.243920
      5          1                   -2.040040    1.269186   -0.779000
      6          6                   -1.249970   -0.672354   -0.318777
      7          6                   -0.106421   -1.347097    0.384963
      8          1                   -2.040374   -1.268708   -0.778952
      9          1                   -0.110411   -2.432443    0.243976
     10          1                   -0.181769   -1.174119    1.465700
     11          6                    1.258819    0.771000   -0.097020
     12          6                    1.258598   -0.771306   -0.097120
     13          1                    2.061991    1.159665    0.537320
     14          1                    1.430466    1.148066   -1.099805
     15          1                    1.429877   -1.148303   -1.099959
     16          1                    2.061803   -1.160281    0.537015
 ---------------------------------------------------------------------
   CHANGE IN THE REACTION COORDINATE =    0.28299
   NET REACTION COORDINATE UP TO THIS POINT =    5.22735
  # OF POINTS ALONG THE PATH =  18
  # OF STEPS =   1

 Calculating another point on the path.
 Point Number 19 in FORWARD path direction.
 Using LQA Reaction Path Following.
   LQA: T_Est iteration completed in    3 iterations.
 IRC-IRC-IRC-IRC-IRC-IRC-IRC-IRC-IRC-IRC-IRC-IRC-IRC-IRC-IRC-IRC-IRC-IRC
 Leave Link  123 at Sun Apr 28 19:39:55 2024, MaxMem=   104857600 cpu:               0.1 elap:               1.1
 (Enter /mlatom/software/Gaussian/g16-avx2/l202.exe)
                          Input orientation:                          
 ---------------------------------------------------------------------
 Center     Atomic      Atomic             Coordinates (Angstroms)
 Number     Number       Type             X           Y           Z
 ---------------------------------------------------------------------
      1          6           0       -0.094723    1.355529    0.375954
      2          6           0       -1.249408    0.670641   -0.314250
      3          1           0       -0.196028    1.218347    1.475418
      4          1           0       -0.117212    2.442370    0.210004
      5          1           0       -2.032555    1.254649   -0.768640
      6          6           0       -1.249579   -0.670342   -0.314213
      7          6           0       -0.095016   -1.355484    0.375974
      8          1           0       -2.032811   -1.254158   -0.768638
      9          1           0       -0.117801   -2.442322    0.210031
     10          1           0       -0.196451   -1.218348    1.475614
     11          6           0        1.247512    0.772864   -0.090587
     12          6           0        1.247259   -0.773180   -0.090695
     13          1           0        2.051112    1.164702    0.538138
     14          1           0        1.450406    1.134763   -1.110549
     15          1           0        1.449887   -1.134984   -1.110774
     16          1           0        2.050845   -1.165347    0.537808
 ---------------------------------------------------------------------
                    Distance matrix (angstroms):
                    1          2          3          4          5
     1  C    0.000000
     2  C    1.509552   0.000000
     3  H    1.112611   2.147674   0.000000
     4  H    1.099668   2.166964   1.762305   0.000000
     5  H    2.252879   1.077431   2.899992   2.457023   0.000000
     6  C    2.431908   1.340983   2.807115   3.353511   2.127239
     7  C    2.711013   2.431915   2.800640   3.801544   3.446302
     8  H    3.446264   2.127214   3.810884   4.276865   2.508807
     9  H    3.801544   3.353497   3.873993   4.884693   4.276878
    10  H    2.800793   2.807242   2.436694   3.874132   3.810993
    11  C    1.535824   2.509000   2.175921   2.177172   3.383891
    12  C    2.559313   2.892740   2.915813   3.505990   3.915212
    13  H    2.160400   3.444429   2.435366   2.538058   4.288601
    14  H    2.155424   2.852805   3.066751   2.431281   3.501756
    15  H    3.286158   3.343789   3.864659   4.122829   4.237312
    16  H    3.314284   3.871501   3.407279   4.221795   4.923144
                    6          7          8          9         10
     6  C    0.000000
     7  C    1.509567   0.000000
     8  H    1.077402   2.252876   0.000000
     9  H    2.166949   1.099670   2.456988   0.000000
    10  H    2.147759   1.112791   2.900028   1.762385   0.000000
    11  C    2.892804   2.559282   3.915238   3.505977   2.915980
    12  C    2.508932   1.535760   3.383756   2.177122   2.176189
    13  H    3.871492   3.314136   4.923106   4.221666   3.407246
    14  H    3.344021   3.286245   4.237528   4.122953   3.864907
    15  H    2.852634   2.155403   3.501492   2.431317   3.067048
    16  H    3.444382   2.160338   4.288465   2.537938   2.435699
                   11         12         13         14         15
    11  C    0.000000
    12  C    1.546044   0.000000
    13  H    1.092980   2.190205   0.000000
    14  H    1.101118   2.172929   1.754968   0.000000
    15  H    2.172929   1.101146   2.892912   2.269747   0.000000
    16  H    2.190179   1.092959   2.330049   2.892769   1.754962
                   16
    16  H    0.000000
 Symmetry turned off by external request.
 Stoichiometry    C6H10
 Framework group  C1[X(C6H10)]
 Deg. of freedom    42
 Full point group                 C1      NOp   1
 Rotational constants (GHZ):           4.7325646           4.5579929           2.6657143
 Leave Link  202 at Sun Apr 28 19:39:59 2024, MaxMem=   104857600 cpu:               0.0 elap:               0.5
 (Enter /mlatom/software/Gaussian/g16-avx2/l301.exe)
 Standard basis: STO-3G (5D, 7F)
 Ernie: Thresh=  0.10000D-02 Tol=  0.10000D-05 Strict=F.
    40 basis functions,   120 primitive gaussians,    40 cartesian basis functions
    23 alpha electrons       23 beta electrons
       nuclear repulsion energy       237.4784539665 Hartrees.
 IExCor=    0 DFT=F Ex=HF Corr=None ExCW=0 ScaHFX=  1.000000
 ScaDFX=  1.000000  1.000000  1.000000  1.000000 ScalE2=  1.000000  1.000000
 IRadAn=      5 IRanWt=     -1 IRanGd=            0 ICorTp=0 IEmpDi=  4
 NAtoms=   16 NActive=   16 NUniq=   16 SFac= 1.00D+00 NAtFMM=   60 NAOKFM=F Big=F
 Integral buffers will be    131072 words long.
 Raffenetti 1 integral format.
 Two-electron integral symmetry is turned off.
 Leave Link  301 at Sun Apr 28 19:40:01 2024, MaxMem=   104857600 cpu:               0.1 elap:               0.4
 (Enter /mlatom/software/Gaussian/g16-avx2/l402.exe)
 External calculation of energy and first derivatives.
 Running external command "/mlatom/software/miniconda3/bin/python /mlatom/software/mlatom/mlatom/interfaces/gaussian_interface.py model_predict_kwargs R"
         input file       "/mlatom/home/qhzhang/git/ts-analysis/calculations/_other/irc/da/ani/irc_1/Gau-43310.EIn"
         output file      "/mlatom/home/qhzhang/git/ts-analysis/calculations/_other/irc/da/ani/irc_1/Gau-43310.EOu"
         message file     "/mlatom/home/qhzhang/git/ts-analysis/calculations/_other/irc/da/ani/irc_1/Gau-43310.EMs"
         fchk file        "/mlatom/home/qhzhang/git/ts-analysis/calculations/_other/irc/da/ani/irc_1/Gau-43310.EFC"
         mat. el file     "/mlatom/home/qhzhang/git/ts-analysis/calculations/_other/irc/da/ani/irc_1/Gau-43310.EUF"
model loaded from /mlatom/home/qhzhang/git/ts-analysis/calculations/_other/irc/da/ani/irc/da_energy_iteration27.npz
 Recovered energy= -234.656783470     dipole=      0.000000000000      0.000000000000      0.000000000000
 Energy=    -234.656783     NIter=   0.
 Dipole moment=       0.000000       0.000000       0.000000
 Leave Link  402 at Sun Apr 28 19:40:06 2024, MaxMem=   104857600 cpu:               0.0 elap:               5.2
 (Enter /mlatom/software/Gaussian/g16-avx2/l716.exe)
 Dipole        = 0.00000000D+00 0.00000000D+00 0.00000000D+00
 -------------------------------------------------------------------
 Center     Atomic                   Forces (Hartrees/Bohr)
 Number     Number              X              Y              Z
 -------------------------------------------------------------------
      1        6          -0.005383505    0.005464644    0.002478657
      2        6           0.005374598   -0.000711961    0.003317226
      3        1           0.001168044    0.000630358   -0.006211370
      4        1           0.000273433   -0.001764251    0.000351945
      5        1          -0.003823114    0.003098767   -0.001451987
      6        6           0.005399236    0.000721712    0.003318719
      7        6          -0.005436293   -0.005466129    0.002559955
      8        1          -0.003839660   -0.003110008   -0.001456720
      9        1           0.000274437    0.001762721    0.000350810
     10        1           0.001197393   -0.000633437   -0.006306407
     11        6           0.002248211   -0.000837322   -0.003842625
     12        6           0.002261822    0.000847159   -0.003850130
     13        1           0.001600479    0.000340340    0.000925203
     14        1          -0.001460113   -0.000742942    0.004435473
     15        1          -0.001468068    0.000744243    0.004449428
     16        1           0.001613100   -0.000343897    0.000931829
 -------------------------------------------------------------------
 Cartesian Forces:  Max     0.006306407 RMS     0.003050446
 Z-matrix is all fixed cartesians, so copy forces.
 Leave Link  716 at Sun Apr 28 19:40:07 2024, MaxMem=   104857600 cpu:               0.0 elap:               0.5
 (Enter /mlatom/software/Gaussian/g16-avx2/l123.exe)
 IRC-IRC-IRC-IRC-IRC-IRC-IRC-IRC-IRC-IRC-IRC-IRC-IRC-IRC-IRC-IRC-IRC-IRC
 Pt 19 Step number   1 out of a maximum of  20
 Point Number:  19          Path Number:   1
                    CURRENT STRUCTURE
                Cartesian Coordinates (Ang):                
 ---------------------------------------------------------------------
 Center     Atomic                     Coordinates (Angstroms)
 Number     Number                        X           Y           Z
 ---------------------------------------------------------------------
      1          6                   -0.094723    1.355529    0.375954
      2          6                   -1.249408    0.670641   -0.314250
      3          1                   -0.196028    1.218347    1.475418
      4          1                   -0.117212    2.442370    0.210004
      5          1                   -2.032555    1.254649   -0.768640
      6          6                   -1.249579   -0.670342   -0.314213
      7          6                   -0.095016   -1.355484    0.375974
      8          1                   -2.032811   -1.254158   -0.768638
      9          1                   -0.117801   -2.442322    0.210031
     10          1                   -0.196451   -1.218348    1.475614
     11          6                    1.247512    0.772864   -0.090587
     12          6                    1.247259   -0.773180   -0.090695
     13          1                    2.051112    1.164702    0.538138
     14          1                    1.450406    1.134763   -1.110549
     15          1                    1.449887   -1.134984   -1.110774
     16          1                    2.050845   -1.165347    0.537808
 ---------------------------------------------------------------------
   CHANGE IN THE REACTION COORDINATE =    0.27459
   NET REACTION COORDINATE UP TO THIS POINT =    5.50195
  # OF POINTS ALONG THE PATH =  19
  # OF STEPS =   1

 Calculating another point on the path.
 Point Number 20 in FORWARD path direction.
 Using LQA Reaction Path Following.
   Warning:  LQA convergence difficult!  Criteria decreased to 1.d-3.
   LQA: T_Est iteration completed in   51 iterations.
 IRC-IRC-IRC-IRC-IRC-IRC-IRC-IRC-IRC-IRC-IRC-IRC-IRC-IRC-IRC-IRC-IRC-IRC
 Leave Link  123 at Sun Apr 28 19:40:09 2024, MaxMem=   104857600 cpu:               0.4 elap:               1.5
 (Enter /mlatom/software/Gaussian/g16-avx2/l202.exe)
                          Input orientation:                          
 ---------------------------------------------------------------------
 Center     Atomic      Atomic             Coordinates (Angstroms)
 Number     Number       Type             X           Y           Z
 ---------------------------------------------------------------------
      1          6           0       -0.102510    1.370989    0.370069
      2          6           0       -1.246183    0.671255   -0.311018
      3          1           0       -0.180067    1.251272    1.457950
      4          1           0       -0.127325    2.453223    0.181152
      5          1           0       -2.059983    1.254904   -0.743804
      6          6           0       -1.246347   -0.670962   -0.310999
      7          6           0       -0.102914   -1.370986    0.370120
      8          1           0       -2.060355   -1.254451   -0.743736
      9          1           0       -0.127969   -2.453213    0.181241
     10          1           0       -0.180139   -1.251124    1.457814
     11          6           0        1.252779    0.769693   -0.087206
     12          6           0        1.252591   -0.769972   -0.087330
     13          1           0        2.057855    1.164867    0.542194
     14          1           0        1.456956    1.133808   -1.101661
     15          1           0        1.456445   -1.133993   -1.101889
     16          1           0        2.057641   -1.165493    0.541858
 ---------------------------------------------------------------------
                    Distance matrix (angstroms):
                    1          2          3          4          5
     1  C    0.000000
     2  C    1.503826   0.000000
     3  H    1.097193   2.145290   0.000000
     4  H    1.098880   2.160898   1.754332   0.000000
     5  H    2.255192   1.090972   2.895137   2.454929   0.000000
     6  C    2.437577   1.342218   2.821546   3.354841   2.135014
     7  C    2.741975   2.437573   2.839994   3.828953   3.459226
     8  H    3.459285   2.135057   3.829041   4.282391   2.509356
     9  H    3.828945   3.354851   3.918662   4.906436   4.282350
    10  H    2.839840   2.821481   2.502396   3.918526   3.828983
    11  C    1.551601   2.510895   2.161591   2.193394   3.411883
    12  C    2.574728   2.893275   2.919903   3.516424   3.937541
    13  H    2.176991   3.447940   2.419581   2.562269   4.314914
    14  H    2.157355   2.854126   3.040601   2.428253   3.537172
    15  H    3.297261   3.344936   3.862698   4.125850   4.266183
    16  H    3.336091   3.875086   3.418672   4.242557   4.946319
                    6          7          8          9         10
     6  C    0.000000
     7  C    1.503794   0.000000
     8  H    1.091022   2.255179   0.000000
     9  H    2.160900   1.098871   2.454940   0.000000
    10  H    2.145248   1.097001   2.895176   1.754247   0.000000
    11  C    2.893304   2.574794   3.937646   3.516483   2.919597
    12  C    2.510881   1.551732   3.411920   2.193484   2.161410
    13  H    3.875043   3.336028   4.946349   4.242478   3.418185
    14  H    3.345174   3.297473   4.266541   4.126081   3.862499
    15  H    2.853943   2.157446   3.537042   2.428400   3.040429
    16  H    3.447936   2.177090   4.314922   2.562256   2.419498
                   11         12         13         14         15
    11  C    0.000000
    12  C    1.539666   0.000000
    13  H    1.095652   2.188231   0.000000
    14  H    1.096990   2.166798   1.750516   0.000000
    15  H    2.166814   1.096994   2.889543   2.267801   0.000000
    16  H    2.188257   1.095637   2.330360   2.889422   1.750523
                   16
    16  H    0.000000
 Symmetry turned off by external request.
 Stoichiometry    C6H10
 Framework group  C1[X(C6H10)]
 Deg. of freedom    42
 Full point group                 C1      NOp   1
 Rotational constants (GHZ):           4.6974493           4.5549403           2.6428169
 Leave Link  202 at Sun Apr 28 19:40:13 2024, MaxMem=   104857600 cpu:               0.0 elap:               0.5
 (Enter /mlatom/software/Gaussian/g16-avx2/l301.exe)
 Standard basis: STO-3G (5D, 7F)
 Ernie: Thresh=  0.10000D-02 Tol=  0.10000D-05 Strict=F.
    40 basis functions,   120 primitive gaussians,    40 cartesian basis functions
    23 alpha electrons       23 beta electrons
       nuclear repulsion energy       237.0092483132 Hartrees.
 IExCor=    0 DFT=F Ex=HF Corr=None ExCW=0 ScaHFX=  1.000000
 ScaDFX=  1.000000  1.000000  1.000000  1.000000 ScalE2=  1.000000  1.000000
 IRadAn=      5 IRanWt=     -1 IRanGd=            0 ICorTp=0 IEmpDi=  4
 NAtoms=   16 NActive=   16 NUniq=   16 SFac= 1.00D+00 NAtFMM=   60 NAOKFM=F Big=F
 Integral buffers will be    131072 words long.
 Raffenetti 1 integral format.
 Two-electron integral symmetry is turned off.
 Leave Link  301 at Sun Apr 28 19:40:15 2024, MaxMem=   104857600 cpu:               0.0 elap:               0.8
 (Enter /mlatom/software/Gaussian/g16-avx2/l402.exe)
 External calculation of energy and first derivatives.
 Running external command "/mlatom/software/miniconda3/bin/python /mlatom/software/mlatom/mlatom/interfaces/gaussian_interface.py model_predict_kwargs R"
         input file       "/mlatom/home/qhzhang/git/ts-analysis/calculations/_other/irc/da/ani/irc_1/Gau-43310.EIn"
         output file      "/mlatom/home/qhzhang/git/ts-analysis/calculations/_other/irc/da/ani/irc_1/Gau-43310.EOu"
         message file     "/mlatom/home/qhzhang/git/ts-analysis/calculations/_other/irc/da/ani/irc_1/Gau-43310.EMs"
         fchk file        "/mlatom/home/qhzhang/git/ts-analysis/calculations/_other/irc/da/ani/irc_1/Gau-43310.EFC"
         mat. el file     "/mlatom/home/qhzhang/git/ts-analysis/calculations/_other/irc/da/ani/irc_1/Gau-43310.EUF"
model loaded from /mlatom/home/qhzhang/git/ts-analysis/calculations/_other/irc/da/ani/irc/da_energy_iteration27.npz
 Recovered energy= -234.657218256     dipole=      0.000000000000      0.000000000000      0.000000000000
 Energy=    -234.657218     NIter=   0.
 Dipole moment=       0.000000       0.000000       0.000000
 Leave Link  402 at Sun Apr 28 19:40:21 2024, MaxMem=   104857600 cpu:               0.0 elap:               6.2
 (Enter /mlatom/software/Gaussian/g16-avx2/l716.exe)
 Dipole        = 0.00000000D+00 0.00000000D+00 0.00000000D+00
 -------------------------------------------------------------------
 Center     Atomic                   Forces (Hartrees/Bohr)
 Number     Number              X              Y              Z
 -------------------------------------------------------------------
      1        6           0.003367031    0.002774992   -0.005551675
      2        6          -0.004423491    0.002082152    0.000677753
      3        1          -0.001597342   -0.000170539    0.001930816
      4        1           0.001058624   -0.001752375    0.000469469
      5        1           0.003567262   -0.002110846    0.001374294
      6        6          -0.004469231   -0.002101331    0.000675890
      7        6           0.003444625   -0.002764660   -0.005664490
      8        1           0.003591130    0.002130745    0.001382073
      9        1           0.001057538    0.001752827    0.000470566
     10        1          -0.001622209    0.000175786    0.002040584
     11        6          -0.000965070    0.003417704   -0.001375936
     12        6          -0.001011627   -0.003438178   -0.001384552
     13        1          -0.000298791   -0.000151414    0.000278096
     14        1          -0.000701439   -0.000708393    0.002194481
     15        1          -0.000700949    0.000711225    0.002201790
     16        1          -0.000296062    0.000152309    0.000280836
 -------------------------------------------------------------------
 Cartesian Forces:  Max     0.005664490 RMS     0.002292825
 Z-matrix is all fixed cartesians, so copy forces.
 Leave Link  716 at Sun Apr 28 19:40:23 2024, MaxMem=   104857600 cpu:               0.1 elap:               0.5
 (Enter /mlatom/software/Gaussian/g16-avx2/l123.exe)
 IRC-IRC-IRC-IRC-IRC-IRC-IRC-IRC-IRC-IRC-IRC-IRC-IRC-IRC-IRC-IRC-IRC-IRC
 Pt 20 Step number   1 out of a maximum of  20
 Point Number:  20          Path Number:   1
                    CURRENT STRUCTURE
                Cartesian Coordinates (Ang):                
 ---------------------------------------------------------------------
 Center     Atomic                     Coordinates (Angstroms)
 Number     Number                        X           Y           Z
 ---------------------------------------------------------------------
      1          6                   -0.102510    1.370989    0.370069
      2          6                   -1.246183    0.671255   -0.311018
      3          1                   -0.180067    1.251272    1.457950
      4          1                   -0.127325    2.453223    0.181152
      5          1                   -2.059983    1.254904   -0.743804
      6          6                   -1.246347   -0.670962   -0.310999
      7          6                   -0.102914   -1.370986    0.370120
      8          1                   -2.060355   -1.254451   -0.743736
      9          1                   -0.127969   -2.453213    0.181241
     10          1                   -0.180139   -1.251124    1.457814
     11          6                    1.252779    0.769693   -0.087206
     12          6                    1.252591   -0.769972   -0.087330
     13          1                    2.057855    1.164867    0.542194
     14          1                    1.456956    1.133808   -1.101661
     15          1                    1.456445   -1.133993   -1.101889
     16          1                    2.057641   -1.165493    0.541858
 ---------------------------------------------------------------------
   CHANGE IN THE REACTION COORDINATE =    0.25595
   NET REACTION COORDINATE UP TO THIS POINT =    5.75789
  # OF POINTS ALONG THE PATH =  20
  # OF STEPS =   1

 Calculating another point on the path.
 Point Number 21 in FORWARD path direction.
 Using LQA Reaction Path Following.
   LQA: T_Est iteration completed in    5 iterations.
 IRC-IRC-IRC-IRC-IRC-IRC-IRC-IRC-IRC-IRC-IRC-IRC-IRC-IRC-IRC-IRC-IRC-IRC
 Leave Link  123 at Sun Apr 28 19:40:24 2024, MaxMem=   104857600 cpu:               0.1 elap:               1.4
 (Enter /mlatom/software/Gaussian/g16-avx2/l202.exe)
                          Input orientation:                          
 ---------------------------------------------------------------------
 Center     Atomic      Atomic             Coordinates (Angstroms)
 Number     Number       Type             X           Y           Z
 ---------------------------------------------------------------------
      1          6           0       -0.097789    1.379167    0.357760
      2          6           0       -1.251708    0.672200   -0.304572
      3          1           0       -0.199793    1.292160    1.459620
      4          1           0       -0.105627    2.454565    0.139670
      5          1           0       -2.054852    1.244903   -0.732307
      6          6           0       -1.251891   -0.671895   -0.304520
      7          6           0       -0.097967   -1.379068    0.357735
      8          1           0       -2.055001   -1.244358   -0.732383
      9          1           0       -0.106115   -2.454468    0.139609
     10          1           0       -0.200449   -1.292276    1.460014
     11          6           0        1.253680    0.770867   -0.081250
     12          6           0        1.253332   -0.771238   -0.081309
     13          1           0        2.065486    1.157349    0.549564
     14          1           0        1.440932    1.139260   -1.082119
     15          1           0        1.440328   -1.139539   -1.082270
     16          1           0        2.065286   -1.157996    0.549243
 ---------------------------------------------------------------------
                    Distance matrix (angstroms):
                    1          2          3          4          5
     1  C    0.000000
     2  C    1.506657   0.000000
     3  H    1.109986   2.145518   0.000000
     4  H    1.097318   2.165105   1.761340   0.000000
     5  H    2.244186   1.075168   2.871936   2.454202   0.000000
     6  C    2.444877   1.344095   2.841938   3.359461   2.121759
     7  C    2.758235   2.444887   2.891363   3.839838   3.450046
     8  H    3.449924   2.121673   3.831526   4.271132   2.489261
     9  H    3.839846   3.359425   3.973465   4.909033   4.271202
    10  H    2.891732   2.842196   2.584437   3.973804   3.831757
    11  C    1.545712   2.517256   2.181424   2.175169   3.405139
    12  C    2.577314   2.899756   2.956965   3.507336   3.928448
    13  H    2.183059   3.459580   2.444967   2.562131   4.316022
    14  H    2.120959   2.841309   3.029157   2.369523   3.514831
    15  H    3.283804   3.336805   3.881284   4.098866   4.245506
    16  H    3.339574   3.883435   3.458705   4.234526   4.938809
                    6          7          8          9         10
     6  C    0.000000
     7  C    1.506725   0.000000
     8  H    1.075065   2.244212   0.000000
     9  H    2.165092   1.097329   2.454158   0.000000
    10  H    2.145690   1.110430   2.871979   1.761550   0.000000
    11  C    2.899879   2.577184   3.928419   3.507223   2.957457
    12  C    2.517109   1.545388   3.404821   2.174895   2.181888
    13  H    3.883373   3.339272   4.938622   4.234281   3.458908
    14  H    3.337101   3.283804   4.245644   4.098885   3.881874
    15  H    2.841062   2.120693   3.514361   2.369286   3.029635
    16  H    3.459606   2.182936   4.315876   2.561957   2.445627
                   11         12         13         14         15
    11  C    0.000000
    12  C    1.542105   0.000000
    13  H    1.098327   2.185644   0.000000
    14  H    1.082827   2.164906   1.747221   0.000000
    15  H    2.164840   1.082837   2.886069   2.278800   0.000000
    16  H    2.185576   1.098384   2.315345   2.885922   1.747211
                   16
    16  H    0.000000
 Symmetry turned off by external request.
 Stoichiometry    C6H10
 Framework group  C1[X(C6H10)]
 Deg. of freedom    42
 Full point group                 C1      NOp   1
 Rotational constants (GHZ):           4.6842787           4.5617518           2.6279621
 Leave Link  202 at Sun Apr 28 19:40:28 2024, MaxMem=   104857600 cpu:               0.0 elap:               0.5
 (Enter /mlatom/software/Gaussian/g16-avx2/l301.exe)
 Standard basis: STO-3G (5D, 7F)
 Ernie: Thresh=  0.10000D-02 Tol=  0.10000D-05 Strict=F.
    40 basis functions,   120 primitive gaussians,    40 cartesian basis functions
    23 alpha electrons       23 beta electrons
       nuclear repulsion energy       236.9483018920 Hartrees.
 IExCor=    0 DFT=F Ex=HF Corr=None ExCW=0 ScaHFX=  1.000000
 ScaDFX=  1.000000  1.000000  1.000000  1.000000 ScalE2=  1.000000  1.000000
 IRadAn=      5 IRanWt=     -1 IRanGd=            0 ICorTp=0 IEmpDi=  4
 NAtoms=   16 NActive=   16 NUniq=   16 SFac= 1.00D+00 NAtFMM=   60 NAOKFM=F Big=F
 Integral buffers will be    131072 words long.
 Raffenetti 1 integral format.
 Two-electron integral symmetry is turned off.
 Leave Link  301 at Sun Apr 28 19:40:29 2024, MaxMem=   104857600 cpu:               0.1 elap:               0.4
 (Enter /mlatom/software/Gaussian/g16-avx2/l402.exe)
 External calculation of energy and first derivatives.
 Running external command "/mlatom/software/miniconda3/bin/python /mlatom/software/mlatom/mlatom/interfaces/gaussian_interface.py model_predict_kwargs R"
         input file       "/mlatom/home/qhzhang/git/ts-analysis/calculations/_other/irc/da/ani/irc_1/Gau-43310.EIn"
         output file      "/mlatom/home/qhzhang/git/ts-analysis/calculations/_other/irc/da/ani/irc_1/Gau-43310.EOu"
         message file     "/mlatom/home/qhzhang/git/ts-analysis/calculations/_other/irc/da/ani/irc_1/Gau-43310.EMs"
         fchk file        "/mlatom/home/qhzhang/git/ts-analysis/calculations/_other/irc/da/ani/irc_1/Gau-43310.EFC"
         mat. el file     "/mlatom/home/qhzhang/git/ts-analysis/calculations/_other/irc/da/ani/irc_1/Gau-43310.EUF"
model loaded from /mlatom/home/qhzhang/git/ts-analysis/calculations/_other/irc/da/ani/irc/da_energy_iteration27.npz
 Recovered energy= -234.657051661     dipole=      0.000000000000      0.000000000000      0.000000000000
 Energy=    -234.657052     NIter=   0.
 Dipole moment=       0.000000       0.000000       0.000000
 Leave Link  402 at Sun Apr 28 19:40:34 2024, MaxMem=   104857600 cpu:               0.0 elap:               4.9
 (Enter /mlatom/software/Gaussian/g16-avx2/l716.exe)
 Dipole        = 0.00000000D+00 0.00000000D+00 0.00000000D+00
 -------------------------------------------------------------------
 Center     Atomic                   Forces (Hartrees/Bohr)
 Number     Number              X              Y              Z
 -------------------------------------------------------------------
      1        6          -0.000254860    0.001516080    0.003733743
      2        6           0.006039187   -0.004811877    0.003654981
      3        1           0.000723091   -0.000091970   -0.005042399
      4        1          -0.000455899   -0.000487705    0.000694208
      5        1          -0.004943929    0.003912359   -0.002438264
      6        6           0.006139805    0.004850552    0.003660142
      7        6          -0.000432603   -0.001555154    0.003961081
      8        1          -0.004998321   -0.003954387   -0.002454626
      9        1          -0.000457821    0.000485362    0.000694258
     10        1           0.000787345    0.000092586   -0.005270626
     11        6          -0.001921663   -0.000350167    0.006564495
     12        6          -0.001787425    0.000395964    0.006570149
     13        1          -0.002245633    0.000306036   -0.000982501
     14        1           0.003042486    0.000627800   -0.006174507
     15        1           0.003032752   -0.000632686   -0.006177406
     16        1          -0.002266513   -0.000302794   -0.000992726
 -------------------------------------------------------------------
 Cartesian Forces:  Max     0.006570149 RMS     0.003329297
 Z-matrix is all fixed cartesians, so copy forces.
 Leave Link  716 at Sun Apr 28 19:40:35 2024, MaxMem=   104857600 cpu:               0.1 elap:               0.4
 (Enter /mlatom/software/Gaussian/g16-avx2/l123.exe)
 IRC-IRC-IRC-IRC-IRC-IRC-IRC-IRC-IRC-IRC-IRC-IRC-IRC-IRC-IRC-IRC-IRC-IRC
 Pt 21 Step number   1 out of a maximum of  20
 Point Number:  21          Path Number:   1
                    CURRENT STRUCTURE
                Cartesian Coordinates (Ang):                
 ---------------------------------------------------------------------
 Center     Atomic                     Coordinates (Angstroms)
 Number     Number                        X           Y           Z
 ---------------------------------------------------------------------
      1          6                   -0.097789    1.379167    0.357760
      2          6                   -1.251708    0.672200   -0.304572
      3          1                   -0.199793    1.292160    1.459620
      4          1                   -0.105627    2.454565    0.139670
      5          1                   -2.054852    1.244903   -0.732307
      6          6                   -1.251891   -0.671895   -0.304520
      7          6                   -0.097967   -1.379068    0.357735
      8          1                   -2.055001   -1.244358   -0.732383
      9          1                   -0.106115   -2.454468    0.139609
     10          1                   -0.200449   -1.292276    1.460014
     11          6                    1.253680    0.770867   -0.081250
     12          6                    1.253332   -0.771238   -0.081309
     13          1                    2.065486    1.157349    0.549564
     14          1                    1.440932    1.139260   -1.082119
     15          1                    1.440328   -1.139539   -1.082270
     16          1                    2.065286   -1.157996    0.549243
 ---------------------------------------------------------------------
   CHANGE IN THE REACTION COORDINATE =    0.26282
   NET REACTION COORDINATE UP TO THIS POINT =    6.02071
  # OF POINTS ALONG THE PATH =  21
  # OF STEPS =   1

 Calculating another point on the path.
 Point Number 22 in FORWARD path direction.
 Using LQA Reaction Path Following.
   LQA: T_Est iteration completed in    6 iterations.
 IRC-IRC-IRC-IRC-IRC-IRC-IRC-IRC-IRC-IRC-IRC-IRC-IRC-IRC-IRC-IRC-IRC-IRC
 Leave Link  123 at Sun Apr 28 19:40:37 2024, MaxMem=   104857600 cpu:               0.1 elap:               1.2
 (Enter /mlatom/software/Gaussian/g16-avx2/l202.exe)
                          Input orientation:                          
 ---------------------------------------------------------------------
 Center     Atomic      Atomic             Coordinates (Angstroms)
 Number     Number       Type             X           Y           Z
 ---------------------------------------------------------------------
      1          6           0       -0.097177    1.385297    0.352315
      2          6           0       -1.249876    0.671711   -0.301528
      3          1           0       -0.199054    1.313877    1.443444
      4          1           0       -0.086782    2.454144    0.109579
      5          1           0       -2.082556    1.250917   -0.698689
      6          6           0       -1.250015   -0.671416   -0.301534
      7          6           0       -0.097667   -1.385331    0.352378
      8          1           0       -2.082978   -1.250472   -0.698624
      9          1           0       -0.087407   -2.454163    0.109655
     10          1           0       -0.198835   -1.313585    1.443022
     11          6           0        1.251546    0.770159   -0.077699
     12          6           0        1.251437   -0.770407   -0.077819
     13          1           0        2.030073    1.165256    0.563974
     14          1           0        1.480822    1.123215   -1.097173
     15          1           0        1.480080   -1.123484   -1.097270
     16          1           0        2.029793   -1.165867    0.563699
 ---------------------------------------------------------------------
                    Distance matrix (angstroms):
                    1          2          3          4          5
     1  C    0.000000
     2  C    1.505135   0.000000
     3  H    1.098200   2.135774   0.000000
     4  H    1.096112   2.167687   1.758412   0.000000
     5  H    2.250422   1.089299   2.853118   2.466610   0.000000
     6  C    2.446757   1.343127   2.844442   3.360245   2.132187
     7  C    2.770628   2.446754   2.913147   3.847160   3.463284
     8  H    3.463402   2.132259   3.835819   4.285110   2.501389
     9  H    3.847133   3.360282   3.998697   4.908307   4.285051
    10  H    2.912721   2.844213   2.627462   3.998301   3.835624
    11  C    1.543489   2.513345   2.171116   2.159166   3.425346
    12  C    2.578921   2.895914   2.960135   3.496238   3.948005
    13  H    2.149048   3.427936   2.400950   2.519679   4.302949
    14  H    2.158653   2.879865   3.051732   2.384324   3.587863
    15  H    3.298942   3.362825   3.900698   4.087905   4.299886
    16  H    3.328231   3.857660   3.448309   4.217890   4.934155
                    6          7          8          9         10
     6  C    0.000000
     7  C    1.505052   0.000000
     8  H    1.089410   2.250390   0.000000
     9  H    2.167699   1.096094   2.466677   0.000000
    10  H    2.135611   1.097673   2.853179   1.758181   0.000000
    11  C    2.895867   2.579046   3.948107   3.496305   2.959424
    12  C    2.513386   1.543788   3.425520   2.159325   2.170550
    13  H    3.857647   3.328294   4.934276   4.217857   3.447522
    14  H    3.363214   3.299337   4.300453   4.088203   3.900235
    15  H    2.879406   2.158548   3.587538   2.384196   3.050898
    16  H    3.427863   2.149163   4.302964   2.519602   2.400377
                   11         12         13         14         15
    11  C    0.000000
    12  C    1.540567   0.000000
    13  H    1.083490   2.182880   0.000000
    14  H    1.102970   2.162754   1.750101   0.000000
    15  H    2.162785   1.102825   2.881069   2.246699   0.000000
    16  H    2.182947   1.083407   2.331124   2.880931   1.750086
                   16
    16  H    0.000000
 Symmetry turned off by external request.
 Stoichiometry    C6H10
 Framework group  C1[X(C6H10)]
 Deg. of freedom    42
 Full point group                 C1      NOp   1
 Rotational constants (GHZ):           4.6738239           4.5753416           2.6229020
 Leave Link  202 at Sun Apr 28 19:40:40 2024, MaxMem=   104857600 cpu:               0.0 elap:               0.5
 (Enter /mlatom/software/Gaussian/g16-avx2/l301.exe)
 Standard basis: STO-3G (5D, 7F)
 Ernie: Thresh=  0.10000D-02 Tol=  0.10000D-05 Strict=F.
    40 basis functions,   120 primitive gaussians,    40 cartesian basis functions
    23 alpha electrons       23 beta electrons
       nuclear repulsion energy       236.9407368799 Hartrees.
 IExCor=    0 DFT=F Ex=HF Corr=None ExCW=0 ScaHFX=  1.000000
 ScaDFX=  1.000000  1.000000  1.000000  1.000000 ScalE2=  1.000000  1.000000
 IRadAn=      5 IRanWt=     -1 IRanGd=            0 ICorTp=0 IEmpDi=  4
 NAtoms=   16 NActive=   16 NUniq=   16 SFac= 1.00D+00 NAtFMM=   60 NAOKFM=F Big=F
 Integral buffers will be    131072 words long.
 Raffenetti 1 integral format.
 Two-electron integral symmetry is turned off.
 Leave Link  301 at Sun Apr 28 19:40:41 2024, MaxMem=   104857600 cpu:               0.1 elap:               0.4
 (Enter /mlatom/software/Gaussian/g16-avx2/l402.exe)
 External calculation of energy and first derivatives.
 Running external command "/mlatom/software/miniconda3/bin/python /mlatom/software/mlatom/mlatom/interfaces/gaussian_interface.py model_predict_kwargs R"
         input file       "/mlatom/home/qhzhang/git/ts-analysis/calculations/_other/irc/da/ani/irc_1/Gau-43310.EIn"
         output file      "/mlatom/home/qhzhang/git/ts-analysis/calculations/_other/irc/da/ani/irc_1/Gau-43310.EOu"
         message file     "/mlatom/home/qhzhang/git/ts-analysis/calculations/_other/irc/da/ani/irc_1/Gau-43310.EMs"
         fchk file        "/mlatom/home/qhzhang/git/ts-analysis/calculations/_other/irc/da/ani/irc_1/Gau-43310.EFC"
         mat. el file     "/mlatom/home/qhzhang/git/ts-analysis/calculations/_other/irc/da/ani/irc_1/Gau-43310.EUF"
model loaded from /mlatom/home/qhzhang/git/ts-analysis/calculations/_other/irc/da/ani/irc/da_energy_iteration27.npz
 Recovered energy= -234.657037148     dipole=      0.000000000000      0.000000000000      0.000000000000
 Energy=    -234.657037     NIter=   0.
 Dipole moment=       0.000000       0.000000       0.000000
 Leave Link  402 at Sun Apr 28 19:40:46 2024, MaxMem=   104857600 cpu:               0.0 elap:               4.9
 (Enter /mlatom/software/Gaussian/g16-avx2/l716.exe)
 Dipole        = 0.00000000D+00 0.00000000D+00 0.00000000D+00
 -------------------------------------------------------------------
 Center     Atomic                   Forces (Hartrees/Bohr)
 Number     Number              X              Y              Z
 -------------------------------------------------------------------
      1        6           0.001199866    0.001377902   -0.006208218
      2        6          -0.003375523    0.001468355    0.001232500
      3        1           0.000413531   -0.000183316    0.001034386
      4        1          -0.002179267    0.000240220    0.001350770
      5        1           0.002805376   -0.001627326    0.000184508
      6        6          -0.003490109   -0.001507377    0.001221059
      7        6           0.001388288   -0.001339309   -0.006476442
      8        1           0.002862063    0.001669162    0.000201585
      9        1          -0.002186107   -0.000240213    0.001356833
     10        1           0.000335471    0.000177380    0.001327661
     11        6          -0.003384571   -0.000392927   -0.007060273
     12        6          -0.003561830    0.000371166   -0.007033752
     13        1           0.006319282    0.001962719    0.003810527
     14        1          -0.001773517   -0.000822785    0.005647086
     15        1          -0.001726439    0.000819631    0.005587935
     16        1           0.006353486   -0.001973279    0.003823834
 -------------------------------------------------------------------
 Cartesian Forces:  Max     0.007060273 RMS     0.003123008
 Z-matrix is all fixed cartesians, so copy forces.
 Leave Link  716 at Sun Apr 28 19:40:48 2024, MaxMem=   104857600 cpu:               0.0 elap:               0.7
 (Enter /mlatom/software/Gaussian/g16-avx2/l123.exe)
 IRC-IRC-IRC-IRC-IRC-IRC-IRC-IRC-IRC-IRC-IRC-IRC-IRC-IRC-IRC-IRC-IRC-IRC
 Pt 22 Step number   1 out of a maximum of  20
 Point Number:  22          Path Number:   1
                    CURRENT STRUCTURE
                Cartesian Coordinates (Ang):                
 ---------------------------------------------------------------------
 Center     Atomic                     Coordinates (Angstroms)
 Number     Number                        X           Y           Z
 ---------------------------------------------------------------------
      1          6                   -0.097177    1.385297    0.352315
      2          6                   -1.249876    0.671711   -0.301528
      3          1                   -0.199054    1.313877    1.443444
      4          1                   -0.086782    2.454144    0.109579
      5          1                   -2.082556    1.250917   -0.698689
      6          6                   -1.250015   -0.671416   -0.301534
      7          6                   -0.097667   -1.385331    0.352378
      8          1                   -2.082978   -1.250472   -0.698624
      9          1                   -0.087407   -2.454163    0.109655
     10          1                   -0.198835   -1.313585    1.443022
     11          6                    1.251546    0.770159   -0.077699
     12          6                    1.251437   -0.770407   -0.077819
     13          1                    2.030073    1.165256    0.563974
     14          1                    1.480822    1.123215   -1.097173
     15          1                    1.480080   -1.123484   -1.097270
     16          1                    2.029793   -1.165867    0.563699
 ---------------------------------------------------------------------
   CHANGE IN THE REACTION COORDINATE =    0.25024
   NET REACTION COORDINATE UP TO THIS POINT =    6.27095
  # OF POINTS ALONG THE PATH =  22
  # OF STEPS =   1

 Calculating another point on the path.
 Point Number 23 in FORWARD path direction.
 Using LQA Reaction Path Following.
   LQA: T_Est iteration completed in    7 iterations.
 IRC-IRC-IRC-IRC-IRC-IRC-IRC-IRC-IRC-IRC-IRC-IRC-IRC-IRC-IRC-IRC-IRC-IRC
 Leave Link  123 at Sun Apr 28 19:40:50 2024, MaxMem=   104857600 cpu:               0.1 elap:               1.8
 (Enter /mlatom/software/Gaussian/g16-avx2/l202.exe)
                          Input orientation:                          
 ---------------------------------------------------------------------
 Center     Atomic      Atomic             Coordinates (Angstroms)
 Number     Number       Type             X           Y           Z
 ---------------------------------------------------------------------
      1          6           0       -0.090600    1.390273    0.338696
      2          6           0       -1.256303    0.670806   -0.296654
      3          1           0       -0.183498    1.326866    1.429293
      4          1           0       -0.113865    2.461874    0.106094
      5          1           0       -2.088006    1.243989   -0.694770
      6          6           0       -1.256461   -0.670474   -0.296578
      7          6           0       -0.090680   -1.390131    0.338670
      8          1           0       -2.088096   -1.243457   -0.694830
      9          1           0       -0.114351   -2.461734    0.105996
     10          1           0       -0.184214   -1.327095    1.429839
     11          6           0        1.249858    0.772290   -0.069541
     12          6           0        1.249423   -0.772720   -0.069601
     13          1           0        2.062608    1.158048    0.567441
     14          1           0        1.483190    1.129185   -1.080426
     15          1           0        1.482880   -1.129450   -1.080754
     16          1           0        2.062374   -1.158755    0.567095
 ---------------------------------------------------------------------
                    Distance matrix (angstroms):
                    1          2          3          4          5
     1  C    0.000000
     2  C    1.510022   0.000000
     3  H    1.096381   2.135466   0.000000
     4  H    1.096801   2.162243   1.744691   0.000000
     5  H    2.253681   1.085709   2.854060   2.453948   0.000000
     6  C    2.451425   1.341280   2.849429   3.358463   2.124898
     7  C    2.780404   2.451484   2.929188   3.859089   3.463509
     8  H    3.463337   2.124812   3.840045   4.274172   2.487445
     9  H    3.859103   3.358421   4.013650   4.923608   4.274216
    10  H    2.929752   2.849871   2.653961   4.014167   3.840424
    11  C    1.531466   2.518476   2.146757   2.178366   3.428519
    12  C    2.576996   2.900687   2.950967   3.514544   3.949225
    13  H    2.177742   3.463992   2.411697   2.578728   4.339143
    14  H    2.135156   2.886041   3.019208   2.394676   3.593794
    15  H    3.292368   3.370291   3.887241   4.105583   4.305046
    16  H    3.344400   3.886769   3.459138   4.249410   4.958945
                    6          7          8          9         10
     6  C    0.000000
     7  C    1.510130   0.000000
     8  H    1.085601   2.253732   0.000000
     9  H    2.162197   1.096828   2.453812   0.000000
    10  H    2.135740   1.096984   2.854117   1.744949   0.000000
    11  C    2.900819   2.576770   3.949197   3.514370   2.951631
    12  C    2.518219   1.530933   3.428051   2.177954   2.147316
    13  H    3.886675   3.343980   4.958720   4.249107   3.459462
    14  H    3.370294   3.292090   4.304904   4.105416   3.887800
    15  H    2.886102   2.135137   3.593578   2.394683   3.020157
    16  H    3.463960   2.177465   4.338897   2.578469   2.412431
                   11         12         13         14         15
    11  C    0.000000
    12  C    1.545011   0.000000
    13  H    1.102324   2.189740   0.000000
    14  H    1.097136   2.166486   1.747005   0.000000
    15  H    2.166441   1.097356   2.878416   2.258635   0.000000
    16  H    2.189617   1.102404   2.316803   2.878272   1.747020
                   16
    16  H    0.000000
 Symmetry turned off by external request.
 Stoichiometry    C6H10
 Framework group  C1[X(C6H10)]
 Deg. of freedom    42
 Full point group                 C1      NOp   1
 Rotational constants (GHZ):           4.6762220           4.5716013           2.6078547
 Leave Link  202 at Sun Apr 28 19:40:53 2024, MaxMem=   104857600 cpu:               0.0 elap:               0.5
 (Enter /mlatom/software/Gaussian/g16-avx2/l301.exe)
 Standard basis: STO-3G (5D, 7F)
 Ernie: Thresh=  0.10000D-02 Tol=  0.10000D-05 Strict=F.
    40 basis functions,   120 primitive gaussians,    40 cartesian basis functions
    23 alpha electrons       23 beta electrons
       nuclear repulsion energy       236.8177820506 Hartrees.
 IExCor=    0 DFT=F Ex=HF Corr=None ExCW=0 ScaHFX=  1.000000
 ScaDFX=  1.000000  1.000000  1.000000  1.000000 ScalE2=  1.000000  1.000000
 IRadAn=      5 IRanWt=     -1 IRanGd=            0 ICorTp=0 IEmpDi=  4
 NAtoms=   16 NActive=   16 NUniq=   16 SFac= 1.00D+00 NAtFMM=   60 NAOKFM=F Big=F
 Integral buffers will be    131072 words long.
 Raffenetti 1 integral format.
 Two-electron integral symmetry is turned off.
 Leave Link  301 at Sun Apr 28 19:40:54 2024, MaxMem=   104857600 cpu:               0.1 elap:               0.4
 (Enter /mlatom/software/Gaussian/g16-avx2/l402.exe)
 External calculation of energy and first derivatives.
 Running external command "/mlatom/software/miniconda3/bin/python /mlatom/software/mlatom/mlatom/interfaces/gaussian_interface.py model_predict_kwargs R"
         input file       "/mlatom/home/qhzhang/git/ts-analysis/calculations/_other/irc/da/ani/irc_1/Gau-43310.EIn"
         output file      "/mlatom/home/qhzhang/git/ts-analysis/calculations/_other/irc/da/ani/irc_1/Gau-43310.EOu"
         message file     "/mlatom/home/qhzhang/git/ts-analysis/calculations/_other/irc/da/ani/irc_1/Gau-43310.EMs"
         fchk file        "/mlatom/home/qhzhang/git/ts-analysis/calculations/_other/irc/da/ani/irc_1/Gau-43310.EFC"
         mat. el file     "/mlatom/home/qhzhang/git/ts-analysis/calculations/_other/irc/da/ani/irc_1/Gau-43310.EUF"
model loaded from /mlatom/home/qhzhang/git/ts-analysis/calculations/_other/irc/da/ani/irc/da_energy_iteration27.npz
 Recovered energy= -234.657274613     dipole=      0.000000000000      0.000000000000      0.000000000000
 Energy=    -234.657275     NIter=   0.
 Dipole moment=       0.000000       0.000000       0.000000
 Leave Link  402 at Sun Apr 28 19:41:00 2024, MaxMem=   104857600 cpu:               0.1 elap:               5.2
 (Enter /mlatom/software/Gaussian/g16-avx2/l716.exe)
 Dipole        = 0.00000000D+00 0.00000000D+00 0.00000000D+00
 -------------------------------------------------------------------
 Center     Atomic                   Forces (Hartrees/Bohr)
 Number     Number              X              Y              Z
 -------------------------------------------------------------------
      1        6          -0.004819294    0.002317982   -0.000631147
      2        6           0.001327229    0.001291432    0.001405228
      3        1          -0.001393395   -0.000454026    0.002952240
      4        1           0.000918377   -0.000186262   -0.000327528
      5        1           0.001154947    0.000074149    0.000052716
      6        6           0.001435372   -0.001258737    0.001406236
      7        6          -0.005097483   -0.002398966   -0.000316411
      8        1           0.001099089   -0.000116494    0.000041997
      9        1           0.000919378    0.000188494   -0.000327523
     10        1          -0.001309330    0.000466620    0.002614687
     11        6           0.007392988    0.001135695   -0.003656572
     12        6           0.007678731   -0.001080872   -0.003757511
     13        1          -0.004216864   -0.000606722   -0.001117673
     14        1          -0.000390143   -0.001399913    0.001340904
     15        1          -0.000453649    0.001415066    0.001444172
     16        1          -0.004245955    0.000612555   -0.001123813
 -------------------------------------------------------------------
 Cartesian Forces:  Max     0.007678731 RMS     0.002444679
 Z-matrix is all fixed cartesians, so copy forces.
 Leave Link  716 at Sun Apr 28 19:41:01 2024, MaxMem=   104857600 cpu:               0.0 elap:               0.4
 (Enter /mlatom/software/Gaussian/g16-avx2/l123.exe)
 IRC-IRC-IRC-IRC-IRC-IRC-IRC-IRC-IRC-IRC-IRC-IRC-IRC-IRC-IRC-IRC-IRC-IRC
 Pt 23 Step number   1 out of a maximum of  20
 Point Number:  23          Path Number:   1
                    CURRENT STRUCTURE
                Cartesian Coordinates (Ang):                
 ---------------------------------------------------------------------
 Center     Atomic                     Coordinates (Angstroms)
 Number     Number                        X           Y           Z
 ---------------------------------------------------------------------
      1          6                   -0.090600    1.390273    0.338696
      2          6                   -1.256303    0.670806   -0.296654
      3          1                   -0.183498    1.326866    1.429293
      4          1                   -0.113865    2.461874    0.106094
      5          1                   -2.088006    1.243989   -0.694770
      6          6                   -1.256461   -0.670474   -0.296578
      7          6                   -0.090680   -1.390131    0.338670
      8          1                   -2.088096   -1.243457   -0.694830
      9          1                   -0.114351   -2.461734    0.105996
     10          1                   -0.184214   -1.327095    1.429839
     11          6                    1.249858    0.772290   -0.069541
     12          6                    1.249423   -0.772720   -0.069601
     13          1                    2.062608    1.158048    0.567441
     14          1                    1.483190    1.129185   -1.080426
     15          1                    1.482880   -1.129450   -1.080754
     16          1                    2.062374   -1.158755    0.567095
 ---------------------------------------------------------------------
   CHANGE IN THE REACTION COORDINATE =    0.23497
   NET REACTION COORDINATE UP TO THIS POINT =    6.50592
  # OF POINTS ALONG THE PATH =  23
  # OF STEPS =   1

 Calculating another point on the path.
 Point Number 24 in FORWARD path direction.
 Using LQA Reaction Path Following.
   LQA: T_Est iteration completed in    6 iterations.
 IRC-IRC-IRC-IRC-IRC-IRC-IRC-IRC-IRC-IRC-IRC-IRC-IRC-IRC-IRC-IRC-IRC-IRC
 Leave Link  123 at Sun Apr 28 19:41:02 2024, MaxMem=   104857600 cpu:               0.1 elap:               1.2
 (Enter /mlatom/software/Gaussian/g16-avx2/l202.exe)
                          Input orientation:                          
 ---------------------------------------------------------------------
 Center     Atomic      Atomic             Coordinates (Angstroms)
 Number     Number       Type             X           Y           Z
 ---------------------------------------------------------------------
      1          6           0       -0.100990    1.402496    0.338581
      2          6           0       -1.254459    0.671141   -0.291641
      3          1           0       -0.195485    1.357323    1.438661
      4          1           0       -0.128604    2.470884    0.085655
      5          1           0       -2.081044    1.239895   -0.701821
      6          6           0       -1.254781   -0.670940   -0.291690
      7          6           0       -0.102548   -1.403105    0.338968
      8          1           0       -2.081768   -1.239426   -0.701777
      9          1           0       -0.130513   -2.471481    0.086100
     10          1           0       -0.195475   -1.357361    1.438071
     11          6           0        1.260864    0.771839   -0.073988
     12          6           0        1.261593   -0.771441   -0.074347
     13          1           0        2.047188    1.159716    0.577568
     14          1           0        1.492273    1.132582   -1.077562
     15          1           0        1.492043   -1.132318   -1.077745
     16          1           0        2.047502   -1.159687    0.577209
 ---------------------------------------------------------------------
                    Distance matrix (angstroms):
                    1          2          3          4          5
     1  C    0.000000
     2  C    1.504178   0.000000
     3  H    1.105055   2.141546   0.000000
     4  H    1.098266   2.156149   1.753601   0.000000
     5  H    2.242653   1.083961   2.854958   2.438745   0.000000
     6  C    2.455120   1.342081   2.868811   3.358828   2.121841
     7  C    2.805601   2.455008   2.972865   3.882350   3.461667
     8  H    3.462019   2.122008   3.857803   4.266298   2.479321
     9  H    3.882307   3.358871   4.061204   4.942365   4.266110
    10  H    2.972308   2.868479   2.714685   4.060661   3.857492
    11  C    1.556466   2.526730   2.179875   2.200651   3.432434
    12  C    2.598681   2.908398   2.990636   3.531419   3.951255
    13  H    2.175022   3.448928   2.410417   2.587511   4.322680
    14  H    2.148674   2.893983   3.038159   2.402367   3.594619
    15  H    3.311950   3.378416   3.921526   4.118624   4.305306
    16  H    3.352274   3.874245   3.479717   4.261234   4.943562
                    6          7          8          9         10
     6  C    0.000000
     7  C    1.503807   0.000000
     8  H    1.084092   2.242153   0.000000
     9  H    2.156073   1.098249   2.438463   0.000000
    10  H    2.141349   1.103973   2.854988   1.753085   0.000000
    11  C    2.908174   2.599963   3.951265   3.532801   2.990107
    12  C    2.527742   1.559074   3.433765   2.203143   2.180312
    13  H    3.874262   3.353557   4.943772   4.262571   3.479322
    14  H    3.378845   3.313566   4.305973   4.120293   3.921316
    15  H    2.894097   2.150145   3.595128   2.404284   3.037712
    16  H    3.449483   2.176861   4.323544   2.589544   2.410624
                   11         12         13         14         15
    11  C    0.000000
    12  C    1.543280   0.000000
    13  H    1.092373   2.184380   0.000000
    14  H    1.091259   2.164476   1.745887   0.000000
    15  H    2.164899   1.090939   2.881262   2.264901   0.000000
    16  H    2.184868   1.092205   2.319403   2.881153   1.745897
                   16
    16  H    0.000000
 Symmetry turned off by external request.
 Stoichiometry    C6H10
 Framework group  C1[X(C6H10)]
 Deg. of freedom    42
 Full point group                 C1      NOp   1
 Rotational constants (GHZ):           4.6257938           4.5487763           2.5872775
 Leave Link  202 at Sun Apr 28 19:41:06 2024, MaxMem=   104857600 cpu:               0.0 elap:               0.5
 (Enter /mlatom/software/Gaussian/g16-avx2/l301.exe)
 Standard basis: STO-3G (5D, 7F)
 Ernie: Thresh=  0.10000D-02 Tol=  0.10000D-05 Strict=F.
    40 basis functions,   120 primitive gaussians,    40 cartesian basis functions
    23 alpha electrons       23 beta electrons
       nuclear repulsion energy       236.0521990591 Hartrees.
 IExCor=    0 DFT=F Ex=HF Corr=None ExCW=0 ScaHFX=  1.000000
 ScaDFX=  1.000000  1.000000  1.000000  1.000000 ScalE2=  1.000000  1.000000
 IRadAn=      5 IRanWt=     -1 IRanGd=            0 ICorTp=0 IEmpDi=  4
 NAtoms=   16 NActive=   16 NUniq=   16 SFac= 1.00D+00 NAtFMM=   60 NAOKFM=F Big=F
 Integral buffers will be    131072 words long.
 Raffenetti 1 integral format.
 Two-electron integral symmetry is turned off.
 Leave Link  301 at Sun Apr 28 19:41:07 2024, MaxMem=   104857600 cpu:               0.0 elap:               0.4
 (Enter /mlatom/software/Gaussian/g16-avx2/l402.exe)
 External calculation of energy and first derivatives.
 Running external command "/mlatom/software/miniconda3/bin/python /mlatom/software/mlatom/mlatom/interfaces/gaussian_interface.py model_predict_kwargs R"
         input file       "/mlatom/home/qhzhang/git/ts-analysis/calculations/_other/irc/da/ani/irc_1/Gau-43310.EIn"
         output file      "/mlatom/home/qhzhang/git/ts-analysis/calculations/_other/irc/da/ani/irc_1/Gau-43310.EOu"
         message file     "/mlatom/home/qhzhang/git/ts-analysis/calculations/_other/irc/da/ani/irc_1/Gau-43310.EMs"
         fchk file        "/mlatom/home/qhzhang/git/ts-analysis/calculations/_other/irc/da/ani/irc_1/Gau-43310.EFC"
         mat. el file     "/mlatom/home/qhzhang/git/ts-analysis/calculations/_other/irc/da/ani/irc_1/Gau-43310.EUF"
model loaded from /mlatom/home/qhzhang/git/ts-analysis/calculations/_other/irc/da/ani/irc/da_energy_iteration27.npz
 Recovered energy= -234.657334292     dipole=      0.000000000000      0.000000000000      0.000000000000
 Energy=    -234.657334     NIter=   0.
 Dipole moment=       0.000000       0.000000       0.000000
 Leave Link  402 at Sun Apr 28 19:41:13 2024, MaxMem=   104857600 cpu:               0.0 elap:               5.1
 (Enter /mlatom/software/Gaussian/g16-avx2/l716.exe)
 Dipole        = 0.00000000D+00 0.00000000D+00 0.00000000D+00
 -------------------------------------------------------------------
 Center     Atomic                   Forces (Hartrees/Bohr)
 Number     Number              X              Y              Z
 -------------------------------------------------------------------
      1        6           0.001934903   -0.001070654    0.000635088
      2        6           0.000520724   -0.000222510    0.000929256
      3        1           0.000286288   -0.001147610   -0.002671777
      4        1           0.001642108   -0.001315116    0.000216125
      5        1          -0.000280943    0.000541296   -0.000280878
      6        6           0.000309008    0.000185390    0.000973851
      7        6           0.002873768    0.001348795   -0.000057272
      8        1          -0.000233334   -0.000468166   -0.000277823
      9        1           0.001703510    0.001362845    0.000202434
     10        1           0.000175954    0.001155170   -0.002136267
     11        6          -0.005759065    0.002138898    0.001467339
     12        6          -0.006721911   -0.002515063    0.001802009
     13        1           0.001045247    0.000880634    0.000687672
     14        1           0.000681809   -0.000370659   -0.001034162
     15        1           0.000751504    0.000366062   -0.001161867
     16        1           0.001070428   -0.000869311    0.000706269
 -------------------------------------------------------------------
 Cartesian Forces:  Max     0.006721911 RMS     0.001739800
 Z-matrix is all fixed cartesians, so copy forces.
 Leave Link  716 at Sun Apr 28 19:41:14 2024, MaxMem=   104857600 cpu:               0.0 elap:               0.4
 (Enter /mlatom/software/Gaussian/g16-avx2/l123.exe)
 IRC-IRC-IRC-IRC-IRC-IRC-IRC-IRC-IRC-IRC-IRC-IRC-IRC-IRC-IRC-IRC-IRC-IRC
 Pt 24 Step number   1 out of a maximum of  20
 Point Number:  24          Path Number:   1
                    CURRENT STRUCTURE
                Cartesian Coordinates (Ang):                
 ---------------------------------------------------------------------
 Center     Atomic                     Coordinates (Angstroms)
 Number     Number                        X           Y           Z
 ---------------------------------------------------------------------
      1          6                   -0.100990    1.402496    0.338581
      2          6                   -1.254459    0.671141   -0.291641
      3          1                   -0.195485    1.357323    1.438661
      4          1                   -0.128604    2.470884    0.085655
      5          1                   -2.081044    1.239895   -0.701821
      6          6                   -1.254781   -0.670940   -0.291690
      7          6                   -0.102548   -1.403105    0.338968
      8          1                   -2.081768   -1.239426   -0.701777
      9          1                   -0.130513   -2.471481    0.086100
     10          1                   -0.195475   -1.357361    1.438071
     11          6                    1.260864    0.771839   -0.073988
     12          6                    1.261593   -0.771441   -0.074347
     13          1                    2.047188    1.159716    0.577568
     14          1                    1.492273    1.132582   -1.077562
     15          1                    1.492043   -1.132318   -1.077745
     16          1                    2.047502   -1.159687    0.577209
 ---------------------------------------------------------------------
   CHANGE IN THE REACTION COORDINATE =    0.23973
   NET REACTION COORDINATE UP TO THIS POINT =    6.74565
  # OF POINTS ALONG THE PATH =  24
  # OF STEPS =   1

 Calculating another point on the path.
 Point Number 25 in FORWARD path direction.
 Using LQA Reaction Path Following.
   LQA: T_Est iteration completed in    4 iterations.
 IRC-IRC-IRC-IRC-IRC-IRC-IRC-IRC-IRC-IRC-IRC-IRC-IRC-IRC-IRC-IRC-IRC-IRC
 Leave Link  123 at Sun Apr 28 19:41:16 2024, MaxMem=   104857600 cpu:               0.2 elap:               1.3
 (Enter /mlatom/software/Gaussian/g16-avx2/l202.exe)
                          Input orientation:                          
 ---------------------------------------------------------------------
 Center     Atomic      Atomic             Coordinates (Angstroms)
 Number     Number       Type             X           Y           Z
 ---------------------------------------------------------------------
      1          6           0       -0.102146    1.408180    0.335705
      2          6           0       -1.253576    0.671754   -0.289711
      3          1           0       -0.195138    1.370227    1.427244
      4          1           0       -0.112652    2.472244    0.064577
      5          1           0       -2.080575    1.239876   -0.692526
      6          6           0       -1.251049   -0.670072   -0.289048
      7          6           0       -0.090137   -1.400493    0.332989
      8          1           0       -2.076651   -1.240424   -0.691601
      9          1           0       -0.098596   -2.464399    0.063376
     10          1           0       -0.191465   -1.363189    1.428159
     11          6           0        1.255084    0.768194   -0.070391
     12          6           0        1.247091   -0.777364   -0.070150
     13          1           0        2.043922    1.158383    0.582502
     14          1           0        1.497889    1.121912   -1.078030
     15          1           0        1.493665   -1.127003   -1.080948
     16          1           0        2.038255   -1.170003    0.579800
 ---------------------------------------------------------------------
                    Distance matrix (angstroms):
                    1          2          3          4          5
     1  C    0.000000
     2  C    1.503084   0.000000
     3  H    1.096151   2.134500   0.000000
     4  H    1.098113   2.160785   1.754453   0.000000
     5  H    2.236016   1.081180   2.839946   2.442265   0.000000
     6  C    2.455490   1.341829   2.867652   3.360826   2.121040
     7  C    2.808700   2.456736   2.980823   3.882092   3.461946
     8  H    3.459644   2.120235   3.852934   4.267670   2.480304
     9  H    3.882145   3.360670   4.071095   4.936663   4.268639
    10  H    2.980256   2.867081   2.733419   4.071378   3.852531
    11  C    1.554532   2.520075   2.169908   2.189225   3.425808
    12  C    2.600338   2.898531   2.989039   3.525195   3.940808
    13  H    2.174607   3.445440   2.402469   2.577846   4.317848
    14  H    2.154230   2.897352   3.033875   2.392236   3.601102
    15  H    3.313710   3.377709   3.921638   4.104517   4.304437
    16  H    3.359751   3.870952   3.486972   4.261199   4.938733
                    6          7          8          9         10
     6  C    0.000000
     7  C    1.506041   0.000000
     8  H    1.081189   2.240903   0.000000
     9  H    2.161471   1.097570   2.445569   0.000000
    10  H    2.133526   1.100480   2.839434   1.756110   0.000000
    11  C    2.897779   2.583706   3.939659   3.507136   2.980093
    12  C    2.510006   1.529375   3.412900   2.162126   2.158139
    13  H    3.867775   3.341304   4.935255   4.240805   3.474251
    14  H    3.374961   3.297776   4.302011   4.088178   3.912880
    15  H    2.892982   2.140665   3.593273   2.373479   3.031677
    16  H    3.438655   2.155016   4.307421   2.551135   2.393467
                   11         12         13         14         15
    11  C    0.000000
    12  C    1.545578   0.000000
    13  H    1.095802   2.192718   0.000000
    14  H    1.095174   2.164710   1.748384   0.000000
    15  H    2.160999   1.097616   2.879729   2.248921   0.000000
    16  H    2.189226   1.096604   2.328394   2.879803   1.748288
                   16
    16  H    0.000000
 Symmetry turned off by external request.
 Stoichiometry    C6H10
 Framework group  C1[X(C6H10)]
 Deg. of freedom    42
 Full point group                 C1      NOp   1
 Rotational constants (GHZ):           4.6343073           4.5858153           2.5962045
 Leave Link  202 at Sun Apr 28 19:41:20 2024, MaxMem=   104857600 cpu:               0.0 elap:               0.5
 (Enter /mlatom/software/Gaussian/g16-avx2/l301.exe)
 Standard basis: STO-3G (5D, 7F)
 Ernie: Thresh=  0.10000D-02 Tol=  0.10000D-05 Strict=F.
    40 basis functions,   120 primitive gaussians,    40 cartesian basis functions
    23 alpha electrons       23 beta electrons
       nuclear repulsion energy       236.5488852028 Hartrees.
 IExCor=    0 DFT=F Ex=HF Corr=None ExCW=0 ScaHFX=  1.000000
 ScaDFX=  1.000000  1.000000  1.000000  1.000000 ScalE2=  1.000000  1.000000
 IRadAn=      5 IRanWt=     -1 IRanGd=            0 ICorTp=0 IEmpDi=  4
 NAtoms=   16 NActive=   16 NUniq=   16 SFac= 1.00D+00 NAtFMM=   60 NAOKFM=F Big=F
 Integral buffers will be    131072 words long.
 Raffenetti 1 integral format.
 Two-electron integral symmetry is turned off.
 Leave Link  301 at Sun Apr 28 19:41:21 2024, MaxMem=   104857600 cpu:               0.1 elap:               0.4
 (Enter /mlatom/software/Gaussian/g16-avx2/l402.exe)
 External calculation of energy and first derivatives.
 Running external command "/mlatom/software/miniconda3/bin/python /mlatom/software/mlatom/mlatom/interfaces/gaussian_interface.py model_predict_kwargs R"
         input file       "/mlatom/home/qhzhang/git/ts-analysis/calculations/_other/irc/da/ani/irc_1/Gau-43310.EIn"
         output file      "/mlatom/home/qhzhang/git/ts-analysis/calculations/_other/irc/da/ani/irc_1/Gau-43310.EOu"
         message file     "/mlatom/home/qhzhang/git/ts-analysis/calculations/_other/irc/da/ani/irc_1/Gau-43310.EMs"
         fchk file        "/mlatom/home/qhzhang/git/ts-analysis/calculations/_other/irc/da/ani/irc_1/Gau-43310.EFC"
         mat. el file     "/mlatom/home/qhzhang/git/ts-analysis/calculations/_other/irc/da/ani/irc_1/Gau-43310.EUF"
model loaded from /mlatom/home/qhzhang/git/ts-analysis/calculations/_other/irc/da/ani/irc/da_energy_iteration27.npz
 Recovered energy= -234.657366553     dipole=      0.000000000000      0.000000000000      0.000000000000
 Energy=    -234.657367     NIter=   0.
 Dipole moment=       0.000000       0.000000       0.000000
 Leave Link  402 at Sun Apr 28 19:41:26 2024, MaxMem=   104857600 cpu:               0.0 elap:               4.9
 (Enter /mlatom/software/Gaussian/g16-avx2/l716.exe)
 Dipole        = 0.00000000D+00 0.00000000D+00 0.00000000D+00
 -------------------------------------------------------------------
 Center     Atomic                   Forces (Hartrees/Bohr)
 Number     Number              X              Y              Z
 -------------------------------------------------------------------
      1        6           0.004020635   -0.001596218   -0.004498733
      2        6           0.001141288   -0.000292929    0.001513571
      3        1          -0.000314198   -0.000439319    0.002092734
      4        1           0.000253835   -0.001211784    0.000912522
      5        1          -0.002132874    0.001130981   -0.001194486
      6        6           0.001869719    0.000212672    0.000914606
      7        6          -0.004529776   -0.001721652   -0.000438857
      8        1          -0.001882956   -0.001331590   -0.000984992
      9        1          -0.000745176    0.000305054    0.001082246
     10        1           0.000048086    0.000319944    0.000008777
     11        6          -0.002532998    0.003083549    0.000761499
     12        6           0.006354729    0.001568928   -0.002666251
     13        1          -0.000178426   -0.000343233   -0.000240538
     14        1          -0.000404563   -0.000644548    0.001016205
     15        1          -0.000961178    0.000654619    0.002019750
     16        1          -0.000006145    0.000305527   -0.000298055
 -------------------------------------------------------------------
 Cartesian Forces:  Max     0.006354729 RMS     0.001865699
 Z-matrix is all fixed cartesians, so copy forces.
 Leave Link  716 at Sun Apr 28 19:41:27 2024, MaxMem=   104857600 cpu:               0.0 elap:               0.4
 (Enter /mlatom/software/Gaussian/g16-avx2/l123.exe)
 IRC-IRC-IRC-IRC-IRC-IRC-IRC-IRC-IRC-IRC-IRC-IRC-IRC-IRC-IRC-IRC-IRC-IRC
 Pt 25 Step number   1 out of a maximum of  20
 Point Number:  25          Path Number:   1
                    CURRENT STRUCTURE
                Cartesian Coordinates (Ang):                
 ---------------------------------------------------------------------
 Center     Atomic                     Coordinates (Angstroms)
 Number     Number                        X           Y           Z
 ---------------------------------------------------------------------
      1          6                   -0.102146    1.408180    0.335705
      2          6                   -1.253576    0.671754   -0.289711
      3          1                   -0.195138    1.370227    1.427244
      4          1                   -0.112652    2.472244    0.064577
      5          1                   -2.080575    1.239876   -0.692526
      6          6                   -1.251049   -0.670072   -0.289048
      7          6                   -0.090137   -1.400493    0.332989
      8          1                   -2.076651   -1.240424   -0.691601
      9          1                   -0.098596   -2.464399    0.063376
     10          1                   -0.191465   -1.363189    1.428159
     11          6                    1.255084    0.768194   -0.070391
     12          6                    1.247091   -0.777364   -0.070150
     13          1                    2.043922    1.158383    0.582502
     14          1                    1.497889    1.121912   -1.078030
     15          1                    1.493665   -1.127003   -1.080948
     16          1                    2.038255   -1.170003    0.579800
 ---------------------------------------------------------------------
   CHANGE IN THE REACTION COORDINATE =    0.19318
   NET REACTION COORDINATE UP TO THIS POINT =    6.93882
  # OF POINTS ALONG THE PATH =  25
  # OF STEPS =   1

 Calculating another point on the path.
 Point Number 26 in FORWARD path direction.
 Using LQA Reaction Path Following.
   LQA: T_Est iteration completed in    4 iterations.
 IRC-IRC-IRC-IRC-IRC-IRC-IRC-IRC-IRC-IRC-IRC-IRC-IRC-IRC-IRC-IRC-IRC-IRC
 Leave Link  123 at Sun Apr 28 19:41:29 2024, MaxMem=   104857600 cpu:               0.1 elap:               1.2
 (Enter /mlatom/software/Gaussian/g16-avx2/l202.exe)
                          Input orientation:                          
 ---------------------------------------------------------------------
 Center     Atomic      Atomic             Coordinates (Angstroms)
 Number     Number       Type             X           Y           Z
 ---------------------------------------------------------------------
      1          6           0       -0.085486    1.400300    0.324615
      2          6           0       -1.255875    0.671387   -0.287307
      3          1           0       -0.207401    1.386765    1.430756
      4          1           0       -0.079696    2.459813    0.038234
      5          1           0       -2.098128    1.242795   -0.670905
      6          6           0       -1.254343   -0.671655   -0.288639
      7          6           0       -0.102604   -1.405951    0.332313
      8          1           0       -2.091904   -1.246330   -0.672118
      9          1           0       -0.087424   -2.465096    0.050367
     10          1           0       -0.190753   -1.372056    1.415425
     11          6           0        1.243120    0.775320   -0.060862
     12          6           0        1.261314   -0.769149   -0.071349
     13          1           0        2.037043    1.163483    0.591547
     14          1           0        1.501222    1.114343   -1.074456
     15          1           0        1.486401   -1.110900   -1.078181
     16          1           0        2.039048   -1.175816    0.579309
 ---------------------------------------------------------------------
                    Distance matrix (angstroms):
                    1          2          3          4          5
     1  C    0.000000
     2  C    1.508500   0.000000
     3  H    1.112922   2.136072   0.000000
     4  H    1.097550   2.165142   1.762629   0.000000
     5  H    2.250910   1.087679   2.830646   2.461317   0.000000
     6  C    2.456686   1.343044   2.879149   3.360466   2.126786
     7  C    2.806314   2.455463   3.002803   3.877001   3.464739
     8  H    3.467541   2.127126   3.860909   4.276573   2.489133
     9  H    3.875113   3.364049   4.093495   4.924930   4.279208
    10  H    2.981091   2.865212   2.758913   4.073353   3.850753
    11  C    1.518021   2.511385   2.168595   2.144103   3.428502
    12  C    2.584021   2.908268   3.010217   3.498072   3.961469
    13  H    2.152316   3.443523   2.406586   2.543071   4.324317
    14  H    2.134670   2.901275   3.044618   2.355350   3.624180
    15  H    3.277925   3.364834   3.924546   4.055741   4.307506
    16  H    3.348863   3.875526   3.512594   4.242597   4.952670
                    6          7          8          9         10
     6  C    0.000000
     7  C    1.500425   0.000000
     8  H    1.085733   2.234205   0.000000
     9  H    2.166346   1.096135   2.454651   0.000000
    10  H    2.127350   1.087222   2.826308   1.751798   0.000000
    11  C    2.895331   2.592973   3.947543   3.504714   2.974330
    12  C    2.526905   1.558439   3.439869   2.170287   2.163906
    13  H    3.869843   3.353697   4.944922   4.239437   3.474307
    14  H    3.376454   3.301990   4.318010   4.074483   3.904416
    15  H    2.885826   2.145107   3.603817   2.363132   3.016474
    16  H    3.442955   2.168097   4.316921   2.542422   2.389479
                   11         12         13         14         15
    11  C    0.000000
    12  C    1.544612   0.000000
    13  H    1.098463   2.185464   0.000000
    14  H    1.099512   2.147399   1.750739   0.000000
    15  H    2.156838   1.086816   2.874720   2.225296   0.000000
    16  H    2.202329   1.092522   2.339332   2.875591   1.748401
                   16
    16  H    0.000000
 Symmetry turned off by external request.
 Stoichiometry    C6H10
 Framework group  C1[X(C6H10)]
 Deg. of freedom    42
 Full point group                 C1      NOp   1
 Rotational constants (GHZ):           4.6424392           4.5858874           2.5927346
 Leave Link  202 at Sun Apr 28 19:41:33 2024, MaxMem=   104857600 cpu:               0.0 elap:               0.5
 (Enter /mlatom/software/Gaussian/g16-avx2/l301.exe)
 Standard basis: STO-3G (5D, 7F)
 Ernie: Thresh=  0.10000D-02 Tol=  0.10000D-05 Strict=F.
    40 basis functions,   120 primitive gaussians,    40 cartesian basis functions
    23 alpha electrons       23 beta electrons
       nuclear repulsion energy       236.6030825611 Hartrees.
 IExCor=    0 DFT=F Ex=HF Corr=None ExCW=0 ScaHFX=  1.000000
 ScaDFX=  1.000000  1.000000  1.000000  1.000000 ScalE2=  1.000000  1.000000
 IRadAn=      5 IRanWt=     -1 IRanGd=            0 ICorTp=0 IEmpDi=  4
 NAtoms=   16 NActive=   16 NUniq=   16 SFac= 1.00D+00 NAtFMM=   60 NAOKFM=F Big=F
 Integral buffers will be    131072 words long.
 Raffenetti 1 integral format.
 Two-electron integral symmetry is turned off.
 Leave Link  301 at Sun Apr 28 19:41:34 2024, MaxMem=   104857600 cpu:               0.0 elap:               0.4
 (Enter /mlatom/software/Gaussian/g16-avx2/l402.exe)
 External calculation of energy and first derivatives.
 Running external command "/mlatom/software/miniconda3/bin/python /mlatom/software/mlatom/mlatom/interfaces/gaussian_interface.py model_predict_kwargs R"
         input file       "/mlatom/home/qhzhang/git/ts-analysis/calculations/_other/irc/da/ani/irc_1/Gau-43310.EIn"
         output file      "/mlatom/home/qhzhang/git/ts-analysis/calculations/_other/irc/da/ani/irc_1/Gau-43310.EOu"
         message file     "/mlatom/home/qhzhang/git/ts-analysis/calculations/_other/irc/da/ani/irc_1/Gau-43310.EMs"
         fchk file        "/mlatom/home/qhzhang/git/ts-analysis/calculations/_other/irc/da/ani/irc_1/Gau-43310.EFC"
         mat. el file     "/mlatom/home/qhzhang/git/ts-analysis/calculations/_other/irc/da/ani/irc_1/Gau-43310.EUF"
model loaded from /mlatom/home/qhzhang/git/ts-analysis/calculations/_other/irc/da/ani/irc/da_energy_iteration27.npz
 Recovered energy= -234.656696984     dipole=      0.000000000000      0.000000000000      0.000000000000
 Energy=    -234.656697     NIter=   0.
 Dipole moment=       0.000000       0.000000       0.000000
 Leave Link  402 at Sun Apr 28 19:41:39 2024, MaxMem=   104857600 cpu:               0.1 elap:               4.8
 (Enter /mlatom/software/Gaussian/g16-avx2/l716.exe)
 Dipole        = 0.00000000D+00 0.00000000D+00 0.00000000D+00
 -------------------------------------------------------------------
 Center     Atomic                   Forces (Hartrees/Bohr)
 Number     Number              X              Y              Z
 -------------------------------------------------------------------
      1        6          -0.010047307    0.003662906    0.005863578
      2        6           0.000321864    0.000282756   -0.000256622
      3        1           0.001834376   -0.000571069   -0.006160328
      4        1          -0.001845109   -0.000024570    0.001176531
      5        1           0.001987469   -0.000784432    0.000302790
      6        6          -0.002537007   -0.000072135    0.000938075
      7        6           0.008825607    0.001465254   -0.009289081
      8        1           0.000284081    0.000872796   -0.000747966
      9        1          -0.002274028   -0.000117427    0.001236380
     10        1          -0.001071378    0.000046805    0.007060235
     11        6           0.013287944   -0.003911617   -0.004312990
     12        6          -0.009745507   -0.001392170    0.004781237
     13        1          -0.000989198    0.000040372   -0.000680176
     14        1          -0.001391239    0.000631611    0.002928204
     15        1           0.001606706   -0.000955675   -0.002975613
     16        1           0.001752726    0.000826600    0.000135747
 -------------------------------------------------------------------
 Cartesian Forces:  Max     0.013287944 RMS     0.004060897
 Z-matrix is all fixed cartesians, so copy forces.
 Leave Link  716 at Sun Apr 28 19:41:40 2024, MaxMem=   104857600 cpu:               0.0 elap:               0.4
 (Enter /mlatom/software/Gaussian/g16-avx2/l123.exe)
 IRC-IRC-IRC-IRC-IRC-IRC-IRC-IRC-IRC-IRC-IRC-IRC-IRC-IRC-IRC-IRC-IRC-IRC
 Pt 26 Step number   1 out of a maximum of  20
 Point Number:  26          Path Number:   1
                    CURRENT STRUCTURE
                Cartesian Coordinates (Ang):                
 ---------------------------------------------------------------------
 Center     Atomic                     Coordinates (Angstroms)
 Number     Number                        X           Y           Z
 ---------------------------------------------------------------------
      1          6                   -0.085486    1.400300    0.324615
      2          6                   -1.255875    0.671387   -0.287307
      3          1                   -0.207401    1.386765    1.430756
      4          1                   -0.079696    2.459813    0.038234
      5          1                   -2.098128    1.242795   -0.670905
      6          6                   -1.254343   -0.671655   -0.288639
      7          6                   -0.102604   -1.405951    0.332313
      8          1                   -2.091904   -1.246330   -0.672118
      9          1                   -0.087424   -2.465096    0.050367
     10          1                   -0.190753   -1.372056    1.415425
     11          6                    1.243120    0.775320   -0.060862
     12          6                    1.261314   -0.769149   -0.071349
     13          1                    2.037043    1.163483    0.591547
     14          1                    1.501222    1.114343   -1.074456
     15          1                    1.486401   -1.110900   -1.078181
     16          1                    2.039048   -1.175816    0.579309
 ---------------------------------------------------------------------
   CHANGE IN THE REACTION COORDINATE =    0.26534
   NET REACTION COORDINATE UP TO THIS POINT =    7.20416
  # OF POINTS ALONG THE PATH =  26
  # OF STEPS =   1

 Calculating another point on the path.
 Point Number 27 in FORWARD path direction.
 Using LQA Reaction Path Following.
   Warning:  LQA convergence difficult!  Criteria decreased to 1.d-3.
   LQA: T_Est iteration completed in   51 iterations.
 IRC-IRC-IRC-IRC-IRC-IRC-IRC-IRC-IRC-IRC-IRC-IRC-IRC-IRC-IRC-IRC-IRC-IRC
 Leave Link  123 at Sun Apr 28 19:41:43 2024, MaxMem=   104857600 cpu:               0.4 elap:               1.5
 (Enter /mlatom/software/Gaussian/g16-avx2/l202.exe)
                          Input orientation:                          
 ---------------------------------------------------------------------
 Center     Atomic      Atomic             Coordinates (Angstroms)
 Number     Number       Type             X           Y           Z
 ---------------------------------------------------------------------
      1          6           0       -0.096313    1.403745    0.322535
      2          6           0       -1.256863    0.671316   -0.288180
      3          1           0       -0.195138    1.387320    1.406308
      4          1           0       -0.061844    2.455562    0.020435
      5          1           0       -2.117084    1.243942   -0.647434
      6          6           0       -1.257743   -0.671827   -0.286442
      7          6           0       -0.091654   -1.404320    0.324383
      8          1           0       -2.115394   -1.246644   -0.648822
      9          1           0       -0.106170   -2.465454    0.045907
     10          1           0       -0.221620   -1.401147    1.437805
     11          6           0        1.260251    0.772458   -0.061317
     12          6           0        1.252965   -0.771070   -0.065511
     13          1           0        2.020921    1.170563    0.605565
     14          1           0        1.494728    1.118931   -1.059155
     15          1           0        1.498897   -1.094028   -1.085638
     16          1           0        2.057351   -1.172630    0.574322
 ---------------------------------------------------------------------
                    Distance matrix (angstroms):
                    1          2          3          4          5
     1  C    0.000000
     2  C    1.502098   0.000000
     3  H    1.088393   2.123961   0.000000
     4  H    1.094884   2.169527   1.754865   0.000000
     5  H    2.247197   1.094050   2.816432   2.477516   0.000000
     6  C    2.455152   1.343144   2.869602   3.362278   2.130482
     7  C    2.808069   2.457887   2.995751   3.871945   3.472763
     8  H    3.470560   2.132067   3.853403   4.286176   2.490587
     9  H    3.879087   3.357831   4.086866   4.921281   4.275993
    10  H    3.021083   2.888919   2.788771   4.112015   3.864906
    11  C    1.544710   2.529339   2.156417   2.141835   3.460090
    12  C    2.588619   2.903324   2.986955   3.485292   3.969400
    13  H    2.148758   3.433933   2.366240   2.516249   4.324174
    14  H    2.126405   2.892407   3.001031   2.318408   3.637352
    15  H    3.281237   3.368471   3.903414   4.032233   4.328216
    16  H    3.367399   3.889481   3.509879   4.238107   4.975783
                    6          7          8          9         10
     6  C    0.000000
     7  C    1.506458   0.000000
     8  H    1.094212   2.251114   0.000000
     9  H    2.157237   1.097162   2.450536   0.000000
    10  H    2.139739   1.120986   2.822103   1.755978   0.000000
    11  C    2.911517   2.591288   3.977049   3.516060   3.027848
    12  C    2.522362   1.536562   3.451415   2.174993   2.198034
    13  H    3.865193   3.342463   4.952321   4.249512   3.512165
    14  H    3.373425   3.285967   4.335586   4.078217   3.940996
    15  H    2.901040   2.148091   3.643790   2.395296   3.069571
    16  H    3.461440   2.175861   4.348950   2.575158   2.447760
                   11         12         13         14         15
    11  C    0.000000
    12  C    1.543551   0.000000
    13  H    1.087124   2.193180   0.000000
    14  H    1.081991   2.148926   1.746665   0.000000
    15  H    2.142419   1.097927   2.874204   2.213122   0.000000
    16  H    2.196081   1.103483   2.343684   2.869851   1.753145
                   16
    16  H    0.000000
 Symmetry turned off by external request.
 Stoichiometry    C6H10
 Framework group  C1[X(C6H10)]
 Deg. of freedom    42
 Full point group                 C1      NOp   1
 Rotational constants (GHZ):           4.6449293           4.5683573           2.5834543
 Leave Link  202 at Sun Apr 28 19:41:47 2024, MaxMem=   104857600 cpu:               0.0 elap:               0.5
 (Enter /mlatom/software/Gaussian/g16-avx2/l301.exe)
 Standard basis: STO-3G (5D, 7F)
 Ernie: Thresh=  0.10000D-02 Tol=  0.10000D-05 Strict=F.
    40 basis functions,   120 primitive gaussians,    40 cartesian basis functions
    23 alpha electrons       23 beta electrons
       nuclear repulsion energy       236.3675886622 Hartrees.
 IExCor=    0 DFT=F Ex=HF Corr=None ExCW=0 ScaHFX=  1.000000
 ScaDFX=  1.000000  1.000000  1.000000  1.000000 ScalE2=  1.000000  1.000000
 IRadAn=      5 IRanWt=     -1 IRanGd=            0 ICorTp=0 IEmpDi=  4
 NAtoms=   16 NActive=   16 NUniq=   16 SFac= 1.00D+00 NAtFMM=   60 NAOKFM=F Big=F
 Integral buffers will be    131072 words long.
 Raffenetti 1 integral format.
 Two-electron integral symmetry is turned off.
 Leave Link  301 at Sun Apr 28 19:41:47 2024, MaxMem=   104857600 cpu:               0.1 elap:               0.4
 (Enter /mlatom/software/Gaussian/g16-avx2/l402.exe)
 External calculation of energy and first derivatives.
 Running external command "/mlatom/software/miniconda3/bin/python /mlatom/software/mlatom/mlatom/interfaces/gaussian_interface.py model_predict_kwargs R"
         input file       "/mlatom/home/qhzhang/git/ts-analysis/calculations/_other/irc/da/ani/irc_1/Gau-43310.EIn"
         output file      "/mlatom/home/qhzhang/git/ts-analysis/calculations/_other/irc/da/ani/irc_1/Gau-43310.EOu"
         message file     "/mlatom/home/qhzhang/git/ts-analysis/calculations/_other/irc/da/ani/irc_1/Gau-43310.EMs"
         fchk file        "/mlatom/home/qhzhang/git/ts-analysis/calculations/_other/irc/da/ani/irc_1/Gau-43310.EFC"
         mat. el file     "/mlatom/home/qhzhang/git/ts-analysis/calculations/_other/irc/da/ani/irc_1/Gau-43310.EUF"
model loaded from /mlatom/home/qhzhang/git/ts-analysis/calculations/_other/irc/da/ani/irc/da_energy_iteration27.npz
 Recovered energy= -234.656288767     dipole=      0.000000000000      0.000000000000      0.000000000000
 Energy=    -234.656289     NIter=   0.
 Dipole moment=       0.000000       0.000000       0.000000
 Leave Link  402 at Sun Apr 28 19:41:53 2024, MaxMem=   104857600 cpu:               0.0 elap:               4.8
 (Enter /mlatom/software/Gaussian/g16-avx2/l716.exe)
 Dipole        = 0.00000000D+00 0.00000000D+00 0.00000000D+00
 -------------------------------------------------------------------
 Center     Atomic                   Forces (Hartrees/Bohr)
 Number     Number              X              Y              Z
 -------------------------------------------------------------------
      1        6           0.004344074   -0.000031718   -0.007840001
      2        6          -0.006050179    0.001763850   -0.000531654
      3        1          -0.001083763    0.000383330    0.006400500
      4        1          -0.004226971    0.001599000    0.001845029
      5        1           0.005551248   -0.003012613    0.000496244
      6        6          -0.003496354   -0.001558747    0.000343545
      7        6          -0.005282413   -0.002260024    0.007659420
      8        1           0.005479331    0.003193810    0.000957835
      9        1           0.000474214    0.000380582   -0.000250762
     10        1           0.003584086    0.002138354   -0.009906601
     11        6          -0.008533489   -0.003985218    0.004757496
     12        6           0.006691052   -0.001516953   -0.000005053
     13        1           0.004693174    0.000856112    0.001510509
     14        1           0.003355434    0.002018338   -0.005675045
     15        1          -0.001639382   -0.001511371    0.002395308
     16        1          -0.003860059    0.001543272   -0.002156774
 -------------------------------------------------------------------
 Cartesian Forces:  Max     0.009906601 RMS     0.003962856
 Z-matrix is all fixed cartesians, so copy forces.
 Leave Link  716 at Sun Apr 28 19:41:54 2024, MaxMem=   104857600 cpu:               0.0 elap:               0.5
 (Enter /mlatom/software/Gaussian/g16-avx2/l123.exe)
 IRC-IRC-IRC-IRC-IRC-IRC-IRC-IRC-IRC-IRC-IRC-IRC-IRC-IRC-IRC-IRC-IRC-IRC
 Pt 27 Step number   1 out of a maximum of  20
 Point Number:  27          Path Number:   1
                    CURRENT STRUCTURE
                Cartesian Coordinates (Ang):                
 ---------------------------------------------------------------------
 Center     Atomic                     Coordinates (Angstroms)
 Number     Number                        X           Y           Z
 ---------------------------------------------------------------------
      1          6                   -0.096313    1.403745    0.322535
      2          6                   -1.256863    0.671316   -0.288180
      3          1                   -0.195138    1.387320    1.406308
      4          1                   -0.061844    2.455562    0.020435
      5          1                   -2.117084    1.243942   -0.647434
      6          6                   -1.257743   -0.671827   -0.286442
      7          6                   -0.091654   -1.404320    0.324383
      8          1                   -2.115394   -1.246644   -0.648822
      9          1                   -0.106170   -2.465454    0.045907
     10          1                   -0.221620   -1.401147    1.437805
     11          6                    1.260251    0.772458   -0.061317
     12          6                    1.252965   -0.771070   -0.065511
     13          1                    2.020921    1.170563    0.605565
     14          1                    1.494728    1.118931   -1.059155
     15          1                    1.498897   -1.094028   -1.085638
     16          1                    2.057351   -1.172630    0.574322
 ---------------------------------------------------------------------
   CHANGE IN THE REACTION COORDINATE =    0.24469
   NET REACTION COORDINATE UP TO THIS POINT =    7.44885
  # OF POINTS ALONG THE PATH =  27
  # OF STEPS =   1

 Calculating another point on the path.
 Point Number 28 in FORWARD path direction.
 Using LQA Reaction Path Following.
   LQA: T_Est iteration completed in    6 iterations.
 IRC-IRC-IRC-IRC-IRC-IRC-IRC-IRC-IRC-IRC-IRC-IRC-IRC-IRC-IRC-IRC-IRC-IRC
 Leave Link  123 at Sun Apr 28 19:41:56 2024, MaxMem=   104857600 cpu:               0.1 elap:               1.2
 (Enter /mlatom/software/Gaussian/g16-avx2/l202.exe)
                          Input orientation:                          
 ---------------------------------------------------------------------
 Center     Atomic      Atomic             Coordinates (Angstroms)
 Number     Number       Type             X           Y           Z
 ---------------------------------------------------------------------
      1          6           0       -0.097513    1.403393    0.325714
      2          6           0       -1.260536    0.671007   -0.287910
      3          1           0       -0.200231    1.370009    1.423315
      4          1           0       -0.104361    2.465684    0.059424
      5          1           0       -2.093311    1.238802   -0.685211
      6          6           0       -1.261400   -0.672682   -0.285424
      7          6           0       -0.092582   -1.400383    0.326421
      8          1           0       -2.097291   -1.244173   -0.678658
      9          1           0       -0.100198   -2.464454    0.070469
     10          1           0       -0.187484   -1.356134    1.419470
     11          6           0        1.263501    0.771417   -0.062944
     12          6           0        1.255438   -0.772792   -0.069422
     13          1           0        2.044418    1.158815    0.595831
     14          1           0        1.510746    1.123730   -1.068086
     15          1           0        1.490922   -1.116567   -1.079676
     16          1           0        2.035912   -1.175238    0.580901
 ---------------------------------------------------------------------
                    Distance matrix (angstroms):
                    1          2          3          4          5
     1  C    0.000000
     2  C    1.505173   0.000000
     3  H    1.102902   2.130995   0.000000
     4  H    1.095180   2.162926   1.752111   0.000000
     5  H    2.243272   1.083399   2.836697   2.452681   0.000000
     6  C    2.457277   1.343691   2.866785   3.362588   2.122658
     7  C    2.803780   2.456048   2.981582   3.875293   3.462890
     8  H    3.466624   2.126207   3.853709   4.275462   2.482987
     9  H    3.876261   3.362430   4.067346   4.930152   4.272898
    10  H    2.969746   2.859351   2.726176   4.057454   3.846499
    11  C    1.550099   2.536031   2.170205   2.180954   3.445846
    12  C    2.592757   2.909023   2.989788   3.514738   3.954722
    13  H    2.172706   3.455673   2.401621   2.571555   4.332236
    14  H    2.146483   2.914384   3.032355   2.383420   3.626164
    15  H    3.293698   3.375327   3.912547   4.083503   4.306982
    16  H    3.356480   3.876857   3.491172   4.255470   4.947839
                    6          7          8          9         10
     6  C    0.000000
     7  C    1.506665   0.000000
     8  H    1.086255   2.247986   0.000000
     9  H    2.164601   1.094448   2.457368   0.000000
    10  H    2.127691   1.098053   2.839373   1.748084   0.000000
    11  C    2.917198   2.589842   3.966942   3.514020   2.971428
    12  C    2.528073   1.538739   3.440081   2.172334   2.153859
    13  H    3.880648   3.344973   4.955041   4.243048   3.461898
    14  H    3.394768   3.299463   4.333192   4.094693   3.901493
    15  H    2.898818   2.136620   3.612806   2.381447   3.019962
    16  H    3.446063   2.155443   4.321412   2.546680   2.383151
                   11         12         13         14         15
    11  C    0.000000
    12  C    1.544244   0.000000
    13  H    1.092654   2.190013   0.000000
    14  H    1.093419   2.158543   1.747758   0.000000
    15  H    2.156374   1.092816   2.879417   2.240415   0.000000
    16  H    2.191032   1.092713   2.334116   2.877536   1.748706
                   16
    16  H    0.000000
 Symmetry turned off by external request.
 Stoichiometry    C6H10
 Framework group  C1[X(C6H10)]
 Deg. of freedom    42
 Full point group                 C1      NOp   1
 Rotational constants (GHZ):           4.6486517           4.5531662           2.5831553
 Leave Link  202 at Sun Apr 28 19:41:59 2024, MaxMem=   104857600 cpu:               0.0 elap:               0.5
 (Enter /mlatom/software/Gaussian/g16-avx2/l301.exe)
 Standard basis: STO-3G (5D, 7F)
 Ernie: Thresh=  0.10000D-02 Tol=  0.10000D-05 Strict=F.
    40 basis functions,   120 primitive gaussians,    40 cartesian basis functions
    23 alpha electrons       23 beta electrons
       nuclear repulsion energy       236.3209489279 Hartrees.
 IExCor=    0 DFT=F Ex=HF Corr=None ExCW=0 ScaHFX=  1.000000
 ScaDFX=  1.000000  1.000000  1.000000  1.000000 ScalE2=  1.000000  1.000000
 IRadAn=      5 IRanWt=     -1 IRanGd=            0 ICorTp=0 IEmpDi=  4
 NAtoms=   16 NActive=   16 NUniq=   16 SFac= 1.00D+00 NAtFMM=   60 NAOKFM=F Big=F
 Integral buffers will be    131072 words long.
 Raffenetti 1 integral format.
 Two-electron integral symmetry is turned off.
 Leave Link  301 at Sun Apr 28 19:42:00 2024, MaxMem=   104857600 cpu:               0.1 elap:               0.4
 (Enter /mlatom/software/Gaussian/g16-avx2/l402.exe)
 External calculation of energy and first derivatives.
 Running external command "/mlatom/software/miniconda3/bin/python /mlatom/software/mlatom/mlatom/interfaces/gaussian_interface.py model_predict_kwargs R"
         input file       "/mlatom/home/qhzhang/git/ts-analysis/calculations/_other/irc/da/ani/irc_1/Gau-43310.EIn"
         output file      "/mlatom/home/qhzhang/git/ts-analysis/calculations/_other/irc/da/ani/irc_1/Gau-43310.EOu"
         message file     "/mlatom/home/qhzhang/git/ts-analysis/calculations/_other/irc/da/ani/irc_1/Gau-43310.EMs"
         fchk file        "/mlatom/home/qhzhang/git/ts-analysis/calculations/_other/irc/da/ani/irc_1/Gau-43310.EFC"
         mat. el file     "/mlatom/home/qhzhang/git/ts-analysis/calculations/_other/irc/da/ani/irc_1/Gau-43310.EUF"
model loaded from /mlatom/home/qhzhang/git/ts-analysis/calculations/_other/irc/da/ani/irc/da_energy_iteration27.npz
 Recovered energy= -234.657447809     dipole=      0.000000000000      0.000000000000      0.000000000000
 Energy=    -234.657448     NIter=   0.
 Dipole moment=       0.000000       0.000000       0.000000
 Leave Link  402 at Sun Apr 28 19:42:06 2024, MaxMem=   104857600 cpu:               0.1 elap:               5.3
 (Enter /mlatom/software/Gaussian/g16-avx2/l716.exe)
 Dipole        = 0.00000000D+00 0.00000000D+00 0.00000000D+00
 -------------------------------------------------------------------
 Center     Atomic                   Forces (Hartrees/Bohr)
 Number     Number              X              Y              Z
 -------------------------------------------------------------------
      1        6           0.001315790   -0.001573432    0.001657131
      2        6           0.001730420   -0.001938213    0.000021824
      3        1           0.000359793   -0.000348431   -0.001071670
      4        1          -0.000284832    0.000585982   -0.000000587
      5        1          -0.000514916    0.000756612   -0.000349110
      6        6           0.001014676    0.000640319   -0.000542667
      7        6          -0.002598874    0.001476598    0.000669661
      8        1           0.001047290    0.000440917    0.000301356
      9        1          -0.000388273   -0.001055073   -0.000241249
     10        1          -0.000413560    0.000054803    0.001762765
     11        6          -0.004449003    0.000199305   -0.001150917
     12        6          -0.000442117    0.000621956   -0.002344772
     13        1           0.000692968    0.000567322    0.000858050
     14        1           0.000462733   -0.000030579    0.000192793
     15        1           0.000781535   -0.000232285   -0.000200134
     16        1           0.001686368   -0.000165806    0.000437531
 -------------------------------------------------------------------
 Cartesian Forces:  Max     0.004449003 RMS     0.001176035
 Z-matrix is all fixed cartesians, so copy forces.
 Leave Link  716 at Sun Apr 28 19:42:07 2024, MaxMem=   104857600 cpu:               0.0 elap:               0.4
 (Enter /mlatom/software/Gaussian/g16-avx2/l123.exe)
 IRC-IRC-IRC-IRC-IRC-IRC-IRC-IRC-IRC-IRC-IRC-IRC-IRC-IRC-IRC-IRC-IRC-IRC
 Pt 28 Step number   1 out of a maximum of  20
 Point Number:  28          Path Number:   1
                    CURRENT STRUCTURE
                Cartesian Coordinates (Ang):                
 ---------------------------------------------------------------------
 Center     Atomic                     Coordinates (Angstroms)
 Number     Number                        X           Y           Z
 ---------------------------------------------------------------------
      1          6                   -0.097513    1.403393    0.325714
      2          6                   -1.260536    0.671007   -0.287910
      3          1                   -0.200231    1.370009    1.423315
      4          1                   -0.104361    2.465684    0.059424
      5          1                   -2.093311    1.238802   -0.685211
      6          6                   -1.261400   -0.672682   -0.285424
      7          6                   -0.092582   -1.400383    0.326421
      8          1                   -2.097291   -1.244173   -0.678658
      9          1                   -0.100198   -2.464454    0.070469
     10          1                   -0.187484   -1.356134    1.419470
     11          6                    1.263501    0.771417   -0.062944
     12          6                    1.255438   -0.772792   -0.069422
     13          1                    2.044418    1.158815    0.595831
     14          1                    1.510746    1.123730   -1.068086
     15          1                    1.490922   -1.116567   -1.079676
     16          1                    2.035912   -1.175238    0.580901
 ---------------------------------------------------------------------
   CHANGE IN THE REACTION COORDINATE =    0.23160
   NET REACTION COORDINATE UP TO THIS POINT =    7.68045
  # OF POINTS ALONG THE PATH =  28
  # OF STEPS =   1

 Calculating another point on the path.
 Point Number 29 in FORWARD path direction.
 Using LQA Reaction Path Following.
   LQA: T_Est iteration completed in    4 iterations.
 IRC-IRC-IRC-IRC-IRC-IRC-IRC-IRC-IRC-IRC-IRC-IRC-IRC-IRC-IRC-IRC-IRC-IRC
 Leave Link  123 at Sun Apr 28 19:42:09 2024, MaxMem=   104857600 cpu:               0.1 elap:               1.1
 (Enter /mlatom/software/Gaussian/g16-avx2/l202.exe)
                          Input orientation:                          
 ---------------------------------------------------------------------
 Center     Atomic      Atomic             Coordinates (Angstroms)
 Number     Number       Type             X           Y           Z
 ---------------------------------------------------------------------
      1          6           0       -0.091098    1.398973    0.331615
      2          6           0       -1.254808    0.670540   -0.290314
      3          1           0       -0.168098    1.327864    1.413277
      4          1           0       -0.129642    2.471609    0.100022
      5          1           0       -2.081709    1.243658   -0.706776
      6          6           0       -1.254498   -0.670153   -0.288511
      7          6           0       -0.103027   -1.401616    0.340539
      8          1           0       -2.060611   -1.239399   -0.715754
      9          1           0       -0.115179   -2.469859    0.081754
     10          1           0       -0.207092   -1.354138    1.447626
     11          6           0        1.248111    0.775564   -0.068687
     12          6           0        1.258943   -0.771322   -0.077401
     13          1           0        2.040740    1.155341    0.586941
     14          1           0        1.502535    1.136140   -1.074307
     15          1           0        1.506728   -1.136270   -1.081696
     16          1           0        2.050547   -1.158600    0.577104
 ---------------------------------------------------------------------
                    Distance matrix (angstroms):
                    1          2          3          4          5
     1  C    0.000000
     2  C    1.507193   0.000000
     3  H    1.086728   2.124909   0.000000
     4  H    1.098030   2.159215   1.741916   0.000000
     5  H    2.250536   1.088885   2.857206   2.443226   0.000000
     6  C    2.453434   1.340694   2.840496   3.359602   2.126475
     7  C    2.800628   2.453243   2.933438   3.880777   3.465476
     8  H    3.454993   2.116173   3.834739   4.262126   2.483163
     9  H    3.876967   3.361443   4.024731   4.941524   4.275422
    10  H    2.972971   2.866612   2.682506   4.056893   3.860594
    11  C    1.530477   2.514906   2.122946   2.191629   3.422568
    12  C    2.588452   2.905726   2.943663   3.532174   3.951736
    13  H    2.160852   3.444596   2.364648   2.584610   4.321584
    14  H    2.141346   2.904198   3.002640   2.413821   3.604642
    15  H    3.313299   3.393660   3.886115   4.134121   4.322210
    16  H    3.344860   3.876021   3.435706   4.261367   4.949216
                    6          7          8          9         10
     6  C    0.000000
     7  C    1.502207   0.000000
     8  H    1.075359   2.230292   0.000000
     9  H    2.161964   1.099210   2.436136   0.000000
    10  H    2.139875   1.112981   2.851124   1.766038   0.000000
    11  C    2.898529   2.594831   3.927647   3.523345   2.992065
    12  C    2.524320   1.557854   3.412629   2.190564   2.194230
    13  H    3.867484   3.345815   4.924721   4.247973   3.477214
    14  H    3.388421   3.319612   4.297413   4.117852   3.935029
    15  H    2.910459   2.164364   3.587542   2.400554   3.063024
    16  H    3.451260   2.180115   4.310410   2.579757   2.427546
                   11         12         13         14         15
    11  C    0.000000
    12  C    1.546948   0.000000
    13  H    1.096512   2.182793   0.000000
    14  H    1.098189   2.166003   1.746361   0.000000
    15  H    2.179031   1.096901   2.884614   2.272425   0.000000
    16  H    2.191332   1.097724   2.313982   2.879810   1.745811
                   16
    16  H    0.000000
 Symmetry turned off by external request.
 Stoichiometry    C6H10
 Framework group  C1[X(C6H10)]
 Deg. of freedom    42
 Full point group                 C1      NOp   1
 Rotational constants (GHZ):           4.6387934           4.5731188           2.5966652
 Leave Link  202 at Sun Apr 28 19:42:13 2024, MaxMem=   104857600 cpu:               0.0 elap:               0.5
 (Enter /mlatom/software/Gaussian/g16-avx2/l301.exe)
 Standard basis: STO-3G (5D, 7F)
 Ernie: Thresh=  0.10000D-02 Tol=  0.10000D-05 Strict=F.
    40 basis functions,   120 primitive gaussians,    40 cartesian basis functions
    23 alpha electrons       23 beta electrons
       nuclear repulsion energy       236.4559473003 Hartrees.
 IExCor=    0 DFT=F Ex=HF Corr=None ExCW=0 ScaHFX=  1.000000
 ScaDFX=  1.000000  1.000000  1.000000  1.000000 ScalE2=  1.000000  1.000000
 IRadAn=      5 IRanWt=     -1 IRanGd=            0 ICorTp=0 IEmpDi=  4
 NAtoms=   16 NActive=   16 NUniq=   16 SFac= 1.00D+00 NAtFMM=   60 NAOKFM=F Big=F
 Integral buffers will be    131072 words long.
 Raffenetti 1 integral format.
 Two-electron integral symmetry is turned off.
 Leave Link  301 at Sun Apr 28 19:42:14 2024, MaxMem=   104857600 cpu:               0.1 elap:               0.4
 (Enter /mlatom/software/Gaussian/g16-avx2/l402.exe)
 External calculation of energy and first derivatives.
 Running external command "/mlatom/software/miniconda3/bin/python /mlatom/software/mlatom/mlatom/interfaces/gaussian_interface.py model_predict_kwargs R"
         input file       "/mlatom/home/qhzhang/git/ts-analysis/calculations/_other/irc/da/ani/irc_1/Gau-43310.EIn"
         output file      "/mlatom/home/qhzhang/git/ts-analysis/calculations/_other/irc/da/ani/irc_1/Gau-43310.EOu"
         message file     "/mlatom/home/qhzhang/git/ts-analysis/calculations/_other/irc/da/ani/irc_1/Gau-43310.EMs"
         fchk file        "/mlatom/home/qhzhang/git/ts-analysis/calculations/_other/irc/da/ani/irc_1/Gau-43310.EFC"
         mat. el file     "/mlatom/home/qhzhang/git/ts-analysis/calculations/_other/irc/da/ani/irc_1/Gau-43310.EUF"
model loaded from /mlatom/home/qhzhang/git/ts-analysis/calculations/_other/irc/da/ani/irc/da_energy_iteration27.npz
 Recovered energy= -234.656893277     dipole=      0.000000000000      0.000000000000      0.000000000000
 Energy=    -234.656893     NIter=   0.
 Dipole moment=       0.000000       0.000000       0.000000
 Leave Link  402 at Sun Apr 28 19:42:19 2024, MaxMem=   104857600 cpu:               0.0 elap:               5.0
 (Enter /mlatom/software/Gaussian/g16-avx2/l716.exe)
 Dipole        = 0.00000000D+00 0.00000000D+00 0.00000000D+00
 -------------------------------------------------------------------
 Center     Atomic                   Forces (Hartrees/Bohr)
 Number     Number              X              Y              Z
 -------------------------------------------------------------------
      1        6          -0.005147802    0.000215875   -0.003388400
      2        6          -0.001172992    0.003386446   -0.001579399
      3        1          -0.002950169    0.000372428    0.008864264
      4        1           0.002315559   -0.001213627   -0.000345990
      5        1           0.002146553   -0.001450716    0.001336405
      6        6           0.004445678    0.001120208    0.000838372
      7        6           0.003915448    0.000042390    0.002953252
      8        1          -0.005695682   -0.003297408   -0.001967865
      9        1          -0.000075111    0.001749149    0.001094940
     10        1           0.002059256    0.000373316   -0.006744963
     11        6           0.008204418   -0.000293651   -0.007582458
     12        6          -0.003581029   -0.002977870    0.003564073
     13        1          -0.000867974    0.000555426   -0.000069667
     14        1          -0.000549099   -0.001195539    0.002008082
     15        1          -0.001753527    0.001962140    0.001464225
     16        1          -0.001293527    0.000651433   -0.000444869
 -------------------------------------------------------------------
 Cartesian Forces:  Max     0.008864264 RMS     0.003164970
 Z-matrix is all fixed cartesians, so copy forces.
 Leave Link  716 at Sun Apr 28 19:42:20 2024, MaxMem=   104857600 cpu:               0.0 elap:               0.4
 (Enter /mlatom/software/Gaussian/g16-avx2/l123.exe)
 IRC-IRC-IRC-IRC-IRC-IRC-IRC-IRC-IRC-IRC-IRC-IRC-IRC-IRC-IRC-IRC-IRC-IRC
 Pt 29 Step number   1 out of a maximum of  20
 Point Number:  29          Path Number:   1
                    CURRENT STRUCTURE
                Cartesian Coordinates (Ang):                
 ---------------------------------------------------------------------
 Center     Atomic                     Coordinates (Angstroms)
 Number     Number                        X           Y           Z
 ---------------------------------------------------------------------
      1          6                   -0.091098    1.398973    0.331615
      2          6                   -1.254808    0.670540   -0.290314
      3          1                   -0.168098    1.327864    1.413277
      4          1                   -0.129642    2.471609    0.100022
      5          1                   -2.081709    1.243658   -0.706776
      6          6                   -1.254498   -0.670153   -0.288511
      7          6                   -0.103027   -1.401616    0.340539
      8          1                   -2.060611   -1.239399   -0.715754
      9          1                   -0.115179   -2.469859    0.081754
     10          1                   -0.207092   -1.354138    1.447626
     11          6                    1.248111    0.775564   -0.068687
     12          6                    1.258943   -0.771322   -0.077401
     13          1                    2.040740    1.155341    0.586941
     14          1                    1.502535    1.136140   -1.074307
     15          1                    1.506728   -1.136270   -1.081696
     16          1                    2.050547   -1.158600    0.577104
 ---------------------------------------------------------------------
   CHANGE IN THE REACTION COORDINATE =    0.28182
   NET REACTION COORDINATE UP TO THIS POINT =    7.96227
  # OF POINTS ALONG THE PATH =  29
  # OF STEPS =   1

 Calculating another point on the path.
 Point Number 30 in FORWARD path direction.
 Using LQA Reaction Path Following.
   Warning:  LQA convergence difficult!  Criteria decreased to 1.d-3.
   LQA: T_Est iteration completed in   51 iterations.
 IRC-IRC-IRC-IRC-IRC-IRC-IRC-IRC-IRC-IRC-IRC-IRC-IRC-IRC-IRC-IRC-IRC-IRC
 Leave Link  123 at Sun Apr 28 19:42:23 2024, MaxMem=   104857600 cpu:               0.4 elap:               1.5
 (Enter /mlatom/software/Gaussian/g16-avx2/l202.exe)
                          Input orientation:                          
 ---------------------------------------------------------------------
 Center     Atomic      Atomic             Coordinates (Angstroms)
 Number     Number       Type             X           Y           Z
 ---------------------------------------------------------------------
      1          6           0       -0.097645    1.394386    0.345158
      2          6           0       -1.251742    0.672300   -0.294422
      3          1           0       -0.206368    1.316078    1.450674
      4          1           0       -0.114555    2.467996    0.122941
      5          1           0       -2.058770    1.246929   -0.727905
      6          6           0       -1.251929   -0.670355   -0.294141
      7          6           0       -0.098008   -1.396963    0.342269
      8          1           0       -2.075990   -1.247386   -0.718790
      9          1           0       -0.126553   -2.470358    0.115309
     10          1           0       -0.182082   -1.322147    1.433029
     11          6           0        1.255366    0.773584   -0.080530
     12          6           0        1.249748   -0.772975   -0.073076
     13          1           0        2.037821    1.164698    0.567893
     14          1           0        1.478610    1.132808   -1.084524
     15          1           0        1.496503   -1.139543   -1.079833
     16          1           0        2.063803   -1.148803    0.573005
 ---------------------------------------------------------------------
                    Distance matrix (angstroms):
                    1          2          3          4          5
     1  C    0.000000
     2  C    1.504131   0.000000
     3  H    1.113606   2.133687   0.000000
     4  H    1.096496   2.166082   1.760176   0.000000
     5  H    2.240361   1.081388   2.860486   2.448451   0.000000
     6  C    2.450353   1.342655   2.843149   3.364049   2.124882
     7  C    2.791351   2.453228   2.932728   3.871212   3.461217
     8  H    3.467678   2.131822   3.843619   4.284833   2.494391
     9  H    3.871681   3.363068   4.015802   4.938374   4.273487
    10  H    2.927481   2.847117   2.638396   4.010745   3.846003
    11  C    1.548304   2.518253   2.185304   2.188405   3.409787
    12  C    2.586087   2.897458   2.967529   3.521880   3.931298
    13  H    2.159302   3.436170   2.416319   2.555248   4.297431
    14  H    2.144061   2.879435   3.049585   2.403929   3.557142
    15  H    3.315524   3.384152   3.915776   4.129952   4.296401
    16  H    3.345382   3.880938   3.464046   4.246061   4.942418
                    6          7          8          9         10
     6  C    0.000000
     7  C    1.504829   0.000000
     8  H    1.091956   2.249586   0.000000
     9  H    2.161974   1.097498   2.447793   0.000000
    10  H    2.133664   1.096550   2.867543   1.748673   0.000000
    11  C    2.901227   2.592615   3.948371   3.531460   2.957906
    12  C    2.513522   1.542180   3.420899   2.193354   2.149437
    13  H    3.864321   3.342869   4.939346   4.254759   3.443955
    14  H    3.366296   3.304724   4.293514   4.122978   3.888802
    15  H    2.896778   2.152000   3.592309   2.415314   3.027452
    16  H    3.460481   2.188206   4.337780   2.598778   2.411159
                   11         12         13         14         15
    11  C    0.000000
    12  C    1.546588   0.000000
    13  H    1.088879   2.187802   0.000000
    14  H    1.089442   2.169658   1.744769   0.000000
    15  H    2.171821   1.099463   2.884017   2.272426   0.000000
    16  H    2.185463   1.105148   2.313652   2.880209   1.747509
                   16
    16  H    0.000000
 Symmetry turned off by external request.
 Stoichiometry    C6H10
 Framework group  C1[X(C6H10)]
 Deg. of freedom    42
 Full point group                 C1      NOp   1
 Rotational constants (GHZ):           4.6420719           4.5735804           2.6060536
 Leave Link  202 at Sun Apr 28 19:42:26 2024, MaxMem=   104857600 cpu:               0.0 elap:               0.5
 (Enter /mlatom/software/Gaussian/g16-avx2/l301.exe)
 Standard basis: STO-3G (5D, 7F)
 Ernie: Thresh=  0.10000D-02 Tol=  0.10000D-05 Strict=F.
    40 basis functions,   120 primitive gaussians,    40 cartesian basis functions
    23 alpha electrons       23 beta electrons
       nuclear repulsion energy       236.5028989111 Hartrees.
 IExCor=    0 DFT=F Ex=HF Corr=None ExCW=0 ScaHFX=  1.000000
 ScaDFX=  1.000000  1.000000  1.000000  1.000000 ScalE2=  1.000000  1.000000
 IRadAn=      5 IRanWt=     -1 IRanGd=            0 ICorTp=0 IEmpDi=  4
 NAtoms=   16 NActive=   16 NUniq=   16 SFac= 1.00D+00 NAtFMM=   60 NAOKFM=F Big=F
 Integral buffers will be    131072 words long.
 Raffenetti 1 integral format.
 Two-electron integral symmetry is turned off.
 Leave Link  301 at Sun Apr 28 19:42:27 2024, MaxMem=   104857600 cpu:               0.1 elap:               0.4
 (Enter /mlatom/software/Gaussian/g16-avx2/l402.exe)
 External calculation of energy and first derivatives.
 Running external command "/mlatom/software/miniconda3/bin/python /mlatom/software/mlatom/mlatom/interfaces/gaussian_interface.py model_predict_kwargs R"
         input file       "/mlatom/home/qhzhang/git/ts-analysis/calculations/_other/irc/da/ani/irc_1/Gau-43310.EIn"
         output file      "/mlatom/home/qhzhang/git/ts-analysis/calculations/_other/irc/da/ani/irc_1/Gau-43310.EOu"
         message file     "/mlatom/home/qhzhang/git/ts-analysis/calculations/_other/irc/da/ani/irc_1/Gau-43310.EMs"
         fchk file        "/mlatom/home/qhzhang/git/ts-analysis/calculations/_other/irc/da/ani/irc_1/Gau-43310.EFC"
         mat. el file     "/mlatom/home/qhzhang/git/ts-analysis/calculations/_other/irc/da/ani/irc_1/Gau-43310.EUF"
model loaded from /mlatom/home/qhzhang/git/ts-analysis/calculations/_other/irc/da/ani/irc/da_energy_iteration27.npz
 Recovered energy= -234.657218554     dipole=      0.000000000000      0.000000000000      0.000000000000
 Energy=    -234.657219     NIter=   0.
 Dipole moment=       0.000000       0.000000       0.000000
 Leave Link  402 at Sun Apr 28 19:42:33 2024, MaxMem=   104857600 cpu:               0.0 elap:               4.8
 (Enter /mlatom/software/Gaussian/g16-avx2/l716.exe)
 Dipole        = 0.00000000D+00 0.00000000D+00 0.00000000D+00
 -------------------------------------------------------------------
 Center     Atomic                   Forces (Hartrees/Bohr)
 Number     Number              X              Y              Z
 -------------------------------------------------------------------
      1        6          -0.000986931   -0.001596685    0.006064762
      2        6           0.002004812   -0.000840127   -0.000675112
      3        1           0.002244909    0.000244964   -0.006517609
      4        1           0.000255732   -0.000435301   -0.000261488
      5        1          -0.002242975    0.000904899   -0.000308261
      6        6          -0.004024892   -0.002847990   -0.002343401
      7        6           0.000180906    0.000668036   -0.000533288
      8        1           0.003530100    0.002748109    0.002086298
      9        1           0.001445379    0.001116568   -0.000266829
     10        1          -0.001500141    0.000002186    0.002874940
     11        6          -0.006508790   -0.000455782    0.002312178
     12        6           0.008614596   -0.002449190   -0.002487950
     13        1           0.003401505    0.000759292    0.001633520
     14        1           0.000703912   -0.000124282   -0.002097216
     15        1          -0.001452388    0.001835038    0.002504808
     16        1          -0.005665734    0.000470264   -0.001985356
 -------------------------------------------------------------------
 Cartesian Forces:  Max     0.008614596 RMS     0.002777304
 Z-matrix is all fixed cartesians, so copy forces.
 Leave Link  716 at Sun Apr 28 19:42:34 2024, MaxMem=   104857600 cpu:               0.0 elap:               0.4
 (Enter /mlatom/software/Gaussian/g16-avx2/l123.exe)
 IRC-IRC-IRC-IRC-IRC-IRC-IRC-IRC-IRC-IRC-IRC-IRC-IRC-IRC-IRC-IRC-IRC-IRC
 Pt 30 Step number   1 out of a maximum of  20
 Point Number:  30          Path Number:   1
                    CURRENT STRUCTURE
                Cartesian Coordinates (Ang):                
 ---------------------------------------------------------------------
 Center     Atomic                     Coordinates (Angstroms)
 Number     Number                        X           Y           Z
 ---------------------------------------------------------------------
      1          6                   -0.097645    1.394386    0.345158
      2          6                   -1.251742    0.672300   -0.294422
      3          1                   -0.206368    1.316078    1.450674
      4          1                   -0.114555    2.467996    0.122941
      5          1                   -2.058770    1.246929   -0.727905
      6          6                   -1.251929   -0.670355   -0.294141
      7          6                   -0.098008   -1.396963    0.342269
      8          1                   -2.075990   -1.247386   -0.718790
      9          1                   -0.126553   -2.470358    0.115309
     10          1                   -0.182082   -1.322147    1.433029
     11          6                    1.255366    0.773584   -0.080530
     12          6                    1.249748   -0.772975   -0.073076
     13          1                    2.037821    1.164698    0.567893
     14          1                    1.478610    1.132808   -1.084524
     15          1                    1.496503   -1.139543   -1.079833
     16          1                    2.063803   -1.148803    0.573005
 ---------------------------------------------------------------------
   CHANGE IN THE REACTION COORDINATE =    0.25227
   NET REACTION COORDINATE UP TO THIS POINT =    8.21454
  # OF POINTS ALONG THE PATH =  30
  # OF STEPS =   1

 Calculating another point on the path.
 Point Number 31 in FORWARD path direction.
 Using LQA Reaction Path Following.
   LQA: T_Est iteration completed in    5 iterations.
 IRC-IRC-IRC-IRC-IRC-IRC-IRC-IRC-IRC-IRC-IRC-IRC-IRC-IRC-IRC-IRC-IRC-IRC
 Leave Link  123 at Sun Apr 28 19:42:36 2024, MaxMem=   104857600 cpu:               0.1 elap:               1.2
 (Enter /mlatom/software/Gaussian/g16-avx2/l202.exe)
                          Input orientation:                          
 ---------------------------------------------------------------------
 Center     Atomic      Atomic             Coordinates (Angstroms)
 Number     Number       Type             X           Y           Z
 ---------------------------------------------------------------------
      1          6           0       -0.100976    1.387828    0.353973
      2          6           0       -1.250000    0.671999   -0.301249
      3          1           0       -0.198575    1.285213    1.445167
      4          1           0       -0.096709    2.462914    0.146568
      5          1           0       -2.067748    1.253517   -0.727810
      6          6           0       -1.254412   -0.672614   -0.298828
      7          6           0       -0.094407   -1.386015    0.345392
      8          1           0       -2.068356   -1.246742   -0.727136
      9          1           0       -0.107558   -2.461844    0.143593
     10          1           0       -0.195598   -1.293055    1.445674
     11          6           0        1.252599    0.772088   -0.079176
     12          6           0        1.255090   -0.771361   -0.074810
     13          1           0        2.081117    1.171241    0.536611
     14          1           0        1.457702    1.107708   -1.102113
     15          1           0        1.456984   -1.130597   -1.080261
     16          1           0        2.026092   -1.171282    0.570985
 ---------------------------------------------------------------------
                    Distance matrix (angstroms):
                    1          2          3          4          5
     1  C    0.000000
     2  C    1.503989   0.000000
     3  H    1.100345   2.128731   0.000000
     4  H    1.094919   2.176694   1.756052   0.000000
     5  H    2.248664   1.090334   2.866469   2.472281   0.000000
     6  C    2.449895   1.344623   2.826552   3.371971   2.134367
     7  C    2.773863   2.447235   2.890643   3.854062   3.465972
     8  H    3.461263   2.129003   3.824367   4.290955   2.500258
     9  H    3.855421   3.365119   3.967722   4.924771   4.290174
    10  H    2.896187   2.832833   2.578270   3.975521   3.835884
    11  C    1.548844   2.514425   2.166293   2.174968   3.417193
    12  C    2.585511   2.900007   2.941593   3.512393   3.945604
    13  H    2.200408   3.470964   2.456717   2.561929   4.338042
    14  H    2.151309   2.857074   3.043583   2.410805   3.548262
    15  H    3.290399   3.344244   3.867144   4.102730   4.269889
    16  H    3.334749   3.858918   3.427492   4.230106   4.932144
                    6          7          8          9         10
     6  C    0.000000
     7  C    1.506509   0.000000
     8  H    1.084240   2.250820   0.000000
     9  H    2.170795   1.094671   2.465638   0.000000
    10  H    2.132914   1.108829   2.868880   1.751922   0.000000
    11  C    2.901813   2.579165   3.940085   3.515391   2.947416
    12  C    2.521416   1.541270   3.420061   2.182257   2.165302
    13  H    3.901732   3.362890   4.966068   4.259586   3.476001
    14  H    3.342211   3.274594   4.256422   4.091885   3.871470
    15  H    2.858680   2.122389   3.544885   2.391198   3.022874
    16  H    3.430299   2.143249   4.295965   2.529956   2.390777
                   11         12         13         14         15
    11  C    0.000000
    12  C    1.543457   0.000000
    13  H    1.106779   2.197694   0.000000
    14  H    1.095950   2.151117   1.754451   0.000000
    15  H    2.159665   1.086620   2.881367   2.238411   0.000000
    16  H    2.190362   1.082327   2.343421   2.883768   1.747041
                   16
    16  H    0.000000
 Symmetry turned off by external request.
 Stoichiometry    C6H10
 Framework group  C1[X(C6H10)]
 Deg. of freedom    42
 Full point group                 C1      NOp   1
 Rotational constants (GHZ):           4.6688258           4.5663818           2.6176808
 Leave Link  202 at Sun Apr 28 19:42:39 2024, MaxMem=   104857600 cpu:               0.0 elap:               0.5
 (Enter /mlatom/software/Gaussian/g16-avx2/l301.exe)
 Standard basis: STO-3G (5D, 7F)
 Ernie: Thresh=  0.10000D-02 Tol=  0.10000D-05 Strict=F.
    40 basis functions,   120 primitive gaussians,    40 cartesian basis functions
    23 alpha electrons       23 beta electrons
       nuclear repulsion energy       236.7783916805 Hartrees.
 IExCor=    0 DFT=F Ex=HF Corr=None ExCW=0 ScaHFX=  1.000000
 ScaDFX=  1.000000  1.000000  1.000000  1.000000 ScalE2=  1.000000  1.000000
 IRadAn=      5 IRanWt=     -1 IRanGd=            0 ICorTp=0 IEmpDi=  4
 NAtoms=   16 NActive=   16 NUniq=   16 SFac= 1.00D+00 NAtFMM=   60 NAOKFM=F Big=F
 Integral buffers will be    131072 words long.
 Raffenetti 1 integral format.
 Two-electron integral symmetry is turned off.
 Leave Link  301 at Sun Apr 28 19:42:40 2024, MaxMem=   104857600 cpu:               0.0 elap:               0.4
 (Enter /mlatom/software/Gaussian/g16-avx2/l402.exe)
 External calculation of energy and first derivatives.
 Running external command "/mlatom/software/miniconda3/bin/python /mlatom/software/mlatom/mlatom/interfaces/gaussian_interface.py model_predict_kwargs R"
         input file       "/mlatom/home/qhzhang/git/ts-analysis/calculations/_other/irc/da/ani/irc_1/Gau-43310.EIn"
         output file      "/mlatom/home/qhzhang/git/ts-analysis/calculations/_other/irc/da/ani/irc_1/Gau-43310.EOu"
         message file     "/mlatom/home/qhzhang/git/ts-analysis/calculations/_other/irc/da/ani/irc_1/Gau-43310.EMs"
         fchk file        "/mlatom/home/qhzhang/git/ts-analysis/calculations/_other/irc/da/ani/irc_1/Gau-43310.EFC"
         mat. el file     "/mlatom/home/qhzhang/git/ts-analysis/calculations/_other/irc/da/ani/irc_1/Gau-43310.EUF"
model loaded from /mlatom/home/qhzhang/git/ts-analysis/calculations/_other/irc/da/ani/irc/da_energy_iteration27.npz
 Recovered energy= -234.657092312     dipole=      0.000000000000      0.000000000000      0.000000000000
 Energy=    -234.657092     NIter=   0.
 Dipole moment=       0.000000       0.000000       0.000000
 Leave Link  402 at Sun Apr 28 19:42:46 2024, MaxMem=   104857600 cpu:               0.1 elap:               5.1
 (Enter /mlatom/software/Gaussian/g16-avx2/l716.exe)
 Dipole        = 0.00000000D+00 0.00000000D+00 0.00000000D+00
 -------------------------------------------------------------------
 Center     Atomic                   Forces (Hartrees/Bohr)
 Number     Number              X              Y              Z
 -------------------------------------------------------------------
      1        6           0.005066158   -0.001963399   -0.000001612
      2        6          -0.003745242    0.001670504   -0.001527096
      3        1           0.000197243    0.000956620    0.000876677
      4        1          -0.001798199    0.000159680   -0.000251036
      5        1           0.002719012   -0.002420719    0.001433924
      6        6           0.002082441    0.001716932   -0.001064941
      7        6          -0.004311361    0.002236403    0.006827141
      8        1          -0.000214728   -0.000215003    0.000348169
      9        1           0.000007772   -0.000607510   -0.001188852
     10        1           0.000497018   -0.000650583   -0.003583965
     11        6           0.004536166    0.001154806   -0.000258136
     12        6          -0.008332230    0.001325345   -0.000973264
     13        1          -0.006601806   -0.001721038   -0.002377142
     14        1          -0.000590672    0.000965919    0.001690058
     15        1           0.003348522   -0.000856235   -0.003326518
     16        1           0.007139910   -0.001751721    0.003376590
 -------------------------------------------------------------------
 Cartesian Forces:  Max     0.008332230 RMS     0.002894154
 Z-matrix is all fixed cartesians, so copy forces.
 Leave Link  716 at Sun Apr 28 19:42:47 2024, MaxMem=   104857600 cpu:               0.0 elap:               0.4
 (Enter /mlatom/software/Gaussian/g16-avx2/l123.exe)
 IRC-IRC-IRC-IRC-IRC-IRC-IRC-IRC-IRC-IRC-IRC-IRC-IRC-IRC-IRC-IRC-IRC-IRC
 Pt 31 Step number   1 out of a maximum of  20
 Point Number:  31          Path Number:   1
                    CURRENT STRUCTURE
                Cartesian Coordinates (Ang):                
 ---------------------------------------------------------------------
 Center     Atomic                     Coordinates (Angstroms)
 Number     Number                        X           Y           Z
 ---------------------------------------------------------------------
      1          6                   -0.100976    1.387828    0.353973
      2          6                   -1.250000    0.671999   -0.301249
      3          1                   -0.198575    1.285213    1.445167
      4          1                   -0.096709    2.462914    0.146568
      5          1                   -2.067748    1.253517   -0.727810
      6          6                   -1.254412   -0.672614   -0.298828
      7          6                   -0.094407   -1.386015    0.345392
      8          1                   -2.068356   -1.246742   -0.727136
      9          1                   -0.107558   -2.461844    0.143593
     10          1                   -0.195598   -1.293055    1.445674
     11          6                    1.252599    0.772088   -0.079176
     12          6                    1.255090   -0.771361   -0.074810
     13          1                    2.081117    1.171241    0.536611
     14          1                    1.457702    1.107708   -1.102113
     15          1                    1.456984   -1.130597   -1.080261
     16          1                    2.026092   -1.171282    0.570985
 ---------------------------------------------------------------------
   CHANGE IN THE REACTION COORDINATE =    0.24929
   NET REACTION COORDINATE UP TO THIS POINT =    8.46383
  # OF POINTS ALONG THE PATH =  31
  # OF STEPS =   1

 Calculating another point on the path.
 Point Number 32 in FORWARD path direction.
 Using LQA Reaction Path Following.
   LQA: T_Est iteration completed in    4 iterations.
 IRC-IRC-IRC-IRC-IRC-IRC-IRC-IRC-IRC-IRC-IRC-IRC-IRC-IRC-IRC-IRC-IRC-IRC
 Leave Link  123 at Sun Apr 28 19:42:49 2024, MaxMem=   104857600 cpu:               0.2 elap:               1.3
 (Enter /mlatom/software/Gaussian/g16-avx2/l202.exe)
                          Input orientation:                          
 ---------------------------------------------------------------------
 Center     Atomic      Atomic             Coordinates (Angstroms)
 Number     Number       Type             X           Y           Z
 ---------------------------------------------------------------------
      1          6           0       -0.095218    1.379074    0.356293
      2          6           0       -1.254710    0.671618   -0.299779
      3          1           0       -0.181085    1.270483    1.450234
      4          1           0       -0.115153    2.460093    0.165259
      5          1           0       -2.064144    1.250140   -0.733524
      6          6           0       -1.250414   -0.671954   -0.307757
      7          6           0       -0.100875   -1.377251    0.356658
      8          1           0       -2.053382   -1.249748   -0.746936
      9          1           0       -0.091171   -2.453387    0.160360
     10          1           0       -0.197289   -1.260033    1.446287
     11          6           0        1.254134    0.770137   -0.081681
     12          6           0        1.253329   -0.772787   -0.077869
     13          1           0        2.049979    1.175436    0.540067
     14          1           0        1.437901    1.116715   -1.096598
     15          1           0        1.465809   -1.122112   -1.096106
     16          1           0        2.055535   -1.173741    0.555527
 ---------------------------------------------------------------------
                    Distance matrix (angstroms):
                    1          2          3          4          5
     1  C    0.000000
     2  C    1.508425   0.000000
     3  H    1.102666   2.138657   0.000000
     4  H    1.097950   2.171058   1.752336   0.000000
     5  H    2.254106   1.085360   2.883596   2.463811   0.000000
     6  C    2.445844   1.343602   2.829674   3.364859   2.130230
     7  C    2.756331   2.441334   2.865805   3.842141   3.456314
     8  H    3.458645   2.128256   3.832051   4.283895   2.499947
     9  H    3.837468   3.366186   3.941962   4.913541   4.290427
    10  H    2.857165   2.810367   2.530571   3.935367   3.812832
    11  C    1.543818   2.520232   2.158000   2.189035   3.415592
    12  C    2.576350   2.902725   2.927045   3.519000   3.940526
    13  H    2.162663   3.446758   2.411449   2.545313   4.307392
    14  H    2.128421   2.843094   3.021773   2.410170   3.523343
    15  H    3.286670   3.354524   3.862722   4.113718   4.268444
    16  H    3.343994   3.885180   3.431793   4.250758   4.950617
                    6          7          8          9         10
     6  C    0.000000
     7  C    1.503440   0.000000
     8  H    1.082350   2.246432   0.000000
     9  H    2.176346   1.093935   2.474308   0.000000
    10  H    2.128750   1.100149   2.873223   1.757544   0.000000
    11  C    2.898878   2.576716   3.932195   3.501362   2.926244
    12  C    2.516296   1.545335   3.407269   2.165376   2.159804
    13  H    3.876112   3.343056   4.937151   4.230491   3.435543
    14  H    3.323949   3.271032   4.232193   4.082111   3.845652
    15  H    2.863914   2.151771   3.538773   2.403162   3.041164
    16  H    3.453454   2.175102   4.311077   2.530217   2.424070
                   11         12         13         14         15
    11  C    0.000000
    12  C    1.542928   0.000000
    13  H    1.088213   2.193642   0.000000
    14  H    1.088091   2.154551   1.748359   0.000000
    15  H    2.157422   1.097262   2.880459   2.239001   0.000000
    16  H    2.197029   1.097947   2.349234   2.890878   1.754518
                   16
    16  H    0.000000
 Symmetry turned off by external request.
 Stoichiometry    C6H10
 Framework group  C1[X(C6H10)]
 Deg. of freedom    42
 Full point group                 C1      NOp   1
 Rotational constants (GHZ):           4.6917147           4.5602959           2.6294949
 Leave Link  202 at Sun Apr 28 19:42:52 2024, MaxMem=   104857600 cpu:               0.0 elap:               0.5
 (Enter /mlatom/software/Gaussian/g16-avx2/l301.exe)
 Standard basis: STO-3G (5D, 7F)
 Ernie: Thresh=  0.10000D-02 Tol=  0.10000D-05 Strict=F.
    40 basis functions,   120 primitive gaussians,    40 cartesian basis functions
    23 alpha electrons       23 beta electrons
       nuclear repulsion energy       237.0190797278 Hartrees.
 IExCor=    0 DFT=F Ex=HF Corr=None ExCW=0 ScaHFX=  1.000000
 ScaDFX=  1.000000  1.000000  1.000000  1.000000 ScalE2=  1.000000  1.000000
 IRadAn=      5 IRanWt=     -1 IRanGd=            0 ICorTp=0 IEmpDi=  4
 NAtoms=   16 NActive=   16 NUniq=   16 SFac= 1.00D+00 NAtFMM=   60 NAOKFM=F Big=F
 Integral buffers will be    131072 words long.
 Raffenetti 1 integral format.
 Two-electron integral symmetry is turned off.
 Leave Link  301 at Sun Apr 28 19:42:53 2024, MaxMem=   104857600 cpu:               0.1 elap:               0.4
 (Enter /mlatom/software/Gaussian/g16-avx2/l402.exe)
 External calculation of energy and first derivatives.
 Running external command "/mlatom/software/miniconda3/bin/python /mlatom/software/mlatom/mlatom/interfaces/gaussian_interface.py model_predict_kwargs R"
         input file       "/mlatom/home/qhzhang/git/ts-analysis/calculations/_other/irc/da/ani/irc_1/Gau-43310.EIn"
         output file      "/mlatom/home/qhzhang/git/ts-analysis/calculations/_other/irc/da/ani/irc_1/Gau-43310.EOu"
         message file     "/mlatom/home/qhzhang/git/ts-analysis/calculations/_other/irc/da/ani/irc_1/Gau-43310.EMs"
         fchk file        "/mlatom/home/qhzhang/git/ts-analysis/calculations/_other/irc/da/ani/irc_1/Gau-43310.EFC"
         mat. el file     "/mlatom/home/qhzhang/git/ts-analysis/calculations/_other/irc/da/ani/irc_1/Gau-43310.EUF"
model loaded from /mlatom/home/qhzhang/git/ts-analysis/calculations/_other/irc/da/ani/irc/da_energy_iteration27.npz
 Recovered energy= -234.657322117     dipole=      0.000000000000      0.000000000000      0.000000000000
 Energy=    -234.657322     NIter=   0.
 Dipole moment=       0.000000       0.000000       0.000000
 Leave Link  402 at Sun Apr 28 19:42:59 2024, MaxMem=   104857600 cpu:               0.1 elap:               4.8
 (Enter /mlatom/software/Gaussian/g16-avx2/l716.exe)
 Dipole        = 0.00000000D+00 0.00000000D+00 0.00000000D+00
 -------------------------------------------------------------------
 Center     Atomic                   Forces (Hartrees/Bohr)
 Number     Number              X              Y              Z
 -------------------------------------------------------------------
      1        6          -0.002479097   -0.000267962    0.002301887
      2        6           0.001954538    0.000531354   -0.000328543
      3        1          -0.000828029    0.000596379   -0.000360353
      4        1           0.000507144   -0.001287681   -0.000610956
      5        1           0.000385248   -0.000163766    0.000674530
      6        6           0.000604863    0.000973606    0.000369328
      7        6           0.003631722    0.000502387   -0.000353586
      8        1          -0.001362215   -0.000809784   -0.000386493
      9        1          -0.002396189   -0.000994808   -0.000022288
     10        1          -0.000168111   -0.001293552    0.000834187
     11        6          -0.005227260   -0.000476281   -0.001804663
     12        6           0.001170366    0.000105760   -0.002000114
     13        1           0.003457453    0.000831381    0.001960381
     14        1           0.002430832    0.001296780   -0.002409863
     15        1          -0.000363491   -0.000405733    0.002513531
     16        1          -0.001317780    0.000861914   -0.000376983
 -------------------------------------------------------------------
 Cartesian Forces:  Max     0.005227260 RMS     0.001593840
 Z-matrix is all fixed cartesians, so copy forces.
 Leave Link  716 at Sun Apr 28 19:42:59 2024, MaxMem=   104857600 cpu:               0.0 elap:               0.4
 (Enter /mlatom/software/Gaussian/g16-avx2/l123.exe)
 IRC-IRC-IRC-IRC-IRC-IRC-IRC-IRC-IRC-IRC-IRC-IRC-IRC-IRC-IRC-IRC-IRC-IRC
 Pt 32 Step number   1 out of a maximum of  20
 Point Number:  32          Path Number:   1
                    CURRENT STRUCTURE
                Cartesian Coordinates (Ang):                
 ---------------------------------------------------------------------
 Center     Atomic                     Coordinates (Angstroms)
 Number     Number                        X           Y           Z
 ---------------------------------------------------------------------
      1          6                   -0.095218    1.379074    0.356293
      2          6                   -1.254710    0.671618   -0.299779
      3          1                   -0.181085    1.270483    1.450234
      4          1                   -0.115153    2.460093    0.165259
      5          1                   -2.064144    1.250140   -0.733524
      6          6                   -1.250414   -0.671954   -0.307757
      7          6                   -0.100875   -1.377251    0.356658
      8          1                   -2.053382   -1.249748   -0.746936
      9          1                   -0.091171   -2.453387    0.160360
     10          1                   -0.197289   -1.260033    1.446287
     11          6                    1.254134    0.770137   -0.081681
     12          6                    1.253329   -0.772787   -0.077869
     13          1                    2.049979    1.175436    0.540067
     14          1                    1.437901    1.116715   -1.096598
     15          1                    1.465809   -1.122112   -1.096106
     16          1                    2.055535   -1.173741    0.555527
 ---------------------------------------------------------------------
   CHANGE IN THE REACTION COORDINATE =    0.21388
   NET REACTION COORDINATE UP TO THIS POINT =    8.67772
  # OF POINTS ALONG THE PATH =  32
  # OF STEPS =   1

 Calculating another point on the path.
 Point Number 33 in FORWARD path direction.
 Using LQA Reaction Path Following.
   LQA: T_Est iteration completed in    4 iterations.
 IRC-IRC-IRC-IRC-IRC-IRC-IRC-IRC-IRC-IRC-IRC-IRC-IRC-IRC-IRC-IRC-IRC-IRC
 Leave Link  123 at Sun Apr 28 19:43:01 2024, MaxMem=   104857600 cpu:               0.2 elap:               1.3
 (Enter /mlatom/software/Gaussian/g16-avx2/l202.exe)
                          Input orientation:                          
 ---------------------------------------------------------------------
 Center     Atomic      Atomic             Coordinates (Angstroms)
 Number     Number       Type             X           Y           Z
 ---------------------------------------------------------------------
      1          6           0       -0.098061    1.386306    0.351387
      2          6           0       -1.249292    0.670475   -0.300873
      3          1           0       -0.190911    1.298275    1.446178
      4          1           0       -0.111275    2.461203    0.133363
      5          1           0       -2.060105    1.247207   -0.730768
      6          6           0       -1.251404   -0.671786   -0.298866
      7          6           0       -0.098040   -1.385419    0.352319
      8          1           0       -2.067750   -1.249842   -0.724090
      9          1           0       -0.112974   -2.460172    0.138552
     10          1           0       -0.192886   -1.296362    1.446216
     11          6           0        1.251749    0.772787   -0.077191
     12          6           0        1.251124   -0.772249   -0.081875
     13          1           0        2.050360    1.157928    0.565250
     14          1           0        1.475340    1.133897   -1.085394
     15          1           0        1.470532   -1.127498   -1.091447
     16          1           0        2.048691   -1.166002    0.558189
 ---------------------------------------------------------------------
                    Distance matrix (angstroms):
                    1          2          3          4          5
     1  C    0.000000
     2  C    1.504390   0.000000
     3  H    1.102243   2.136935   0.000000
     4  H    1.096865   2.165722   1.755627   0.000000
     5  H    2.244999   1.083903   2.869771   2.453252   0.000000
     6  C    2.447196   1.342263   2.837422   3.361895   2.126750
     7  C    2.771726   2.445146   2.899546   3.852872   3.457382
     8  H    3.462023   2.129930   3.837381   4.281925   2.497069
     9  H    3.852391   3.359355   3.980187   4.921379   4.276879
    10  H    2.899026   2.834918   2.594637   3.981148   3.833471
    11  C    1.543396   2.513107   2.162882   2.180118   3.408901
    12  C    2.582126   2.895080   2.949827   3.515348   3.932365
    13  H    2.171085   3.446083   2.412266   2.560805   4.310865
    14  H    2.145610   2.872952   3.035172   2.400929   3.554992
    15  H    3.295674   3.354870   3.883852   4.108656   4.270211
    16  H    3.341496   3.871347   3.446303   4.242942   4.936314
                    6          7          8          9         10
     6  C    0.000000
     7  C    1.504515   0.000000
     8  H    1.086916   2.248732   0.000000
     9  H    2.164644   1.095908   2.455646   0.000000
    10  H    2.134448   1.101607   2.868363   1.752377   0.000000
    11  C    2.898569   2.581524   3.940632   3.515827   2.947731
    12  C    2.513925   1.544262   3.414009   2.181384   2.166777
    13  H    3.872492   3.336102   4.941517   4.237067   3.439738
    14  H    3.363666   3.299924   4.285585   4.115595   3.885638
    15  H    2.871375   2.147418   3.559404   2.407574   3.038949
    16  H    3.445203   2.167713   4.312350   2.554167   2.414592
                   11         12         13         14         15
    11  C    0.000000
    12  C    1.545044   0.000000
    13  H    1.094917   2.187038   0.000000
    14  H    1.094014   2.165806   1.748099   0.000000
    15  H    2.165102   1.092510   2.881669   2.261408   0.000000
    16  H    2.190372   1.095828   2.323942   2.884378   1.748442
                   16
    16  H    0.000000
 Symmetry turned off by external request.
 Stoichiometry    C6H10
 Framework group  C1[X(C6H10)]
 Deg. of freedom    42
 Full point group                 C1      NOp   1
 Rotational constants (GHZ):           4.6685771           4.5739518           2.6217307
 Leave Link  202 at Sun Apr 28 19:43:05 2024, MaxMem=   104857600 cpu:               0.0 elap:               0.5
 (Enter /mlatom/software/Gaussian/g16-avx2/l301.exe)
 Standard basis: STO-3G (5D, 7F)
 Ernie: Thresh=  0.10000D-02 Tol=  0.10000D-05 Strict=F.
    40 basis functions,   120 primitive gaussians,    40 cartesian basis functions
    23 alpha electrons       23 beta electrons
       nuclear repulsion energy       236.8669637079 Hartrees.
 IExCor=    0 DFT=F Ex=HF Corr=None ExCW=0 ScaHFX=  1.000000
 ScaDFX=  1.000000  1.000000  1.000000  1.000000 ScalE2=  1.000000  1.000000
 IRadAn=      5 IRanWt=     -1 IRanGd=            0 ICorTp=0 IEmpDi=  4
 NAtoms=   16 NActive=   16 NUniq=   16 SFac= 1.00D+00 NAtFMM=   60 NAOKFM=F Big=F
 Integral buffers will be    131072 words long.
 Raffenetti 1 integral format.
 Two-electron integral symmetry is turned off.
 Leave Link  301 at Sun Apr 28 19:43:05 2024, MaxMem=   104857600 cpu:               0.0 elap:               0.4
 (Enter /mlatom/software/Gaussian/g16-avx2/l402.exe)
 External calculation of energy and first derivatives.
 Running external command "/mlatom/software/miniconda3/bin/python /mlatom/software/mlatom/mlatom/interfaces/gaussian_interface.py model_predict_kwargs R"
         input file       "/mlatom/home/qhzhang/git/ts-analysis/calculations/_other/irc/da/ani/irc_1/Gau-43310.EIn"
         output file      "/mlatom/home/qhzhang/git/ts-analysis/calculations/_other/irc/da/ani/irc_1/Gau-43310.EOu"
         message file     "/mlatom/home/qhzhang/git/ts-analysis/calculations/_other/irc/da/ani/irc_1/Gau-43310.EMs"
         fchk file        "/mlatom/home/qhzhang/git/ts-analysis/calculations/_other/irc/da/ani/irc_1/Gau-43310.EFC"
         mat. el file     "/mlatom/home/qhzhang/git/ts-analysis/calculations/_other/irc/da/ani/irc_1/Gau-43310.EUF"
model loaded from /mlatom/home/qhzhang/git/ts-analysis/calculations/_other/irc/da/ani/irc/da_energy_iteration27.npz
 Recovered energy= -234.657634237     dipole=      0.000000000000      0.000000000000      0.000000000000
 Energy=    -234.657634     NIter=   0.
 Dipole moment=       0.000000       0.000000       0.000000
 Leave Link  402 at Sun Apr 28 19:43:11 2024, MaxMem=   104857600 cpu:               0.0 elap:               5.2
 (Enter /mlatom/software/Gaussian/g16-avx2/l716.exe)
 Dipole        = 0.00000000D+00 0.00000000D+00 0.00000000D+00
 -------------------------------------------------------------------
 Center     Atomic                   Forces (Hartrees/Bohr)
 Number     Number              X              Y              Z
 -------------------------------------------------------------------
      1        6           0.000576111    0.000330863    0.000414479
      2        6          -0.000331858    0.000654143    0.000043974
      3        1          -0.000375874    0.000235870   -0.000609442
      4        1          -0.000102937   -0.000502421    0.000199282
      5        1          -0.000555037    0.000232802   -0.000003591
      6        6          -0.001102283   -0.001356356   -0.000520952
      7        6          -0.000030046   -0.000251551   -0.000233440
      8        1           0.001120832    0.000902877    0.000696952
      9        1           0.000061304   -0.000028043   -0.000107478
     10        1           0.000214800    0.000023642   -0.000252767
     11        6           0.000729831   -0.000135618   -0.000870142
     12        6           0.000067022   -0.000285496    0.001110846
     13        1          -0.000114844    0.000408867    0.000311293
     14        1          -0.000009344   -0.000345034    0.000378876
     15        1          -0.000057673   -0.000102084   -0.000376379
     16        1          -0.000090006    0.000217543   -0.000181504
 -------------------------------------------------------------------
 Cartesian Forces:  Max     0.001356356 RMS     0.000498478
 Z-matrix is all fixed cartesians, so copy forces.
 Leave Link  716 at Sun Apr 28 19:43:12 2024, MaxMem=   104857600 cpu:               0.0 elap:               0.4
 (Enter /mlatom/software/Gaussian/g16-avx2/l123.exe)
 IRC-IRC-IRC-IRC-IRC-IRC-IRC-IRC-IRC-IRC-IRC-IRC-IRC-IRC-IRC-IRC-IRC-IRC
 Pt 33 Step number   1 out of a maximum of  20
 Point Number:  33          Path Number:   1
                    CURRENT STRUCTURE
                Cartesian Coordinates (Ang):                
 ---------------------------------------------------------------------
 Center     Atomic                     Coordinates (Angstroms)
 Number     Number                        X           Y           Z
 ---------------------------------------------------------------------
      1          6                   -0.098061    1.386306    0.351387
      2          6                   -1.249292    0.670475   -0.300873
      3          1                   -0.190911    1.298275    1.446178
      4          1                   -0.111275    2.461203    0.133363
      5          1                   -2.060105    1.247207   -0.730768
      6          6                   -1.251404   -0.671786   -0.298866
      7          6                   -0.098040   -1.385419    0.352319
      8          1                   -2.067750   -1.249842   -0.724090
      9          1                   -0.112974   -2.460172    0.138552
     10          1                   -0.192886   -1.296362    1.446216
     11          6                    1.251749    0.772787   -0.077191
     12          6                    1.251124   -0.772249   -0.081875
     13          1                    2.050360    1.157928    0.565250
     14          1                    1.475340    1.133897   -1.085394
     15          1                    1.470532   -1.127498   -1.091447
     16          1                    2.048691   -1.166002    0.558189
 ---------------------------------------------------------------------
   CHANGE IN THE REACTION COORDINATE =    0.20836
   NET REACTION COORDINATE UP TO THIS POINT =    8.88607
  # OF POINTS ALONG THE PATH =  33
  # OF STEPS =   1

 Calculating another point on the path.
 Point Number 34 in FORWARD path direction.
 Using LQA Reaction Path Following.
   LQA: T_Est iteration completed in    4 iterations.
 IRC-IRC-IRC-IRC-IRC-IRC-IRC-IRC-IRC-IRC-IRC-IRC-IRC-IRC-IRC-IRC-IRC-IRC
 Leave Link  123 at Sun Apr 28 19:43:14 2024, MaxMem=   104857600 cpu:               0.1 elap:               1.2
 (Enter /mlatom/software/Gaussian/g16-avx2/l202.exe)
                          Input orientation:                          
 ---------------------------------------------------------------------
 Center     Atomic      Atomic             Coordinates (Angstroms)
 Number     Number       Type             X           Y           Z
 ---------------------------------------------------------------------
      1          6           0       -0.096763    1.393511    0.338694
      2          6           0       -1.257625    0.672678   -0.293647
      3          1           0       -0.201713    1.333358    1.433444
      4          1           0       -0.105849    2.461818    0.098872
      5          1           0       -2.093965    1.249437   -0.695060
      6          6           0       -1.255285   -0.671136   -0.292655
      7          6           0       -0.096444   -1.393413    0.338076
      8          1           0       -2.069950   -1.241442   -0.704066
      9          1           0       -0.103076   -2.461391    0.088640
     10          1           0       -0.185661   -1.337449    1.432199
     11          6           0        1.258218    0.771286   -0.074321
     12          6           0        1.254428   -0.772977   -0.070547
     13          1           0        2.043085    1.166168    0.575337
     14          1           0        1.489061    1.119189   -1.081289
     15          1           0        1.487353   -1.126307   -1.079894
     16          1           0        2.044332   -1.162765    0.579550
 ---------------------------------------------------------------------
                    Distance matrix (angstroms):
                    1          2          3          4          5
     1  C    0.000000
     2  C    1.505674   0.000000
     3  H    1.101413   2.129387   0.000000
     4  H    1.094933   2.163719   1.750341   0.000000
     5  H    2.253491   1.092359   2.849243   2.460245   0.000000
     6  C    2.450213   1.343817   2.847355   3.360045   2.133990
     7  C    2.786924   2.452783   2.940441   3.862657   3.470175
     8  H    3.453085   2.119475   3.832604   4.268084   2.491011
     9  H    3.863009   3.361773   4.027201   4.923221   4.283464
    10  H    2.943093   2.858017   2.670855   4.027228   3.854716
    11  C    1.547164   2.527309   2.172713   2.179122   3.442539
    12  C    2.585897   2.906906   2.969677   3.513254   3.961302
    13  H    2.164863   3.448673   2.409028   2.554143   4.328513
    14  H    2.146262   2.892064   3.037839   2.395657   3.606135
    15  H    3.297165   3.374824   3.901252   4.099076   4.314869
    16  H    3.343179   3.877402   3.464749   4.241690   4.956698
                    6          7          8          9         10
     6  C    0.000000
     7  C    1.504133   0.000000
     8  H    1.076191   2.236935   0.000000
     9  H    2.162865   1.096740   2.446478   0.000000
    10  H    2.136163   1.099180   2.850156   1.753630   0.000000
    11  C    2.906191   2.586716   3.940095   3.511392   2.966673
    12  C    2.521580   1.541678   3.416475   2.172303   2.156555
    13  H    3.874060   3.344448   4.934624   4.242884   3.459713
    14  H    3.370258   3.292657   4.287358   4.089521   3.893248
    15  H    2.889461   2.142521   3.578953   2.382726   3.025585
    16  H    3.448176   2.166664   4.310590   2.557105   2.393824
                   11         12         13         14         15
    11  C    0.000000
    12  C    1.544272   0.000000
    13  H    1.092705   2.190759   0.000000
    14  H    1.090096   2.157995   1.747444   0.000000
    15  H    2.159754   1.094476   2.881679   2.245497   0.000000
    16  H    2.187710   1.094765   2.328937   2.876461   1.750803
                   16
    16  H    0.000000
 Symmetry turned off by external request.
 Stoichiometry    C6H10
 Framework group  C1[X(C6H10)]
 Deg. of freedom    42
 Full point group                 C1      NOp   1
 Rotational constants (GHZ):           4.6614405           4.5603179           2.6010076
 Leave Link  202 at Sun Apr 28 19:43:17 2024, MaxMem=   104857600 cpu:               0.0 elap:               0.5
 (Enter /mlatom/software/Gaussian/g16-avx2/l301.exe)
 Standard basis: STO-3G (5D, 7F)
 Ernie: Thresh=  0.10000D-02 Tol=  0.10000D-05 Strict=F.
    40 basis functions,   120 primitive gaussians,    40 cartesian basis functions
    23 alpha electrons       23 beta electrons
       nuclear repulsion energy       236.5904711354 Hartrees.
 IExCor=    0 DFT=F Ex=HF Corr=None ExCW=0 ScaHFX=  1.000000
 ScaDFX=  1.000000  1.000000  1.000000  1.000000 ScalE2=  1.000000  1.000000
 IRadAn=      5 IRanWt=     -1 IRanGd=            0 ICorTp=0 IEmpDi=  4
 NAtoms=   16 NActive=   16 NUniq=   16 SFac= 1.00D+00 NAtFMM=   60 NAOKFM=F Big=F
 Integral buffers will be    131072 words long.
 Raffenetti 1 integral format.
 Two-electron integral symmetry is turned off.
 Leave Link  301 at Sun Apr 28 19:43:19 2024, MaxMem=   104857600 cpu:               0.1 elap:               0.4
 (Enter /mlatom/software/Gaussian/g16-avx2/l402.exe)
 External calculation of energy and first derivatives.
 Running external command "/mlatom/software/miniconda3/bin/python /mlatom/software/mlatom/mlatom/interfaces/gaussian_interface.py model_predict_kwargs R"
         input file       "/mlatom/home/qhzhang/git/ts-analysis/calculations/_other/irc/da/ani/irc_1/Gau-43310.EIn"
         output file      "/mlatom/home/qhzhang/git/ts-analysis/calculations/_other/irc/da/ani/irc_1/Gau-43310.EOu"
         message file     "/mlatom/home/qhzhang/git/ts-analysis/calculations/_other/irc/da/ani/irc_1/Gau-43310.EMs"
         fchk file        "/mlatom/home/qhzhang/git/ts-analysis/calculations/_other/irc/da/ani/irc_1/Gau-43310.EFC"
         mat. el file     "/mlatom/home/qhzhang/git/ts-analysis/calculations/_other/irc/da/ani/irc_1/Gau-43310.EUF"
model loaded from /mlatom/home/qhzhang/git/ts-analysis/calculations/_other/irc/da/ani/irc/da_energy_iteration27.npz
 Recovered energy= -234.657490292     dipole=      0.000000000000      0.000000000000      0.000000000000
 Energy=    -234.657490     NIter=   0.
 Dipole moment=       0.000000       0.000000       0.000000
 Leave Link  402 at Sun Apr 28 19:43:24 2024, MaxMem=   104857600 cpu:               0.1 elap:               5.1
 (Enter /mlatom/software/Gaussian/g16-avx2/l716.exe)
 Dipole        = 0.00000000D+00 0.00000000D+00 0.00000000D+00
 -------------------------------------------------------------------
 Center     Atomic                   Forces (Hartrees/Bohr)
 Number     Number              X              Y              Z
 -------------------------------------------------------------------
      1        6          -0.000357994   -0.000397290   -0.000411359
      2        6          -0.002618017    0.001144696   -0.000913384
      3        1           0.001001522   -0.000427844   -0.000219411
      4        1          -0.000205294    0.000711602   -0.000137092
      5        1           0.004295267   -0.002681444    0.001529005
      6        6           0.004216999    0.004399291    0.001545513
      7        6           0.000725362   -0.000648684   -0.000408267
      8        1          -0.004665208   -0.003226586   -0.002087626
      9        1          -0.000551770    0.000110161    0.000598394
     10        1          -0.001028750    0.000077450    0.000894517
     11        6          -0.003843098   -0.000466112    0.001726639
     12        6           0.000813046    0.000594816   -0.001973803
     13        1           0.001287858    0.000227873    0.000560995
     14        1           0.000528035    0.000932908   -0.001494664
     15        1           0.000277826    0.000091368    0.000808871
     16        1           0.000124215   -0.000442209   -0.000018328
 -------------------------------------------------------------------
 Cartesian Forces:  Max     0.004665208 RMS     0.001757023
 Z-matrix is all fixed cartesians, so copy forces.
 Leave Link  716 at Sun Apr 28 19:43:25 2024, MaxMem=   104857600 cpu:               0.0 elap:               0.4
 (Enter /mlatom/software/Gaussian/g16-avx2/l123.exe)
 IRC-IRC-IRC-IRC-IRC-IRC-IRC-IRC-IRC-IRC-IRC-IRC-IRC-IRC-IRC-IRC-IRC-IRC
 Pt 34 Step number   1 out of a maximum of  20
 Point Number:  34          Path Number:   1
                    CURRENT STRUCTURE
                Cartesian Coordinates (Ang):                
 ---------------------------------------------------------------------
 Center     Atomic                     Coordinates (Angstroms)
 Number     Number                        X           Y           Z
 ---------------------------------------------------------------------
      1          6                   -0.096763    1.393511    0.338694
      2          6                   -1.257625    0.672678   -0.293647
      3          1                   -0.201713    1.333358    1.433444
      4          1                   -0.105849    2.461818    0.098872
      5          1                   -2.093965    1.249437   -0.695060
      6          6                   -1.255285   -0.671136   -0.292655
      7          6                   -0.096444   -1.393413    0.338076
      8          1                   -2.069950   -1.241442   -0.704066
      9          1                   -0.103076   -2.461391    0.088640
     10          1                   -0.185661   -1.337449    1.432199
     11          6                    1.258218    0.771286   -0.074321
     12          6                    1.254428   -0.772977   -0.070547
     13          1                    2.043085    1.166168    0.575337
     14          1                    1.489061    1.119189   -1.081289
     15          1                    1.487353   -1.126307   -1.079894
     16          1                    2.044332   -1.162765    0.579550
 ---------------------------------------------------------------------
   CHANGE IN THE REACTION COORDINATE =    0.28080
   NET REACTION COORDINATE UP TO THIS POINT =    9.16687
  # OF POINTS ALONG THE PATH =  34
  # OF STEPS =   1

 Calculating another point on the path.
 Point Number 35 in FORWARD path direction.
 Using LQA Reaction Path Following.
   LQA: T_Est iteration completed in    5 iterations.
 IRC-IRC-IRC-IRC-IRC-IRC-IRC-IRC-IRC-IRC-IRC-IRC-IRC-IRC-IRC-IRC-IRC-IRC
 Leave Link  123 at Sun Apr 28 19:43:27 2024, MaxMem=   104857600 cpu:               0.1 elap:               1.2
 (Enter /mlatom/software/Gaussian/g16-avx2/l202.exe)
                          Input orientation:                          
 ---------------------------------------------------------------------
 Center     Atomic      Atomic             Coordinates (Angstroms)
 Number     Number       Type             X           Y           Z
 ---------------------------------------------------------------------
      1          6           0       -0.093870    1.400050    0.330209
      2          6           0       -1.257351    0.671851   -0.288936
      3          1           0       -0.193215    1.362874    1.419174
      4          1           0       -0.106833    2.465340    0.065358
      5          1           0       -2.064576    1.236567   -0.697588
      6          6           0       -1.255884   -0.669554   -0.288409
      7          6           0       -0.097438   -1.401503    0.329448
      8          1           0       -2.122360   -1.246603   -0.657109
      9          1           0       -0.098153   -2.463197    0.052892
     10          1           0       -0.197217   -1.373266    1.429746
     11          6           0        1.251796    0.772596   -0.066315
     12          6           0        1.259733   -0.771718   -0.069087
     13          1           0        2.043408    1.171756    0.583879
     14          1           0        1.494185    1.111907   -1.075593
     15          1           0        1.504991   -1.121280   -1.077014
     16          1           0        2.037964   -1.164602    0.588389
 ---------------------------------------------------------------------
                    Distance matrix (angstroms):
                    1          2          3          4          5
     1  C    0.000000
     2  C    1.505756   0.000000
     3  H    1.094119   2.127801   0.000000
     4  H    1.097797   2.160050   1.748059   0.000000
     5  H    2.228626   1.066542   2.828184   2.434076   0.000000
     6  C    2.452799   1.341406   2.859348   3.357533   2.110617
     7  C    2.801555   2.454912   2.972954   3.875862   3.447295
     8  H    3.477691   2.136412   3.852521   4.285187   2.484171
     9  H    3.873190   3.359928   4.063814   4.928561   4.256559
    10  H    2.985120   2.874066   2.736164   4.074877   3.850170
    11  C    1.536798   2.521018   2.154800   2.174533   3.407653
    12  C    2.590030   2.909972   2.980346   3.516266   3.934368
    13  H    2.164353   3.450612   2.395146   2.562374   4.303707
    14  H    2.140380   2.895416   3.022278   2.386799   3.580951
    15  H    3.300566   3.386284   3.909716   4.094732   4.294789
    16  H    3.344968   3.873159   3.472246   4.248552   4.924447
                    6          7          8          9         10
     6  C    0.000000
     7  C    1.503161   0.000000
     8  H    1.104402   2.257786   0.000000
     9  H    2.161940   1.097123   2.466094   0.000000
    10  H    2.137298   1.105173   2.842039   1.758832   0.000000
    11  C    2.901308   2.589164   3.976322   3.508124   2.990411
    12  C    2.527225   1.548345   3.465521   2.172518   2.175100
    13  H    3.877710   3.357025   4.974146   4.252190   3.494714
    14  H    3.369888   3.290082   4.337868   4.073131   3.913266
    15  H    2.906611   2.150452   3.653725   2.376448   3.040535
    16  H    3.444312   2.164051   4.343534   2.556581   2.397385
                   11         12         13         14         15
    11  C    0.000000
    12  C    1.544337   0.000000
    13  H    1.099422   2.194904   0.000000
    14  H    1.092029   2.148504   1.749021   0.000000
    15  H    2.161570   1.094652   2.882095   2.233214   0.000000
    16  H    2.190761   1.091914   2.336368   2.871764   1.749144
                   16
    16  H    0.000000
 Symmetry turned off by external request.
 Stoichiometry    C6H10
 Framework group  C1[X(C6H10)]
 Deg. of freedom    42
 Full point group                 C1      NOp   1
 Rotational constants (GHZ):           4.6483635           4.5695695           2.5911902
 Leave Link  202 at Sun Apr 28 19:43:30 2024, MaxMem=   104857600 cpu:               0.0 elap:               0.5
 (Enter /mlatom/software/Gaussian/g16-avx2/l301.exe)
 Standard basis: STO-3G (5D, 7F)
 Ernie: Thresh=  0.10000D-02 Tol=  0.10000D-05 Strict=F.
    40 basis functions,   120 primitive gaussians,    40 cartesian basis functions
    23 alpha electrons       23 beta electrons
       nuclear repulsion energy       236.4951894751 Hartrees.
 IExCor=    0 DFT=F Ex=HF Corr=None ExCW=0 ScaHFX=  1.000000
 ScaDFX=  1.000000  1.000000  1.000000  1.000000 ScalE2=  1.000000  1.000000
 IRadAn=      5 IRanWt=     -1 IRanGd=            0 ICorTp=0 IEmpDi=  4
 NAtoms=   16 NActive=   16 NUniq=   16 SFac= 1.00D+00 NAtFMM=   60 NAOKFM=F Big=F
 Integral buffers will be    131072 words long.
 Raffenetti 1 integral format.
 Two-electron integral symmetry is turned off.
 Leave Link  301 at Sun Apr 28 19:43:31 2024, MaxMem=   104857600 cpu:               0.1 elap:               0.4
 (Enter /mlatom/software/Gaussian/g16-avx2/l402.exe)
 External calculation of energy and first derivatives.
 Running external command "/mlatom/software/miniconda3/bin/python /mlatom/software/mlatom/mlatom/interfaces/gaussian_interface.py model_predict_kwargs R"
         input file       "/mlatom/home/qhzhang/git/ts-analysis/calculations/_other/irc/da/ani/irc_1/Gau-43310.EIn"
         output file      "/mlatom/home/qhzhang/git/ts-analysis/calculations/_other/irc/da/ani/irc_1/Gau-43310.EOu"
         message file     "/mlatom/home/qhzhang/git/ts-analysis/calculations/_other/irc/da/ani/irc_1/Gau-43310.EMs"
         fchk file        "/mlatom/home/qhzhang/git/ts-analysis/calculations/_other/irc/da/ani/irc_1/Gau-43310.EFC"
         mat. el file     "/mlatom/home/qhzhang/git/ts-analysis/calculations/_other/irc/da/ani/irc_1/Gau-43310.EUF"
model loaded from /mlatom/home/qhzhang/git/ts-analysis/calculations/_other/irc/da/ani/irc/da_energy_iteration27.npz
 Recovered energy= -234.656871715     dipole=      0.000000000000      0.000000000000      0.000000000000
 Energy=    -234.656872     NIter=   0.
 Dipole moment=       0.000000       0.000000       0.000000
 Leave Link  402 at Sun Apr 28 19:43:37 2024, MaxMem=   104857600 cpu:               0.0 elap:               4.8
 (Enter /mlatom/software/Gaussian/g16-avx2/l716.exe)
 Dipole        = 0.00000000D+00 0.00000000D+00 0.00000000D+00
 -------------------------------------------------------------------
 Center     Atomic                   Forces (Hartrees/Bohr)
 Number     Number              X              Y              Z
 -------------------------------------------------------------------
      1        6          -0.001961256    0.001265952   -0.002860372
      2        6           0.011460299   -0.005865752    0.003545650
      3        1          -0.000462528   -0.000455825    0.003666937
      4        1           0.000262634   -0.000603387    0.000463065
      5        1          -0.010344671    0.006667768   -0.004405042
      6        6          -0.011074649   -0.007186918   -0.001449541
      7        6           0.001897854   -0.000825885    0.000001498
      8        1           0.010670677    0.006077871    0.002681868
      9        1          -0.001127037    0.000300874    0.001061135
     10        1           0.000440896    0.000563879   -0.002640978
     11        6           0.004517192   -0.000039571   -0.000272603
     12        6          -0.004410216   -0.000133419    0.000499839
     13        1          -0.001474731   -0.001005708   -0.001319131
     14        1           0.000012518    0.001292375   -0.000629719
     15        1          -0.000109202    0.000260594    0.000892299
     16        1           0.001702219   -0.000312848    0.000765093
 -------------------------------------------------------------------
 Cartesian Forces:  Max     0.011460299 RMS     0.004025034
 Z-matrix is all fixed cartesians, so copy forces.
 Leave Link  716 at Sun Apr 28 19:43:38 2024, MaxMem=   104857600 cpu:               0.0 elap:               0.4
 (Enter /mlatom/software/Gaussian/g16-avx2/l123.exe)
 IRC-IRC-IRC-IRC-IRC-IRC-IRC-IRC-IRC-IRC-IRC-IRC-IRC-IRC-IRC-IRC-IRC-IRC
 Pt 35 Step number   1 out of a maximum of  20
 Point Number:  35          Path Number:   1
                    CURRENT STRUCTURE
                Cartesian Coordinates (Ang):                
 ---------------------------------------------------------------------
 Center     Atomic                     Coordinates (Angstroms)
 Number     Number                        X           Y           Z
 ---------------------------------------------------------------------
      1          6                   -0.093870    1.400050    0.330209
      2          6                   -1.257351    0.671851   -0.288936
      3          1                   -0.193215    1.362874    1.419174
      4          1                   -0.106833    2.465340    0.065358
      5          1                   -2.064576    1.236567   -0.697588
      6          6                   -1.255884   -0.669554   -0.288409
      7          6                   -0.097438   -1.401503    0.329448
      8          1                   -2.122360   -1.246603   -0.657109
      9          1                   -0.098153   -2.463197    0.052892
     10          1                   -0.197217   -1.373266    1.429746
     11          6                    1.251796    0.772596   -0.066315
     12          6                    1.259733   -0.771718   -0.069087
     13          1                    2.043408    1.171756    0.583879
     14          1                    1.494185    1.111907   -1.075593
     15          1                    1.504991   -1.121280   -1.077014
     16          1                    2.037964   -1.164602    0.588389
 ---------------------------------------------------------------------
   CHANGE IN THE REACTION COORDINATE =    0.24755
   NET REACTION COORDINATE UP TO THIS POINT =    9.41442
  # OF POINTS ALONG THE PATH =  35
  # OF STEPS =   1

 Calculating another point on the path.
 Point Number 36 in FORWARD path direction.
 Using LQA Reaction Path Following.
   LQA: T_Est iteration completed in    6 iterations.
 IRC-IRC-IRC-IRC-IRC-IRC-IRC-IRC-IRC-IRC-IRC-IRC-IRC-IRC-IRC-IRC-IRC-IRC
 Leave Link  123 at Sun Apr 28 19:43:40 2024, MaxMem=   104857600 cpu:               0.1 elap:               1.2
 (Enter /mlatom/software/Gaussian/g16-avx2/l202.exe)
                          Input orientation:                          
 ---------------------------------------------------------------------
 Center     Atomic      Atomic             Coordinates (Angstroms)
 Number     Number       Type             X           Y           Z
 ---------------------------------------------------------------------
      1          6           0       -0.095851    1.407275    0.326935
      2          6           0       -1.246692    0.667004   -0.288736
      3          1           0       -0.196218    1.406685    1.427349
      4          1           0       -0.110466    2.467150    0.025506
      5          1           0       -2.094180    1.245598   -0.673580
      6          6           0       -1.265354   -0.673864   -0.280543
      7          6           0       -0.095662   -1.407770    0.321658
      8          1           0       -2.104952   -1.235140   -0.656731
      9          1           0       -0.110018   -2.466761    0.038034
     10          1           0       -0.197812   -1.390879    1.415983
     11          6           0        1.256678    0.774883   -0.064948
     12          6           0        1.254048   -0.770923   -0.067465
     13          1           0        2.034867    1.163802    0.602684
     14          1           0        1.518911    1.127777   -1.065797
     15          1           0        1.514612   -1.118337   -1.072536
     16          1           0        2.041276   -1.159476    0.591344
 ---------------------------------------------------------------------
                    Distance matrix (angstroms):
                    1          2          3          4          5
     1  C    0.000000
     2  C    1.500496   0.000000
     3  H    1.104982   2.143729   0.000000
     4  H    1.102002   2.151810   1.759859   0.000000
     5  H    2.240644   1.095953   2.835861   2.432289   0.000000
     6  C    2.463312   1.341022   2.896313   3.360565   2.127385
     7  C    2.815050   2.449926   3.025528   3.886249   3.467699
     8  H    3.462145   2.119005   3.868578   4.260326   2.480819
     9  H    3.884820   3.349521   4.115970   4.933927   4.269064
    10  H    3.004345   2.870731   2.797587   4.101883   3.861800
    11  C    1.543641   2.515667   2.176472   2.177391   3.438060
    12  C    2.592744   2.893145   3.013256   3.515061   3.955295
    13  H    2.162238   3.436578   2.390984   2.575714   4.322565
    14  H    2.150645   2.909414   3.038952   2.374811   3.636226
    15  H    3.306180   3.380323   3.943615   4.086844   4.332521
    16  H    3.350438   3.862810   3.505776   4.254713   4.948375
                    6          7          8          9         10
     6  C    0.000000
     7  C    1.506467   0.000000
     8  H    1.077717   2.241494   0.000000
     9  H    2.156565   1.096408   2.445271   0.000000
    10  H    2.128840   1.099213   2.820919   1.750421   0.000000
    11  C    2.916504   2.596587   3.961181   3.519478   2.999870
    12  C    2.530258   1.542306   3.441745   2.178916   2.166301
    13  H    3.879248   3.351285   4.947641   4.254451   3.488941
    14  H    3.408029   3.310721   4.345468   4.097872   3.930648
    15  H    2.924554   2.149541   3.645241   2.385589   3.033051
    16  H    3.453956   2.168152   4.330661   2.577444   2.397309
                   11         12         13         14         15
    11  C    0.000000
    12  C    1.545810   0.000000
    13  H    1.096617   2.191333   0.000000
    14  H    1.093160   2.161453   1.746807   0.000000
    15  H    2.160103   1.094878   2.878400   2.246129   0.000000
    16  H    2.188163   1.097603   2.323315   2.872370   1.745728
                   16
    16  H    0.000000
 Symmetry turned off by external request.
 Stoichiometry    C6H10
 Framework group  C1[X(C6H10)]
 Deg. of freedom    42
 Full point group                 C1      NOp   1
 Rotational constants (GHZ):           4.6319294           4.5711318           2.5815569
 Leave Link  202 at Sun Apr 28 19:43:43 2024, MaxMem=   104857600 cpu:               0.0 elap:               0.5
 (Enter /mlatom/software/Gaussian/g16-avx2/l301.exe)
 Standard basis: STO-3G (5D, 7F)
 Ernie: Thresh=  0.10000D-02 Tol=  0.10000D-05 Strict=F.
    40 basis functions,   120 primitive gaussians,    40 cartesian basis functions
    23 alpha electrons       23 beta electrons
       nuclear repulsion energy       236.2661245825 Hartrees.
 IExCor=    0 DFT=F Ex=HF Corr=None ExCW=0 ScaHFX=  1.000000
 ScaDFX=  1.000000  1.000000  1.000000  1.000000 ScalE2=  1.000000  1.000000
 IRadAn=      5 IRanWt=     -1 IRanGd=            0 ICorTp=0 IEmpDi=  4
 NAtoms=   16 NActive=   16 NUniq=   16 SFac= 1.00D+00 NAtFMM=   60 NAOKFM=F Big=F
 Integral buffers will be    131072 words long.
 Raffenetti 1 integral format.
 Two-electron integral symmetry is turned off.
 Leave Link  301 at Sun Apr 28 19:43:44 2024, MaxMem=   104857600 cpu:               0.0 elap:               0.4
 (Enter /mlatom/software/Gaussian/g16-avx2/l402.exe)
 External calculation of energy and first derivatives.
 Running external command "/mlatom/software/miniconda3/bin/python /mlatom/software/mlatom/mlatom/interfaces/gaussian_interface.py model_predict_kwargs R"
         input file       "/mlatom/home/qhzhang/git/ts-analysis/calculations/_other/irc/da/ani/irc_1/Gau-43310.EIn"
         output file      "/mlatom/home/qhzhang/git/ts-analysis/calculations/_other/irc/da/ani/irc_1/Gau-43310.EOu"
         message file     "/mlatom/home/qhzhang/git/ts-analysis/calculations/_other/irc/da/ani/irc_1/Gau-43310.EMs"
         fchk file        "/mlatom/home/qhzhang/git/ts-analysis/calculations/_other/irc/da/ani/irc_1/Gau-43310.EFC"
         mat. el file     "/mlatom/home/qhzhang/git/ts-analysis/calculations/_other/irc/da/ani/irc_1/Gau-43310.EUF"
model loaded from /mlatom/home/qhzhang/git/ts-analysis/calculations/_other/irc/da/ani/irc/da_energy_iteration27.npz
 Recovered energy= -234.657090062     dipole=      0.000000000000      0.000000000000      0.000000000000
 Energy=    -234.657090     NIter=   0.
 Dipole moment=       0.000000       0.000000       0.000000
 Leave Link  402 at Sun Apr 28 19:43:50 2024, MaxMem=   104857600 cpu:               0.1 elap:               4.8
 (Enter /mlatom/software/Gaussian/g16-avx2/l716.exe)
 Dipole        = 0.00000000D+00 0.00000000D+00 0.00000000D+00
 -------------------------------------------------------------------
 Center     Atomic                   Forces (Hartrees/Bohr)
 Number     Number              X              Y              Z
 -------------------------------------------------------------------
      1        6           0.001441506    0.003480050   -0.001930388
      2        6          -0.010428163    0.005177822   -0.000433914
      3        1           0.000141330   -0.001576946   -0.002926151
      4        1           0.000164323   -0.002692135    0.001912398
      5        1           0.005629203   -0.003717904    0.001513369
      6        6           0.007837444    0.002729035    0.001835129
      7        6          -0.001942005   -0.000658547   -0.000907653
      8        1          -0.003464436   -0.002634400   -0.002027865
      9        1           0.000532739   -0.000254663    0.000562167
     10        1           0.000494956    0.000638631    0.000654134
     11        6           0.000342693    0.000545120    0.002951517
     12        6           0.002014413   -0.000573580   -0.000072230
     13        1          -0.000042500   -0.000633572   -0.000807494
     14        1          -0.000669590   -0.000142877   -0.000170633
     15        1          -0.000922925    0.000178756    0.000465782
     16        1          -0.001128981    0.000135210   -0.000618165
 -------------------------------------------------------------------
 Cartesian Forces:  Max     0.010428163 RMS     0.002674644
 Z-matrix is all fixed cartesians, so copy forces.
 Leave Link  716 at Sun Apr 28 19:43:50 2024, MaxMem=   104857600 cpu:               0.0 elap:               0.4
 (Enter /mlatom/software/Gaussian/g16-avx2/l123.exe)
 IRC-IRC-IRC-IRC-IRC-IRC-IRC-IRC-IRC-IRC-IRC-IRC-IRC-IRC-IRC-IRC-IRC-IRC
 Pt 36 Step number   1 out of a maximum of  20
 Point Number:  36          Path Number:   1
                    CURRENT STRUCTURE
                Cartesian Coordinates (Ang):                
 ---------------------------------------------------------------------
 Center     Atomic                     Coordinates (Angstroms)
 Number     Number                        X           Y           Z
 ---------------------------------------------------------------------
      1          6                   -0.095851    1.407275    0.326935
      2          6                   -1.246692    0.667004   -0.288736
      3          1                   -0.196218    1.406685    1.427349
      4          1                   -0.110466    2.467150    0.025506
      5          1                   -2.094180    1.245598   -0.673580
      6          6                   -1.265354   -0.673864   -0.280543
      7          6                   -0.095662   -1.407770    0.321658
      8          1                   -2.104952   -1.235140   -0.656731
      9          1                   -0.110018   -2.466761    0.038034
     10          1                   -0.197812   -1.390879    1.415983
     11          6                    1.256678    0.774883   -0.064948
     12          6                    1.254048   -0.770923   -0.067465
     13          1                    2.034867    1.163802    0.602684
     14          1                    1.518911    1.127777   -1.065797
     15          1                    1.514612   -1.118337   -1.072536
     16          1                    2.041276   -1.159476    0.591344
 ---------------------------------------------------------------------
   CHANGE IN THE REACTION COORDINATE =    0.22871
   NET REACTION COORDINATE UP TO THIS POINT =    9.64313
  # OF POINTS ALONG THE PATH =  36
  # OF STEPS =   1

 Calculating another point on the path.
 Point Number 37 in FORWARD path direction.
 Using LQA Reaction Path Following.
   LQA: T_Est iteration completed in    6 iterations.
 IRC-IRC-IRC-IRC-IRC-IRC-IRC-IRC-IRC-IRC-IRC-IRC-IRC-IRC-IRC-IRC-IRC-IRC
 Leave Link  123 at Sun Apr 28 19:43:52 2024, MaxMem=   104857600 cpu:               0.1 elap:               1.2
 (Enter /mlatom/software/Gaussian/g16-avx2/l202.exe)
                          Input orientation:                          
 ---------------------------------------------------------------------
 Center     Atomic      Atomic             Coordinates (Angstroms)
 Number     Number       Type             X           Y           Z
 ---------------------------------------------------------------------
      1          6           0       -0.096186    1.401003    0.328014
      2          6           0       -1.258159    0.671025   -0.290198
      3          1           0       -0.195899    1.355914    1.422323
      4          1           0       -0.105849    2.465892    0.070749
      5          1           0       -2.086895    1.240275   -0.695193
      6          6           0       -1.257478   -0.671849   -0.285670
      7          6           0       -0.096102   -1.401693    0.331958
      8          1           0       -2.088997   -1.242399   -0.682356
      9          1           0       -0.112931   -2.466935    0.075355
     10          1           0       -0.189707   -1.358246    1.426857
     11          6           0        1.259245    0.773322   -0.065030
     12          6           0        1.254697   -0.771629   -0.073211
     13          1           0        2.039502    1.157905    0.599384
     14          1           0        1.513865    1.131794   -1.067471
     15          1           0        1.494333   -1.119147   -1.081652
     16          1           0        2.042313   -1.167183    0.576590
 ---------------------------------------------------------------------
                    Distance matrix (angstroms):
                    1          2          3          4          5
     1  C    0.000000
     2  C    1.505070   0.000000
     3  H    1.099767   2.128426   0.000000
     4  H    1.095567   2.163249   1.751260   0.000000
     5  H    2.244038   1.083914   2.841322   2.452213   0.000000
     6  C    2.453960   1.342882   2.855873   3.361354   2.124114
     7  C    2.802699   2.456342   2.967028   3.876408   3.463855
     8  H    3.461173   2.122563   3.842489   4.272174   2.482709
     9  H    3.876217   3.360353   4.054057   4.932834   4.270092
    10  H    2.971474   2.864927   2.714171   4.058336   3.854183
    11  C    1.544558   2.529523   2.160804   2.178694   3.436830
    12  C    2.589633   2.905647   2.977799   3.514734   3.949792
    13  H    2.166541   3.450069   2.390283   2.567647   4.325490
    14  H    2.147584   2.915575   3.028629   2.387223   3.621579
    15  H    3.296675   3.377474   3.905470   4.091591   4.305975
    16  H    3.351201   3.876010   3.477194   4.250848   4.946074
                    6          7          8          9         10
     6  C    0.000000
     7  C    1.504304   0.000000
     8  H    1.083657   2.241838   0.000000
     9  H    2.159319   1.095841   2.445087   0.000000
    10  H    2.131671   1.099751   2.840687   1.749755   0.000000
    11  C    2.910515   2.593310   3.956634   3.521625   2.978048
    12  C    2.523117   1.544604   3.431177   2.183241   2.163475
    13  H    3.873164   3.344229   4.944575   4.248181   3.461951
    14  H    3.397748   3.311941   4.331943   4.111371   3.914605
    15  H    2.899332   2.146534   3.607615   2.395516   3.030804
    16  H    3.446371   2.165101   4.319529   2.566256   2.396117
                   11         12         13         14         15
    11  C    0.000000
    12  C    1.544980   0.000000
    13  H    1.094600   2.188928   0.000000
    14  H    1.094634   2.163040   1.747965   0.000000
    15  H    2.161071   1.093228   2.882370   2.251071   0.000000
    16  H    2.188706   1.095008   2.325202   2.875325   1.747099
                   16
    16  H    0.000000
 Symmetry turned off by external request.
 Stoichiometry    C6H10
 Framework group  C1[X(C6H10)]
 Deg. of freedom    42
 Full point group                 C1      NOp   1
 Rotational constants (GHZ):           4.6451668           4.5627918           2.5888894
 Leave Link  202 at Sun Apr 28 19:43:56 2024, MaxMem=   104857600 cpu:               0.0 elap:               0.5
 (Enter /mlatom/software/Gaussian/g16-avx2/l301.exe)
 Standard basis: STO-3G (5D, 7F)
 Ernie: Thresh=  0.10000D-02 Tol=  0.10000D-05 Strict=F.
    40 basis functions,   120 primitive gaussians,    40 cartesian basis functions
    23 alpha electrons       23 beta electrons
       nuclear repulsion energy       236.3995740390 Hartrees.
 IExCor=    0 DFT=F Ex=HF Corr=None ExCW=0 ScaHFX=  1.000000
 ScaDFX=  1.000000  1.000000  1.000000  1.000000 ScalE2=  1.000000  1.000000
 IRadAn=      5 IRanWt=     -1 IRanGd=            0 ICorTp=0 IEmpDi=  4
 NAtoms=   16 NActive=   16 NUniq=   16 SFac= 1.00D+00 NAtFMM=   60 NAOKFM=F Big=F
 Integral buffers will be    131072 words long.
 Raffenetti 1 integral format.
 Two-electron integral symmetry is turned off.
 Leave Link  301 at Sun Apr 28 19:43:58 2024, MaxMem=   104857600 cpu:               0.1 elap:               0.4
 (Enter /mlatom/software/Gaussian/g16-avx2/l402.exe)
 External calculation of energy and first derivatives.
 Running external command "/mlatom/software/miniconda3/bin/python /mlatom/software/mlatom/mlatom/interfaces/gaussian_interface.py model_predict_kwargs R"
         input file       "/mlatom/home/qhzhang/git/ts-analysis/calculations/_other/irc/da/ani/irc_1/Gau-43310.EIn"
         output file      "/mlatom/home/qhzhang/git/ts-analysis/calculations/_other/irc/da/ani/irc_1/Gau-43310.EOu"
         message file     "/mlatom/home/qhzhang/git/ts-analysis/calculations/_other/irc/da/ani/irc_1/Gau-43310.EMs"
         fchk file        "/mlatom/home/qhzhang/git/ts-analysis/calculations/_other/irc/da/ani/irc_1/Gau-43310.EFC"
         mat. el file     "/mlatom/home/qhzhang/git/ts-analysis/calculations/_other/irc/da/ani/irc_1/Gau-43310.EUF"
model loaded from /mlatom/home/qhzhang/git/ts-analysis/calculations/_other/irc/da/ani/irc/da_energy_iteration27.npz
 Recovered energy= -234.657559523     dipole=      0.000000000000      0.000000000000      0.000000000000
 Energy=    -234.657560     NIter=   0.
 Dipole moment=       0.000000       0.000000       0.000000
 Leave Link  402 at Sun Apr 28 19:44:03 2024, MaxMem=   104857600 cpu:               0.0 elap:               4.9
 (Enter /mlatom/software/Gaussian/g16-avx2/l716.exe)
 Dipole        = 0.00000000D+00 0.00000000D+00 0.00000000D+00
 -------------------------------------------------------------------
 Center     Atomic                   Forces (Hartrees/Bohr)
 Number     Number              X              Y              Z
 -------------------------------------------------------------------
      1        6           0.000023270   -0.000666544    0.000393755
      2        6           0.001656386   -0.000878247   -0.000234256
      3        1          -0.000111505   -0.000101823    0.000683309
      4        1          -0.000175499    0.000399665    0.000082855
      5        1          -0.000384687    0.000378408   -0.000134493
      6        6           0.000337386    0.000817065   -0.000022070
      7        6          -0.000322755    0.001249485   -0.000163428
      8        1          -0.000464764   -0.000494017   -0.000379303
      9        1           0.000491909   -0.000194514    0.000013003
     10        1          -0.000050854    0.000477355    0.000601309
     11        6          -0.001117218   -0.000011744   -0.001298588
     12        6          -0.000162287   -0.000729438   -0.000132812
     13        1           0.000169824    0.000198263    0.000184331
     14        1          -0.000042736   -0.000482302    0.000610259
     15        1          -0.000140624    0.000055165   -0.000106614
     16        1           0.000294155   -0.000016777   -0.000097258
 -------------------------------------------------------------------
 Cartesian Forces:  Max     0.001656386 RMS     0.000529664
 Z-matrix is all fixed cartesians, so copy forces.
 Leave Link  716 at Sun Apr 28 19:44:04 2024, MaxMem=   104857600 cpu:               0.0 elap:               0.4
 (Enter /mlatom/software/Gaussian/g16-avx2/l123.exe)
 IRC-IRC-IRC-IRC-IRC-IRC-IRC-IRC-IRC-IRC-IRC-IRC-IRC-IRC-IRC-IRC-IRC-IRC
 Pt 37 Step number   1 out of a maximum of  20
 Point Number:  37          Path Number:   1
                    CURRENT STRUCTURE
                Cartesian Coordinates (Ang):                
 ---------------------------------------------------------------------
 Center     Atomic                     Coordinates (Angstroms)
 Number     Number                        X           Y           Z
 ---------------------------------------------------------------------
      1          6                   -0.096186    1.401003    0.328014
      2          6                   -1.258159    0.671025   -0.290198
      3          1                   -0.195899    1.355914    1.422323
      4          1                   -0.105849    2.465892    0.070749
      5          1                   -2.086895    1.240275   -0.695193
      6          6                   -1.257478   -0.671849   -0.285670
      7          6                   -0.096102   -1.401693    0.331958
      8          1                   -2.088997   -1.242399   -0.682356
      9          1                   -0.112931   -2.466935    0.075355
     10          1                   -0.189707   -1.358246    1.426857
     11          6                    1.259245    0.773322   -0.065030
     12          6                    1.254697   -0.771629   -0.073211
     13          1                    2.039502    1.157905    0.599384
     14          1                    1.513865    1.131794   -1.067471
     15          1                    1.494333   -1.119147   -1.081652
     16          1                    2.042313   -1.167183    0.576590
 ---------------------------------------------------------------------
   CHANGE IN THE REACTION COORDINATE =    0.23469
   NET REACTION COORDINATE UP TO THIS POINT =    9.87782
  # OF POINTS ALONG THE PATH =  37
  # OF STEPS =   1

 Calculating another point on the path.
 Point Number 38 in FORWARD path direction.
 Using LQA Reaction Path Following.
   LQA: T_Est iteration completed in    4 iterations.
 IRC-IRC-IRC-IRC-IRC-IRC-IRC-IRC-IRC-IRC-IRC-IRC-IRC-IRC-IRC-IRC-IRC-IRC
 Leave Link  123 at Sun Apr 28 19:44:06 2024, MaxMem=   104857600 cpu:               0.1 elap:               1.2
 (Enter /mlatom/software/Gaussian/g16-avx2/l202.exe)
                          Input orientation:                          
 ---------------------------------------------------------------------
 Center     Atomic      Atomic             Coordinates (Angstroms)
 Number     Number       Type             X           Y           Z
 ---------------------------------------------------------------------
      1          6           0       -0.096863    1.394611    0.343428
      2          6           0       -1.245613    0.669408   -0.298728
      3          1           0       -0.201040    1.321742    1.441219
      4          1           0       -0.119784    2.470152    0.118582
      5          1           0       -2.071461    1.247316   -0.712844
      6          6           0       -1.259453   -0.672230   -0.292565
      7          6           0       -0.095868   -1.390653    0.340450
      8          1           0       -2.086693   -1.247904   -0.701653
      9          1           0       -0.095671   -2.461246    0.111348
     10          1           0       -0.197637   -1.314476    1.437933
     11          6           0        1.251493    0.771862   -0.072318
     12          6           0        1.254226   -0.773793   -0.075491
     13          1           0        2.048594    1.168480    0.569108
     14          1           0        1.479726    1.117633   -1.083019
     15          1           0        1.477771   -1.122859   -1.087519
     16          1           0        2.053228   -1.169361    0.564392
 ---------------------------------------------------------------------
                    Distance matrix (angstroms):
                    1          2          3          4          5
     1  C    0.000000
     2  C    1.502634   0.000000
     3  H    1.105127   2.131686   0.000000
     4  H    1.099032   2.164329   1.753515   0.000000
     5  H    2.244203   1.089723   2.853770   2.448600   0.000000
     6  C    2.455185   1.341723   2.846431   3.367855   2.126181
     7  C    2.785266   2.444241   2.929137   3.867249   3.459953
     8  H    3.469078   2.132100   3.840660   4.285494   2.495292
     9  H    3.862835   3.360285   4.011316   4.931462   4.282110
    10  H    2.923567   2.837259   2.636222   4.008760   3.834036
    11  C    1.542312   2.509441   2.168643   2.191126   3.417361
    12  C    2.588998   2.895144   2.968076   3.528278   3.943513
    13  H    2.169113   3.442966   2.417626   2.568888   4.315608
    14  H    2.144085   2.871148   3.039475   2.414867   3.572783
    15  H    3.296170   3.354286   3.897306   4.112978   4.284292
    16  H    3.353456   3.874067   3.472195   4.262251   4.948204
                    6          7          8          9         10
     6  C    0.000000
     7  C    1.506907   0.000000
     8  H    1.087695   2.251608   0.000000
     9  H    2.172121   1.094831   2.469278   0.000000
    10  H    2.129450   1.104821   2.854959   1.756504   0.000000
    11  C    2.904954   2.581130   3.952088   3.507359   2.955273
    12  C    2.525078   1.541518   3.431996   2.169016   2.165802
    13  H    3.882508   3.346665   4.955235   4.240558   3.459116
    14  H    3.366234   3.286375   4.296575   4.088614   3.883800
    15  H    2.885726   2.141763   3.587469   2.388364   3.036712
    16  H    3.457654   2.172035   4.329894   2.547937   2.418786
                   11         12         13         14         15
    11  C    0.000000
    12  C    1.545660   0.000000
    13  H    1.097317   2.195212   0.000000
    14  H    1.092321   2.154868   1.748062   0.000000
    15  H    2.161435   1.093627   2.884526   2.240498   0.000000
    16  H    2.194658   1.097420   2.337850   2.876319   1.749893
                   16
    16  H    0.000000
 Symmetry turned off by external request.
 Stoichiometry    C6H10
 Framework group  C1[X(C6H10)]
 Deg. of freedom    42
 Full point group                 C1      NOp   1
 Rotational constants (GHZ):           4.6583077           4.5727460           2.6084620
 Leave Link  202 at Sun Apr 28 19:44:10 2024, MaxMem=   104857600 cpu:               0.0 elap:               0.5
 (Enter /mlatom/software/Gaussian/g16-avx2/l301.exe)
 Standard basis: STO-3G (5D, 7F)
 Ernie: Thresh=  0.10000D-02 Tol=  0.10000D-05 Strict=F.
    40 basis functions,   120 primitive gaussians,    40 cartesian basis functions
    23 alpha electrons       23 beta electrons
       nuclear repulsion energy       236.6590715694 Hartrees.
 IExCor=    0 DFT=F Ex=HF Corr=None ExCW=0 ScaHFX=  1.000000
 ScaDFX=  1.000000  1.000000  1.000000  1.000000 ScalE2=  1.000000  1.000000
 IRadAn=      5 IRanWt=     -1 IRanGd=            0 ICorTp=0 IEmpDi=  4
 NAtoms=   16 NActive=   16 NUniq=   16 SFac= 1.00D+00 NAtFMM=   60 NAOKFM=F Big=F
 Integral buffers will be    131072 words long.
 Raffenetti 1 integral format.
 Two-electron integral symmetry is turned off.
 Leave Link  301 at Sun Apr 28 19:44:12 2024, MaxMem=   104857600 cpu:               0.1 elap:               0.4
 (Enter /mlatom/software/Gaussian/g16-avx2/l402.exe)
 External calculation of energy and first derivatives.
 Running external command "/mlatom/software/miniconda3/bin/python /mlatom/software/mlatom/mlatom/interfaces/gaussian_interface.py model_predict_kwargs R"
         input file       "/mlatom/home/qhzhang/git/ts-analysis/calculations/_other/irc/da/ani/irc_1/Gau-43310.EIn"
         output file      "/mlatom/home/qhzhang/git/ts-analysis/calculations/_other/irc/da/ani/irc_1/Gau-43310.EOu"
         message file     "/mlatom/home/qhzhang/git/ts-analysis/calculations/_other/irc/da/ani/irc_1/Gau-43310.EMs"
         fchk file        "/mlatom/home/qhzhang/git/ts-analysis/calculations/_other/irc/da/ani/irc_1/Gau-43310.EFC"
         mat. el file     "/mlatom/home/qhzhang/git/ts-analysis/calculations/_other/irc/da/ani/irc_1/Gau-43310.EUF"
model loaded from /mlatom/home/qhzhang/git/ts-analysis/calculations/_other/irc/da/ani/irc/da_energy_iteration27.npz
 Recovered energy= -234.657483125     dipole=      0.000000000000      0.000000000000      0.000000000000
 Energy=    -234.657483     NIter=   0.
 Dipole moment=       0.000000       0.000000       0.000000
 Leave Link  402 at Sun Apr 28 19:44:17 2024, MaxMem=   104857600 cpu:               0.0 elap:               5.2
 (Enter /mlatom/software/Gaussian/g16-avx2/l716.exe)
 Dipole        = 0.00000000D+00 0.00000000D+00 0.00000000D+00
 -------------------------------------------------------------------
 Center     Atomic                   Forces (Hartrees/Bohr)
 Number     Number              X              Y              Z
 -------------------------------------------------------------------
      1        6          -0.000615850   -0.000134144    0.002309629
      2        6          -0.006632970    0.003280927   -0.001362507
      3        1           0.000622934   -0.000117269   -0.001890148
      4        1           0.000958750   -0.002052876   -0.000421789
      5        1           0.002518366   -0.001627370    0.001005003
      6        6           0.002317974   -0.002264463   -0.001361993
      7        6          -0.000850288   -0.000017747    0.003283765
      8        1           0.001673610    0.001446694    0.000845738
      9        1          -0.001426249   -0.000806509    0.000049129
     10        1           0.000715781   -0.000698096   -0.001716416
     11        6           0.002348277    0.001299906    0.000445670
     12        6           0.000047582    0.000999966    0.000049260
     13        1          -0.000741123   -0.000780609   -0.000511979
     14        1           0.000090740    0.000954750   -0.000493546
     15        1           0.000230679    0.000017571    0.000174940
     16        1          -0.001258214    0.000499266   -0.000404761
 -------------------------------------------------------------------
 Cartesian Forces:  Max     0.006632970 RMS     0.001650829
 Z-matrix is all fixed cartesians, so copy forces.
 Leave Link  716 at Sun Apr 28 19:44:18 2024, MaxMem=   104857600 cpu:               0.0 elap:               0.4
 (Enter /mlatom/software/Gaussian/g16-avx2/l123.exe)
 IRC-IRC-IRC-IRC-IRC-IRC-IRC-IRC-IRC-IRC-IRC-IRC-IRC-IRC-IRC-IRC-IRC-IRC
 Pt 38 Step number   1 out of a maximum of  20
 Point Number:  38          Path Number:   1
                    CURRENT STRUCTURE
                Cartesian Coordinates (Ang):                
 ---------------------------------------------------------------------
 Center     Atomic                     Coordinates (Angstroms)
 Number     Number                        X           Y           Z
 ---------------------------------------------------------------------
      1          6                   -0.096863    1.394611    0.343428
      2          6                   -1.245613    0.669408   -0.298728
      3          1                   -0.201040    1.321742    1.441219
      4          1                   -0.119784    2.470152    0.118582
      5          1                   -2.071461    1.247316   -0.712844
      6          6                   -1.259453   -0.672230   -0.292565
      7          6                   -0.095868   -1.390653    0.340450
      8          1                   -2.086693   -1.247904   -0.701653
      9          1                   -0.095671   -2.461246    0.111348
     10          1                   -0.197637   -1.314476    1.437933
     11          6                    1.251493    0.771862   -0.072318
     12          6                    1.254226   -0.773793   -0.075491
     13          1                    2.048594    1.168480    0.569108
     14          1                    1.479726    1.117633   -1.083019
     15          1                    1.477771   -1.122859   -1.087519
     16          1                    2.053228   -1.169361    0.564392
 ---------------------------------------------------------------------
   CHANGE IN THE REACTION COORDINATE =    0.28527
   NET REACTION COORDINATE UP TO THIS POINT =   10.16309
  # OF POINTS ALONG THE PATH =  38
  # OF STEPS =   1

 Calculating another point on the path.
 Point Number 39 in FORWARD path direction.
 Using LQA Reaction Path Following.
   LQA: T_Est iteration completed in    6 iterations.
 IRC-IRC-IRC-IRC-IRC-IRC-IRC-IRC-IRC-IRC-IRC-IRC-IRC-IRC-IRC-IRC-IRC-IRC
 Leave Link  123 at Sun Apr 28 19:44:20 2024, MaxMem=   104857600 cpu:               0.1 elap:               1.2
 (Enter /mlatom/software/Gaussian/g16-avx2/l202.exe)
                          Input orientation:                          
 ---------------------------------------------------------------------
 Center     Atomic      Atomic             Coordinates (Angstroms)
 Number     Number       Type             X           Y           Z
 ---------------------------------------------------------------------
      1          6           0       -0.096019    1.383178    0.350333
      2          6           0       -1.254293    0.670744   -0.298056
      3          1           0       -0.185002    1.284589    1.442473
      4          1           0       -0.098968    2.459455    0.135954
      5          1           0       -2.058103    1.248205   -0.729768
      6          6           0       -1.250393   -0.672526   -0.300600
      7          6           0       -0.101286   -1.389282    0.352265
      8          1           0       -2.057158   -1.246196   -0.737925
      9          1           0       -0.120024   -2.467197    0.147076
     10          1           0       -0.189263   -1.289343    1.443764
     11          6           0        1.256652    0.776293   -0.079308
     12          6           0        1.249495   -0.768536   -0.078322
     13          1           0        2.054080    1.170177    0.560070
     14          1           0        1.471687    1.129217   -1.089367
     15          1           0        1.469748   -1.123347   -1.092518
     16          1           0        2.044878   -1.164033    0.559480
 ---------------------------------------------------------------------
                    Distance matrix (angstroms):
                    1          2          3          4          5
     1  C    0.000000
     2  C    1.506509   0.000000
     3  H    1.100185   2.132986   0.000000
     4  H    1.097424   2.173160   1.759177   0.000000
     5  H    2.243794   1.079790   2.868530   2.460652   0.000000
     6  C    2.445856   1.343279   2.829074   3.365362   2.127390
     7  C    2.772465   2.448683   2.888796   3.854811   3.457783
     8  H    3.456006   2.124320   3.829357   4.281357   2.494414
     9  H    3.855810   3.366212   3.969656   4.926709   4.281263
    10  H    2.889057   2.830224   2.573935   3.971398   3.828309
    11  C    1.543574   2.522665   2.156977   2.171884   3.410778
    12  C    2.573718   2.896337   2.930174   3.504881   3.928337
    13  H    2.170780   3.454149   2.409401   2.545138   4.310432
    14  H    2.143580   2.875298   3.029682   2.395392   3.550055
    15  H    3.288786   3.357132   3.868143   4.099571   4.266331
    16  H    3.333986   3.871215   3.427505   4.231443   4.931075
                    6          7          8          9         10
     6  C    0.000000
     7  C    1.503469   0.000000
     8  H    1.082229   2.243752   0.000000
     9  H    2.167715   1.097431   2.454905   0.000000
    10  H    2.132901   1.099590   2.872397   1.753150   0.000000
    11  C    2.904019   2.592290   3.937712   3.530824   2.945721
    12  C    2.511587   1.547689   3.405465   2.193590   2.158242
    13  H    3.880187   3.352554   4.942259   4.257674   3.444233
    14  H    3.358297   3.300816   4.268354   4.122685   3.876202
    15  H    2.868718   2.150876   3.546814   2.422788   3.035226
    16  H    3.440949   2.167878   4.303104   2.560296   2.406044
                   11         12         13         14         15
    11  C    0.000000
    12  C    1.544846   0.000000
    13  H    1.095372   2.193971   0.000000
    14  H    1.091336   2.161724   1.749715   0.000000
    15  H    2.163478   1.096812   2.886650   2.252568   0.000000
    16  H    2.189569   1.093546   2.334228   2.882055   1.749722
                   16
    16  H    0.000000
 Symmetry turned off by external request.
 Stoichiometry    C6H10
 Framework group  C1[X(C6H10)]
 Deg. of freedom    42
 Full point group                 C1      NOp   1
 Rotational constants (GHZ):           4.6709894           4.5660550           2.6195146
 Leave Link  202 at Sun Apr 28 19:44:24 2024, MaxMem=   104857600 cpu:               0.0 elap:               0.5
 (Enter /mlatom/software/Gaussian/g16-avx2/l301.exe)
 Standard basis: STO-3G (5D, 7F)
 Ernie: Thresh=  0.10000D-02 Tol=  0.10000D-05 Strict=F.
    40 basis functions,   120 primitive gaussians,    40 cartesian basis functions
    23 alpha electrons       23 beta electrons
       nuclear repulsion energy       236.8308792442 Hartrees.
 IExCor=    0 DFT=F Ex=HF Corr=None ExCW=0 ScaHFX=  1.000000
 ScaDFX=  1.000000  1.000000  1.000000  1.000000 ScalE2=  1.000000  1.000000
 IRadAn=      5 IRanWt=     -1 IRanGd=            0 ICorTp=0 IEmpDi=  4
 NAtoms=   16 NActive=   16 NUniq=   16 SFac= 1.00D+00 NAtFMM=   60 NAOKFM=F Big=F
 Integral buffers will be    131072 words long.
 Raffenetti 1 integral format.
 Two-electron integral symmetry is turned off.
 Leave Link  301 at Sun Apr 28 19:44:24 2024, MaxMem=   104857600 cpu:               0.0 elap:               0.4
 (Enter /mlatom/software/Gaussian/g16-avx2/l402.exe)
 External calculation of energy and first derivatives.
 Running external command "/mlatom/software/miniconda3/bin/python /mlatom/software/mlatom/mlatom/interfaces/gaussian_interface.py model_predict_kwargs R"
         input file       "/mlatom/home/qhzhang/git/ts-analysis/calculations/_other/irc/da/ani/irc_1/Gau-43310.EIn"
         output file      "/mlatom/home/qhzhang/git/ts-analysis/calculations/_other/irc/da/ani/irc_1/Gau-43310.EOu"
         message file     "/mlatom/home/qhzhang/git/ts-analysis/calculations/_other/irc/da/ani/irc_1/Gau-43310.EMs"
         fchk file        "/mlatom/home/qhzhang/git/ts-analysis/calculations/_other/irc/da/ani/irc_1/Gau-43310.EFC"
         mat. el file     "/mlatom/home/qhzhang/git/ts-analysis/calculations/_other/irc/da/ani/irc_1/Gau-43310.EUF"
model loaded from /mlatom/home/qhzhang/git/ts-analysis/calculations/_other/irc/da/ani/irc/da_energy_iteration27.npz
 Recovered energy= -234.657488414     dipole=      0.000000000000      0.000000000000      0.000000000000
 Energy=    -234.657488     NIter=   0.
 Dipole moment=       0.000000       0.000000       0.000000
 Leave Link  402 at Sun Apr 28 19:44:30 2024, MaxMem=   104857600 cpu:               0.1 elap:               5.1
 (Enter /mlatom/software/Gaussian/g16-avx2/l716.exe)
 Dipole        = 0.00000000D+00 0.00000000D+00 0.00000000D+00
 -------------------------------------------------------------------
 Center     Atomic                   Forces (Hartrees/Bohr)
 Number     Number              X              Y              Z
 -------------------------------------------------------------------
      1        6           0.000928475    0.001198593   -0.000029840
      2        6           0.004887427   -0.001027019    0.000640919
      3        1          -0.000586122    0.001100438    0.000679912
      4        1          -0.001474328   -0.000684615    0.000687459
      5        1          -0.002804187    0.001346592   -0.000894336
      6        6          -0.000522798    0.000714453   -0.000048229
      7        6           0.001216261    0.001929770   -0.000464184
      8        1          -0.001545859   -0.001033846   -0.000258919
      9        1           0.000762360    0.001286295   -0.000438995
     10        1          -0.000671111   -0.000543323    0.001157448
     11        6          -0.002024824   -0.002139293    0.000138834
     12        6           0.000742276   -0.002313258   -0.003076789
     13        1          -0.000272891   -0.000248152    0.000104919
     14        1           0.000624500    0.000400735   -0.000781481
     15        1          -0.000270590    0.000266326    0.001961217
     16        1           0.001011413   -0.000253694    0.000622070
 -------------------------------------------------------------------
 Cartesian Forces:  Max     0.004887427 RMS     0.001356637
 Z-matrix is all fixed cartesians, so copy forces.
 Leave Link  716 at Sun Apr 28 19:44:31 2024, MaxMem=   104857600 cpu:               0.1 elap:               0.4
 (Enter /mlatom/software/Gaussian/g16-avx2/l123.exe)
 IRC-IRC-IRC-IRC-IRC-IRC-IRC-IRC-IRC-IRC-IRC-IRC-IRC-IRC-IRC-IRC-IRC-IRC
 Pt 39 Step number   1 out of a maximum of  20
 Point Number:  39          Path Number:   1
                    CURRENT STRUCTURE
                Cartesian Coordinates (Ang):                
 ---------------------------------------------------------------------
 Center     Atomic                     Coordinates (Angstroms)
 Number     Number                        X           Y           Z
 ---------------------------------------------------------------------
      1          6                   -0.096019    1.383178    0.350333
      2          6                   -1.254293    0.670744   -0.298056
      3          1                   -0.185002    1.284589    1.442473
      4          1                   -0.098968    2.459455    0.135954
      5          1                   -2.058103    1.248205   -0.729768
      6          6                   -1.250393   -0.672526   -0.300600
      7          6                   -0.101286   -1.389282    0.352265
      8          1                   -2.057158   -1.246196   -0.737925
      9          1                   -0.120024   -2.467197    0.147076
     10          1                   -0.189263   -1.289343    1.443764
     11          6                    1.256652    0.776293   -0.079308
     12          6                    1.249495   -0.768536   -0.078322
     13          1                    2.054080    1.170177    0.560070
     14          1                    1.471687    1.129217   -1.089367
     15          1                    1.469748   -1.123347   -1.092518
     16          1                    2.044878   -1.164033    0.559480
 ---------------------------------------------------------------------
   CHANGE IN THE REACTION COORDINATE =    0.24744
   NET REACTION COORDINATE UP TO THIS POINT =   10.41054
  # OF POINTS ALONG THE PATH =  39
  # OF STEPS =   1

 Calculating another point on the path.
 Point Number 40 in FORWARD path direction.
 Using LQA Reaction Path Following.
   LQA: T_Est iteration completed in    6 iterations.
 IRC-IRC-IRC-IRC-IRC-IRC-IRC-IRC-IRC-IRC-IRC-IRC-IRC-IRC-IRC-IRC-IRC-IRC
 Leave Link  123 at Sun Apr 28 19:44:32 2024, MaxMem=   104857600 cpu:               0.1 elap:               1.2
 (Enter /mlatom/software/Gaussian/g16-avx2/l202.exe)
                          Input orientation:                          
 ---------------------------------------------------------------------
 Center     Atomic      Atomic             Coordinates (Angstroms)
 Number     Number       Type             X           Y           Z
 ---------------------------------------------------------------------
      1          6           0       -0.100708    1.384080    0.355049
      2          6           0       -1.257626    0.673297   -0.299648
      3          1           0       -0.190431    1.279294    1.451110
      4          1           0       -0.121873    2.462836    0.158904
      5          1           0       -2.074322    1.251159   -0.726222
      6          6           0       -1.244267   -0.670077   -0.306769
      7          6           0       -0.094937   -1.374644    0.359712
      8          1           0       -2.047132   -1.254649   -0.753514
      9          1           0       -0.115969   -2.455290    0.173887
     10          1           0       -0.192811   -1.262341    1.456669
     11          6           0        1.250195    0.766911   -0.080736
     12          6           0        1.253782   -0.779308   -0.086967
     13          1           0        2.039856    1.143877    0.574345
     14          1           0        1.490146    1.140158   -1.085653
     15          1           0        1.457996   -1.142920   -1.091518
     16          1           0        2.059239   -1.165225    0.548761
 ---------------------------------------------------------------------
                    Distance matrix (angstroms):
                    1          2          3          4          5
     1  C    0.000000
     2  C    1.507414   0.000000
     3  H    1.104708   2.138057   0.000000
     4  H    1.096647   2.168560   1.753644   0.000000
     5  H    2.254322   1.087604   2.879342   2.462452   0.000000
     6  C    2.442394   1.343459   2.828560   3.360321   2.134498
     7  C    2.758733   2.445539   2.871176   3.842824   3.462955
     8  H    3.461266   2.132203   3.837782   4.284720   2.506104
     9  H    3.843671   3.363877   3.947652   4.918152   4.287553
    10  H    2.868029   2.822264   2.541642   3.945398   3.823974
    11  C    1.547819   2.519098   2.164369   2.194574   3.421048
    12  C    2.590418   2.909032   2.947757   3.530492   3.950661
    13  H    2.165134   3.443646   2.400257   2.566187   4.316185
    14  H    2.160078   2.895862   3.046123   2.428375   3.584264
    15  H    3.302702   3.361593   3.879354   4.130498   4.282795
    16  H    3.346917   3.886072   3.442517   4.251125   4.954879
                    6          7          8          9         10
     6  C    0.000000
     7  C    1.503852   0.000000
     8  H    1.088990   2.250497   0.000000
     9  H    2.165888   1.096709   2.455810   0.000000
    10  H    2.136831   1.107025   2.885044   1.753443   0.000000
    11  C    2.887623   2.567028   3.925774   3.509105   2.926388
    12  C    2.510078   1.540452   3.400922   2.180179   2.169969
    13  H    3.853862   3.308528   4.921342   4.214493   3.398997
    14  H    3.370552   3.305420   4.284595   4.134403   3.881720
    15  H    2.853355   2.138076   3.523160   2.408512   3.038533
    16  H    3.448225   2.172572   4.308851   2.556624   2.430114
                   11         12         13         14         15
    11  C    0.000000
    12  C    1.546236   0.000000
    13  H    1.093068   2.180341   0.000000
    14  H    1.098521   2.176601   1.748654   0.000000
    15  H    2.170787   1.087676   2.888443   2.283312   0.000000
    16  H    2.187229   1.096286   2.309326   2.882702   1.747142
                   16
    16  H    0.000000
 Symmetry turned off by external request.
 Stoichiometry    C6H10
 Framework group  C1[X(C6H10)]
 Deg. of freedom    42
 Full point group                 C1      NOp   1
 Rotational constants (GHZ):           4.6835300           4.5568310           2.6278836
 Leave Link  202 at Sun Apr 28 19:44:36 2024, MaxMem=   104857600 cpu:               0.0 elap:               0.5
 (Enter /mlatom/software/Gaussian/g16-avx2/l301.exe)
 Standard basis: STO-3G (5D, 7F)
 Ernie: Thresh=  0.10000D-02 Tol=  0.10000D-05 Strict=F.
    40 basis functions,   120 primitive gaussians,    40 cartesian basis functions
    23 alpha electrons       23 beta electrons
       nuclear repulsion energy       236.8371461797 Hartrees.
 IExCor=    0 DFT=F Ex=HF Corr=None ExCW=0 ScaHFX=  1.000000
 ScaDFX=  1.000000  1.000000  1.000000  1.000000 ScalE2=  1.000000  1.000000
 IRadAn=      5 IRanWt=     -1 IRanGd=            0 ICorTp=0 IEmpDi=  4
 NAtoms=   16 NActive=   16 NUniq=   16 SFac= 1.00D+00 NAtFMM=   60 NAOKFM=F Big=F
 Integral buffers will be    131072 words long.
 Raffenetti 1 integral format.
 Two-electron integral symmetry is turned off.
 Leave Link  301 at Sun Apr 28 19:44:37 2024, MaxMem=   104857600 cpu:               0.0 elap:               0.4
 (Enter /mlatom/software/Gaussian/g16-avx2/l402.exe)
 External calculation of energy and first derivatives.
 Running external command "/mlatom/software/miniconda3/bin/python /mlatom/software/mlatom/mlatom/interfaces/gaussian_interface.py model_predict_kwargs R"
         input file       "/mlatom/home/qhzhang/git/ts-analysis/calculations/_other/irc/da/ani/irc_1/Gau-43310.EIn"
         output file      "/mlatom/home/qhzhang/git/ts-analysis/calculations/_other/irc/da/ani/irc_1/Gau-43310.EOu"
         message file     "/mlatom/home/qhzhang/git/ts-analysis/calculations/_other/irc/da/ani/irc_1/Gau-43310.EMs"
         fchk file        "/mlatom/home/qhzhang/git/ts-analysis/calculations/_other/irc/da/ani/irc_1/Gau-43310.EFC"
         mat. el file     "/mlatom/home/qhzhang/git/ts-analysis/calculations/_other/irc/da/ani/irc_1/Gau-43310.EUF"
model loaded from /mlatom/home/qhzhang/git/ts-analysis/calculations/_other/irc/da/ani/irc/da_energy_iteration27.npz
 Recovered energy= -234.657389888     dipole=      0.000000000000      0.000000000000      0.000000000000
 Energy=    -234.657390     NIter=   0.
 Dipole moment=       0.000000       0.000000       0.000000
 Leave Link  402 at Sun Apr 28 19:44:43 2024, MaxMem=   104857600 cpu:               0.1 elap:               4.9
 (Enter /mlatom/software/Gaussian/g16-avx2/l716.exe)
 Dipole        = 0.00000000D+00 0.00000000D+00 0.00000000D+00
 -------------------------------------------------------------------
 Center     Atomic                   Forces (Hartrees/Bohr)
 Number     Number              X              Y              Z
 -------------------------------------------------------------------
      1        6          -0.001198627   -0.001588384    0.001036709
      2        6           0.000750025    0.000713410   -0.000774262
      3        1          -0.000124040    0.000384191   -0.001685239
      4        1           0.001018467   -0.000735122   -0.000553802
      5        1           0.001589317   -0.001253872    0.000944743
      6        6          -0.003966432   -0.000979825   -0.001224447
      7        6          -0.000662135   -0.002138586    0.003384432
      8        1           0.001946913    0.001567043    0.001632886
      9        1          -0.000000224    0.000369439   -0.000481697
     10        1           0.000549439   -0.000191477   -0.003000549
     11        6           0.001214658    0.001907863   -0.002567881
     12        6          -0.001039027    0.002311581    0.003500424
     13        1           0.001131577    0.001140629    0.000776765
     14        1          -0.001158104   -0.001288123    0.002416891
     15        1           0.000832265   -0.000136297   -0.003077687
     16        1          -0.000884073   -0.000082468   -0.000327288
 -------------------------------------------------------------------
 Cartesian Forces:  Max     0.003966432 RMS     0.001603092
 Z-matrix is all fixed cartesians, so copy forces.
 Leave Link  716 at Sun Apr 28 19:44:44 2024, MaxMem=   104857600 cpu:               0.0 elap:               0.4
 (Enter /mlatom/software/Gaussian/g16-avx2/l123.exe)
 IRC-IRC-IRC-IRC-IRC-IRC-IRC-IRC-IRC-IRC-IRC-IRC-IRC-IRC-IRC-IRC-IRC-IRC
 Pt 40 Step number   1 out of a maximum of  20
 Point Number:  40          Path Number:   1
                    CURRENT STRUCTURE
                Cartesian Coordinates (Ang):                
 ---------------------------------------------------------------------
 Center     Atomic                     Coordinates (Angstroms)
 Number     Number                        X           Y           Z
 ---------------------------------------------------------------------
      1          6                   -0.100708    1.384080    0.355049
      2          6                   -1.257626    0.673297   -0.299648
      3          1                   -0.190431    1.279294    1.451110
      4          1                   -0.121873    2.462836    0.158904
      5          1                   -2.074322    1.251159   -0.726222
      6          6                   -1.244267   -0.670077   -0.306769
      7          6                   -0.094937   -1.374644    0.359712
      8          1                   -2.047132   -1.254649   -0.753514
      9          1                   -0.115969   -2.455290    0.173887
     10          1                   -0.192811   -1.262341    1.456669
     11          6                    1.250195    0.766911   -0.080736
     12          6                    1.253782   -0.779308   -0.086967
     13          1                    2.039856    1.143877    0.574345
     14          1                    1.490146    1.140158   -1.085653
     15          1                    1.457996   -1.142920   -1.091518
     16          1                    2.059239   -1.165225    0.548761
 ---------------------------------------------------------------------
   CHANGE IN THE REACTION COORDINATE =    0.23691
   NET REACTION COORDINATE UP TO THIS POINT =   10.64744
  # OF POINTS ALONG THE PATH =  40
  # OF STEPS =   1

 Calculating another point on the path.
 Point Number 41 in FORWARD path direction.
 Using LQA Reaction Path Following.
   LQA: T_Est iteration completed in    7 iterations.
 IRC-IRC-IRC-IRC-IRC-IRC-IRC-IRC-IRC-IRC-IRC-IRC-IRC-IRC-IRC-IRC-IRC-IRC
 Leave Link  123 at Sun Apr 28 19:44:46 2024, MaxMem=   104857600 cpu:               0.2 elap:               1.3
 (Enter /mlatom/software/Gaussian/g16-avx2/l202.exe)
                          Input orientation:                          
 ---------------------------------------------------------------------
 Center     Atomic      Atomic             Coordinates (Angstroms)
 Number     Number       Type             X           Y           Z
 ---------------------------------------------------------------------
      1          6           0       -0.098828    1.388787    0.345385
      2          6           0       -1.252834    0.670703   -0.300453
      3          1           0       -0.197494    1.308547    1.441058
      4          1           0       -0.110177    2.461851    0.121107
      5          1           0       -2.072023    1.245543   -0.719484
      6          6           0       -1.250519   -0.671903   -0.296964
      7          6           0       -0.096647   -1.385422    0.352438
      8          1           0       -2.065997   -1.250953   -0.718420
      9          1           0       -0.111391   -2.460129    0.136580
     10          1           0       -0.188410   -1.297972    1.445492
     11          6           0        1.254505    0.771437   -0.070944
     12          6           0        1.250538   -0.773769   -0.085315
     13          1           0        2.047233    1.151211    0.583547
     14          1           0        1.489704    1.137694   -1.073203
     15          1           0        1.465798   -1.120429   -1.099728
     16          1           0        2.050125   -1.173373    0.548067
 ---------------------------------------------------------------------
                    Distance matrix (angstroms):
                    1          2          3          4          5
     1  C    0.000000
     2  C    1.504819   0.000000
     3  H    1.103029   2.133881   0.000000
     4  H    1.096310   2.166007   1.754994   0.000000
     5  H    2.246768   1.084943   2.861079   2.456591   0.000000
     6  C    2.446517   1.342612   2.837563   3.360889   2.128378
     7  C    2.774219   2.447587   2.907358   3.854245   3.460217
     8  H    3.459720   2.128072   3.834799   4.279596   2.496503
     9  H    3.854597   3.360952   3.988985   4.922004   4.278894
    10  H    2.904640   2.838486   2.606539   3.987027   3.834656
    11  C    1.544655   2.519835   2.164009   2.180994   3.422159
    12  C    2.585138   2.898215   2.960177   3.516161   3.939442
    13  H    2.172266   3.450041   2.408086   2.566329   4.321465
    14  H    2.144499   2.887341   3.032711   2.395702   3.580873
    15  H    3.291288   3.352306   3.888709   4.099618   4.273008
    16  H    3.350186   3.876872   3.465422   4.250183   4.944689
                    6          7          8          9         10
     6  C    0.000000
     7  C    1.504078   0.000000
     8  H    1.085324   2.245697   0.000000
     9  H    2.164099   1.096270   2.452267   0.000000
    10  H    2.134523   1.100379   2.865320   1.752082   0.000000
    11  C    2.899906   2.580098   3.941449   3.514507   2.943473
    12  C    2.512062   1.542937   3.409975   2.178967   2.165347
    13  H    3.869652   3.329285   4.938033   4.230983   3.426302
    14  H    3.374316   3.303797   4.298198   4.119637   3.884888
    15  H    2.867749   2.149475   3.554717   2.410556   3.040735
    16  H    3.443806   2.166072   4.307257   2.548964   2.414940
                   11         12         13         14         15
    11  C    0.000000
    12  C    1.545278   0.000000
    13  H    1.095904   2.188070   0.000000
    14  H    1.092697   2.164905   1.748097   0.000000
    15  H    2.163840   1.093410   2.886491   2.258405   0.000000
    16  H    2.190542   1.095534   2.324857   2.878128   1.749134
                   16
    16  H    0.000000
 Symmetry turned off by external request.
 Stoichiometry    C6H10
 Framework group  C1[X(C6H10)]
 Deg. of freedom    42
 Full point group                 C1      NOp   1
 Rotational constants (GHZ):           4.6682578           4.5701139           2.6173062
 Leave Link  202 at Sun Apr 28 19:44:49 2024, MaxMem=   104857600 cpu:               0.0 elap:               0.5
 (Enter /mlatom/software/Gaussian/g16-avx2/l301.exe)
 Standard basis: STO-3G (5D, 7F)
 Ernie: Thresh=  0.10000D-02 Tol=  0.10000D-05 Strict=F.
    40 basis functions,   120 primitive gaussians,    40 cartesian basis functions
    23 alpha electrons       23 beta electrons
       nuclear repulsion energy       236.8048665292 Hartrees.
 IExCor=    0 DFT=F Ex=HF Corr=None ExCW=0 ScaHFX=  1.000000
 ScaDFX=  1.000000  1.000000  1.000000  1.000000 ScalE2=  1.000000  1.000000
 IRadAn=      5 IRanWt=     -1 IRanGd=            0 ICorTp=0 IEmpDi=  4
 NAtoms=   16 NActive=   16 NUniq=   16 SFac= 1.00D+00 NAtFMM=   60 NAOKFM=F Big=F
 Integral buffers will be    131072 words long.
 Raffenetti 1 integral format.
 Two-electron integral symmetry is turned off.
 Leave Link  301 at Sun Apr 28 19:44:50 2024, MaxMem=   104857600 cpu:               0.0 elap:               0.4
 (Enter /mlatom/software/Gaussian/g16-avx2/l402.exe)
 External calculation of energy and first derivatives.
 Running external command "/mlatom/software/miniconda3/bin/python /mlatom/software/mlatom/mlatom/interfaces/gaussian_interface.py model_predict_kwargs R"
         input file       "/mlatom/home/qhzhang/git/ts-analysis/calculations/_other/irc/da/ani/irc_1/Gau-43310.EIn"
         output file      "/mlatom/home/qhzhang/git/ts-analysis/calculations/_other/irc/da/ani/irc_1/Gau-43310.EOu"
         message file     "/mlatom/home/qhzhang/git/ts-analysis/calculations/_other/irc/da/ani/irc_1/Gau-43310.EMs"
         fchk file        "/mlatom/home/qhzhang/git/ts-analysis/calculations/_other/irc/da/ani/irc_1/Gau-43310.EFC"
         mat. el file     "/mlatom/home/qhzhang/git/ts-analysis/calculations/_other/irc/da/ani/irc_1/Gau-43310.EUF"
model loaded from /mlatom/home/qhzhang/git/ts-analysis/calculations/_other/irc/da/ani/irc/da_energy_iteration27.npz
 Recovered energy= -234.657645860     dipole=      0.000000000000      0.000000000000      0.000000000000
 Energy=    -234.657646     NIter=   0.
 Dipole moment=       0.000000       0.000000       0.000000
 Leave Link  402 at Sun Apr 28 19:44:56 2024, MaxMem=   104857600 cpu:               0.0 elap:               4.8
 (Enter /mlatom/software/Gaussian/g16-avx2/l716.exe)
 Dipole        = 0.00000000D+00 0.00000000D+00 0.00000000D+00
 -------------------------------------------------------------------
 Center     Atomic                   Forces (Hartrees/Bohr)
 Number     Number              X              Y              Z
 -------------------------------------------------------------------
      1        6           0.000295929   -0.000093894    0.001375648
      2        6           0.000139533    0.000333658   -0.000054275
      3        1          -0.000121360    0.000309200   -0.000917318
      4        1          -0.000065014   -0.000170451    0.000053760
      5        1           0.000215932   -0.000140580    0.000028811
      6        6          -0.001158728   -0.000587348   -0.000118237
      7        6           0.000272230   -0.000765675   -0.001253623
      8        1           0.000242256    0.000367133    0.000242825
      9        1          -0.000115253    0.000146265    0.000031719
     10        1           0.000110902    0.000134767    0.000350524
     11        6           0.000364623   -0.000008437    0.000039520
     12        6           0.000422483    0.000246244    0.000594752
     13        1          -0.000625263    0.000280802   -0.000017219
     14        1           0.000395111   -0.000118276   -0.000407340
     15        1          -0.000478337   -0.000185451    0.000230312
     16        1           0.000104955    0.000252044   -0.000179857
 -------------------------------------------------------------------
 Cartesian Forces:  Max     0.001375648 RMS     0.000445099
 Z-matrix is all fixed cartesians, so copy forces.
 Leave Link  716 at Sun Apr 28 19:44:57 2024, MaxMem=   104857600 cpu:               0.0 elap:               0.4
 (Enter /mlatom/software/Gaussian/g16-avx2/l123.exe)
 IRC-IRC-IRC-IRC-IRC-IRC-IRC-IRC-IRC-IRC-IRC-IRC-IRC-IRC-IRC-IRC-IRC-IRC
 Pt 41 Step number   1 out of a maximum of  20
 Point Number:  41          Path Number:   1
                    CURRENT STRUCTURE
                Cartesian Coordinates (Ang):                
 ---------------------------------------------------------------------
 Center     Atomic                     Coordinates (Angstroms)
 Number     Number                        X           Y           Z
 ---------------------------------------------------------------------
      1          6                   -0.098828    1.388787    0.345385
      2          6                   -1.252834    0.670703   -0.300453
      3          1                   -0.197494    1.308547    1.441058
      4          1                   -0.110177    2.461851    0.121107
      5          1                   -2.072023    1.245543   -0.719484
      6          6                   -1.250519   -0.671903   -0.296964
      7          6                   -0.096647   -1.385422    0.352438
      8          1                   -2.065997   -1.250953   -0.718420
      9          1                   -0.111391   -2.460129    0.136580
     10          1                   -0.188410   -1.297972    1.445492
     11          6                    1.254505    0.771437   -0.070944
     12          6                    1.250538   -0.773769   -0.085315
     13          1                    2.047233    1.151211    0.583547
     14          1                    1.489704    1.137694   -1.073203
     15          1                    1.465798   -1.120429   -1.099728
     16          1                    2.050125   -1.173373    0.548067
 ---------------------------------------------------------------------
   CHANGE IN THE REACTION COORDINATE =    0.23885
   NET REACTION COORDINATE UP TO THIS POINT =   10.88630
  # OF POINTS ALONG THE PATH =  41
  # OF STEPS =   1

 Calculating another point on the path.
 Point Number 42 in FORWARD path direction.
 Using LQA Reaction Path Following.
   LQA: T_Est iteration completed in    4 iterations.
 IRC-IRC-IRC-IRC-IRC-IRC-IRC-IRC-IRC-IRC-IRC-IRC-IRC-IRC-IRC-IRC-IRC-IRC
 Leave Link  123 at Sun Apr 28 19:44:58 2024, MaxMem=   104857600 cpu:               0.1 elap:               1.2
 (Enter /mlatom/software/Gaussian/g16-avx2/l202.exe)
                          Input orientation:                          
 ---------------------------------------------------------------------
 Center     Atomic      Atomic             Coordinates (Angstroms)
 Number     Number       Type             X           Y           Z
 ---------------------------------------------------------------------
      1          6           0       -0.095869    1.392254    0.342357
      2          6           0       -1.252587    0.671341   -0.294789
      3          1           0       -0.189129    1.327089    1.432289
      4          1           0       -0.105745    2.462025    0.100138
      5          1           0       -2.067986    1.248280   -0.711697
      6          6           0       -1.257076   -0.671587   -0.291674
      7          6           0       -0.097200   -1.396327    0.336173
      8          1           0       -2.087126   -1.240783   -0.696734
      9          1           0       -0.110416   -2.465612    0.087651
     10          1           0       -0.193252   -1.342875    1.436306
     11          6           0        1.254868    0.774550   -0.076333
     12          6           0        1.254388   -0.770104   -0.068746
     13          1           0        2.030162    1.180461    0.572026
     14          1           0        1.502156    1.115042   -1.094654
     15          1           0        1.470085   -1.126791   -1.069983
     16          1           0        2.054930   -1.158343    0.575846
 ---------------------------------------------------------------------
                    Distance matrix (angstroms):
                    1          2          3          4          5
     1  C    0.000000
     2  C    1.504549   0.000000
     3  H    1.095854   2.131607   0.000000
     4  H    1.096895   2.162814   1.752044   0.000000
     5  H    2.240760   1.082380   2.851840   2.445944   0.000000
     6  C    2.451496   1.342939   2.847326   3.361339   2.126002
     7  C    2.788588   2.451180   2.937162   3.865574   3.460633
     8  H    3.460882   2.124673   3.837852   4.274537   2.489182
     9  H    3.866292   3.360251   4.024777   4.927655   4.273644
    10  H    2.947394   2.859361   2.669970   4.033641   3.852613
    11  C    1.543162   2.519068   2.160177   2.174852   3.416060
    12  C    2.582245   2.900652   2.955514   3.510718   3.940232
    13  H    2.148862   3.433221   2.384702   2.535188   4.295039
    14  H    2.166917   2.902630   3.048089   2.413967   3.593094
    15  H    3.285195   3.353677   3.877613   4.090480   4.276363
    16  H    3.344547   3.878842   3.456395   4.242862   4.944496
                    6          7          8          9         10
     6  C    0.000000
     7  C    1.504909   0.000000
     8  H    1.084916   2.247420   0.000000
     9  H    2.162693   1.097865   2.454149   0.000000
    10  H    2.137349   1.105610   2.854302   1.756779   0.000000
    11  C    2.906466   2.590552   3.951631   3.519878   2.978022
    12  C    2.523262   1.543667   3.432437   2.182177   2.165389
    13  H    3.870657   3.349796   4.942088   4.255648   3.472431
    14  H    3.383811   3.303360   4.311752   4.101136   3.914272
    15  H    2.872348   2.122807   3.578556   2.372876   3.015770
    16  H    3.458164   2.178473   4.333922   2.576045   2.414284
                   11         12         13         14         15
    11  C    0.000000
    12  C    1.544672   0.000000
    13  H    1.089134   2.194793   0.000000
    14  H    1.101846   2.160475   1.749540   0.000000
    15  H    2.156098   1.084540   2.886744   2.242198   0.000000
    16  H    2.191235   1.098679   2.338939   2.874789   1.746938
                   16
    16  H    0.000000
 Symmetry turned off by external request.
 Stoichiometry    C6H10
 Framework group  C1[X(C6H10)]
 Deg. of freedom    42
 Full point group                 C1      NOp   1
 Rotational constants (GHZ):           4.6570211           4.5688900           2.6034085
 Leave Link  202 at Sun Apr 28 19:45:02 2024, MaxMem=   104857600 cpu:               0.0 elap:               0.5
 (Enter /mlatom/software/Gaussian/g16-avx2/l301.exe)
 Standard basis: STO-3G (5D, 7F)
 Ernie: Thresh=  0.10000D-02 Tol=  0.10000D-05 Strict=F.
    40 basis functions,   120 primitive gaussians,    40 cartesian basis functions
    23 alpha electrons       23 beta electrons
       nuclear repulsion energy       236.6381658061 Hartrees.
 IExCor=    0 DFT=F Ex=HF Corr=None ExCW=0 ScaHFX=  1.000000
 ScaDFX=  1.000000  1.000000  1.000000  1.000000 ScalE2=  1.000000  1.000000
 IRadAn=      5 IRanWt=     -1 IRanGd=            0 ICorTp=0 IEmpDi=  4
 NAtoms=   16 NActive=   16 NUniq=   16 SFac= 1.00D+00 NAtFMM=   60 NAOKFM=F Big=F
 Integral buffers will be    131072 words long.
 Raffenetti 1 integral format.
 Two-electron integral symmetry is turned off.
 Leave Link  301 at Sun Apr 28 19:45:04 2024, MaxMem=   104857600 cpu:               0.0 elap:               0.4
 (Enter /mlatom/software/Gaussian/g16-avx2/l402.exe)
 External calculation of energy and first derivatives.
 Running external command "/mlatom/software/miniconda3/bin/python /mlatom/software/mlatom/mlatom/interfaces/gaussian_interface.py model_predict_kwargs R"
         input file       "/mlatom/home/qhzhang/git/ts-analysis/calculations/_other/irc/da/ani/irc_1/Gau-43310.EIn"
         output file      "/mlatom/home/qhzhang/git/ts-analysis/calculations/_other/irc/da/ani/irc_1/Gau-43310.EOu"
         message file     "/mlatom/home/qhzhang/git/ts-analysis/calculations/_other/irc/da/ani/irc_1/Gau-43310.EMs"
         fchk file        "/mlatom/home/qhzhang/git/ts-analysis/calculations/_other/irc/da/ani/irc_1/Gau-43310.EFC"
         mat. el file     "/mlatom/home/qhzhang/git/ts-analysis/calculations/_other/irc/da/ani/irc_1/Gau-43310.EUF"
model loaded from /mlatom/home/qhzhang/git/ts-analysis/calculations/_other/irc/da/ani/irc/da_energy_iteration27.npz
 Recovered energy= -234.657353216     dipole=      0.000000000000      0.000000000000      0.000000000000
 Energy=    -234.657353     NIter=   0.
 Dipole moment=       0.000000       0.000000       0.000000
 Leave Link  402 at Sun Apr 28 19:45:09 2024, MaxMem=   104857600 cpu:               0.0 elap:               4.8
 (Enter /mlatom/software/Gaussian/g16-avx2/l716.exe)
 Dipole        = 0.00000000D+00 0.00000000D+00 0.00000000D+00
 -------------------------------------------------------------------
 Center     Atomic                   Forces (Hartrees/Bohr)
 Number     Number              X              Y              Z
 -------------------------------------------------------------------
      1        6           0.000447768    0.001177139   -0.005270966
      2        6           0.001087268   -0.000891213    0.000949688
      3        1          -0.000133237   -0.000345698    0.002546256
      4        1          -0.000486304   -0.000374554    0.000620112
      5        1          -0.001603736    0.000539414   -0.000558821
      6        6           0.000491724    0.000720564   -0.000313768
      7        6          -0.000895323   -0.000146365    0.004366905
      8        1           0.000519419   -0.000306241    0.000032056
      9        1           0.000347576    0.000850589    0.000411948
     10        1          -0.000306266   -0.000126666   -0.002306685
     11        6          -0.001399300   -0.000301802   -0.005222329
     12        6          -0.000110936    0.000160229    0.004095166
     13        1           0.003849250   -0.000012184    0.001921445
     14        1          -0.002353454   -0.000135652    0.004774239
     15        1           0.002667765   -0.000983483   -0.004913712
     16        1          -0.002122215    0.000175923   -0.001131533
 -------------------------------------------------------------------
 Cartesian Forces:  Max     0.005270966 RMS     0.002048372
 Z-matrix is all fixed cartesians, so copy forces.
 Leave Link  716 at Sun Apr 28 19:45:10 2024, MaxMem=   104857600 cpu:               0.0 elap:               0.4
 (Enter /mlatom/software/Gaussian/g16-avx2/l123.exe)
 IRC-IRC-IRC-IRC-IRC-IRC-IRC-IRC-IRC-IRC-IRC-IRC-IRC-IRC-IRC-IRC-IRC-IRC
 Pt 42 Step number   1 out of a maximum of  20
 Point Number:  42          Path Number:   1
                    CURRENT STRUCTURE
                Cartesian Coordinates (Ang):                
 ---------------------------------------------------------------------
 Center     Atomic                     Coordinates (Angstroms)
 Number     Number                        X           Y           Z
 ---------------------------------------------------------------------
      1          6                   -0.095869    1.392254    0.342357
      2          6                   -1.252587    0.671341   -0.294789
      3          1                   -0.189129    1.327089    1.432289
      4          1                   -0.105745    2.462025    0.100138
      5          1                   -2.067986    1.248280   -0.711697
      6          6                   -1.257076   -0.671587   -0.291674
      7          6                   -0.097200   -1.396327    0.336173
      8          1                   -2.087126   -1.240783   -0.696734
      9          1                   -0.110416   -2.465612    0.087651
     10          1                   -0.193252   -1.342875    1.436306
     11          6                    1.254868    0.774550   -0.076333
     12          6                    1.254388   -0.770104   -0.068746
     13          1                    2.030162    1.180461    0.572026
     14          1                    1.502156    1.115042   -1.094654
     15          1                    1.470085   -1.126791   -1.069983
     16          1                    2.054930   -1.158343    0.575846
 ---------------------------------------------------------------------
   CHANGE IN THE REACTION COORDINATE =    0.27625
   NET REACTION COORDINATE UP TO THIS POINT =   11.16254
  # OF POINTS ALONG THE PATH =  42
  # OF STEPS =   1

 Calculating another point on the path.
 Point Number 43 in FORWARD path direction.
 Using LQA Reaction Path Following.
   LQA: T_Est iteration completed in    5 iterations.
 IRC-IRC-IRC-IRC-IRC-IRC-IRC-IRC-IRC-IRC-IRC-IRC-IRC-IRC-IRC-IRC-IRC-IRC
 Leave Link  123 at Sun Apr 28 19:45:11 2024, MaxMem=   104857600 cpu:               0.1 elap:               1.2
 (Enter /mlatom/software/Gaussian/g16-avx2/l202.exe)
                          Input orientation:                          
 ---------------------------------------------------------------------
 Center     Atomic      Atomic             Coordinates (Angstroms)
 Number     Number       Type             X           Y           Z
 ---------------------------------------------------------------------
      1          6           0       -0.093047    1.397486    0.336067
      2          6           0       -1.255521    0.672395   -0.289853
      3          1           0       -0.196471    1.351853    1.436103
      4          1           0       -0.117430    2.466659    0.090545
      5          1           0       -2.085346    1.249853   -0.695701
      6          6           0       -1.253266   -0.669299   -0.290475
      7          6           0       -0.098752   -1.401692    0.331837
      8          1           0       -2.095419   -1.239369   -0.679843
      9          1           0       -0.107298   -2.464358    0.049087
     10          1           0       -0.197368   -1.377523    1.430881
     11          6           0        1.253134    0.773903   -0.077491
     12          6           0        1.255259   -0.772431   -0.064801
     13          1           0        2.061068    1.177227    0.559560
     14          1           0        1.468245    1.115712   -1.080191
     15          1           0        1.536774   -1.139900   -1.070079
     16          1           0        2.021639   -1.144458    0.611125
 ---------------------------------------------------------------------
                    Distance matrix (angstroms):
                    1          2          3          4          5
     1  C    0.000000
     2  C    1.506279   0.000000
     3  H    1.105829   2.135925   0.000000
     4  H    1.097272   2.158549   1.749161   0.000000
     5  H    2.248465   1.089395   2.850060   2.443664   0.000000
     6  C    2.451583   1.341696   2.860584   3.357012   2.130659
     7  C    2.799187   2.454883   2.968327   3.875914   3.468873
     8  H    3.463318   2.124232   3.846773   4.270899   2.489293
     9  H    3.872518   3.357456   4.061433   4.931201   4.273493
    10  H    2.984991   2.877981   2.729381   4.071931   3.871681
    11  C    1.540160   2.519673   2.174017   2.184515   3.428435
    12  C    2.585955   2.905544   2.978728   3.521379   3.955668
    13  H    2.176850   3.460653   2.428025   2.574580   4.332864
    14  H    2.126691   2.870551   3.026347   2.389570   3.576847
    15  H    3.327446   3.419076   3.936232   4.134091   4.355552
    16  H    3.317987   3.853893   3.439793   4.229277   4.930299
                    6          7          8          9         10
     6  C    0.000000
     7  C    1.502190   0.000000
     8  H    1.088949   2.244220   0.000000
     9  H    2.156567   1.099672   2.446336   0.000000
    10  H    2.139992   1.103724   2.841978   1.760306   0.000000
    11  C    2.900040   2.593908   3.953340   3.514702   3.001295
    12  C    2.520766   1.544874   3.438510   2.175350   2.171019
    13  H    3.888062   3.371573   4.965122   4.268903   3.519443
    14  H    3.349109   3.284299   4.290266   4.071179   3.911006
    15  H    2.934889   2.169988   3.654450   2.389496   3.052624
    16  H    3.429819   2.154119   4.315759   2.567177   2.377038
                   11         12         13         14         15
    11  C    0.000000
    12  C    1.546387   0.000000
    13  H    1.105107   2.200073   0.000000
    14  H    1.080978   2.154406   1.744708   0.000000
    15  H    2.174471   1.106738   2.880917   2.256676   0.000000
    16  H    2.178279   1.087483   2.322592   2.876658   1.749732
                   16
    16  H    0.000000
 Symmetry turned off by external request.
 Stoichiometry    C6H10
 Framework group  C1[X(C6H10)]
 Deg. of freedom    42
 Full point group                 C1      NOp   1
 Rotational constants (GHZ):           4.6409702           4.5715076           2.5944094
 Leave Link  202 at Sun Apr 28 19:45:15 2024, MaxMem=   104857600 cpu:               0.0 elap:               0.7
 (Enter /mlatom/software/Gaussian/g16-avx2/l301.exe)
 Standard basis: STO-3G (5D, 7F)
 Ernie: Thresh=  0.10000D-02 Tol=  0.10000D-05 Strict=F.
    40 basis functions,   120 primitive gaussians,    40 cartesian basis functions
    23 alpha electrons       23 beta electrons
       nuclear repulsion energy       236.4021978680 Hartrees.
 IExCor=    0 DFT=F Ex=HF Corr=None ExCW=0 ScaHFX=  1.000000
 ScaDFX=  1.000000  1.000000  1.000000  1.000000 ScalE2=  1.000000  1.000000
 IRadAn=      5 IRanWt=     -1 IRanGd=            0 ICorTp=0 IEmpDi=  4
 NAtoms=   16 NActive=   16 NUniq=   16 SFac= 1.00D+00 NAtFMM=   60 NAOKFM=F Big=F
 Integral buffers will be    131072 words long.
 Raffenetti 1 integral format.
 Two-electron integral symmetry is turned off.
 Leave Link  301 at Sun Apr 28 19:45:17 2024, MaxMem=   104857600 cpu:               0.1 elap:               0.6
 (Enter /mlatom/software/Gaussian/g16-avx2/l402.exe)
 External calculation of energy and first derivatives.
 Running external command "/mlatom/software/miniconda3/bin/python /mlatom/software/mlatom/mlatom/interfaces/gaussian_interface.py model_predict_kwargs R"
         input file       "/mlatom/home/qhzhang/git/ts-analysis/calculations/_other/irc/da/ani/irc_1/Gau-43310.EIn"
         output file      "/mlatom/home/qhzhang/git/ts-analysis/calculations/_other/irc/da/ani/irc_1/Gau-43310.EOu"
         message file     "/mlatom/home/qhzhang/git/ts-analysis/calculations/_other/irc/da/ani/irc_1/Gau-43310.EMs"
         fchk file        "/mlatom/home/qhzhang/git/ts-analysis/calculations/_other/irc/da/ani/irc_1/Gau-43310.EFC"
         mat. el file     "/mlatom/home/qhzhang/git/ts-analysis/calculations/_other/irc/da/ani/irc_1/Gau-43310.EUF"
model loaded from /mlatom/home/qhzhang/git/ts-analysis/calculations/_other/irc/da/ani/irc/da_energy_iteration27.npz
 Recovered energy= -234.657117972     dipole=      0.000000000000      0.000000000000      0.000000000000
 Energy=    -234.657118     NIter=   0.
 Dipole moment=       0.000000       0.000000       0.000000
 Leave Link  402 at Sun Apr 28 19:45:23 2024, MaxMem=   104857600 cpu:               0.1 elap:               6.4
 (Enter /mlatom/software/Gaussian/g16-avx2/l716.exe)
 Dipole        = 0.00000000D+00 0.00000000D+00 0.00000000D+00
 -------------------------------------------------------------------
 Center     Atomic                   Forces (Hartrees/Bohr)
 Number     Number              X              Y              Z
 -------------------------------------------------------------------
      1        6          -0.003004628    0.001355776    0.003440236
      2        6          -0.000360932    0.002062380   -0.000433659
      3        1           0.000972914   -0.001138226   -0.002624862
      4        1           0.001156930   -0.000478616   -0.000340074
      5        1           0.002436366   -0.001997436    0.001236039
      6        6          -0.004575804   -0.001043229   -0.000156120
      7        6           0.001104617   -0.002353947   -0.002522754
      8        1           0.002463927    0.000953959    0.000239181
      9        1          -0.000306771    0.001606327    0.001764342
     10        1           0.000085176    0.000866249   -0.002081552
     11        6           0.001727016    0.000111098    0.008463553
     12        6           0.000180750    0.000062576   -0.005888040
     13        1          -0.004471964   -0.002314285   -0.003029023
     14        1           0.001779700    0.001879360   -0.007169228
     15        1          -0.003010096    0.002379924    0.006595553
     16        1           0.003822803   -0.001951911    0.002506410
 -------------------------------------------------------------------
 Cartesian Forces:  Max     0.008463553 RMS     0.002841377
 Z-matrix is all fixed cartesians, so copy forces.
 Leave Link  716 at Sun Apr 28 19:45:24 2024, MaxMem=   104857600 cpu:               0.0 elap:               0.4
 (Enter /mlatom/software/Gaussian/g16-avx2/l123.exe)
 IRC-IRC-IRC-IRC-IRC-IRC-IRC-IRC-IRC-IRC-IRC-IRC-IRC-IRC-IRC-IRC-IRC-IRC
 Pt 43 Step number   1 out of a maximum of  20
 Point Number:  43          Path Number:   1
                    CURRENT STRUCTURE
                Cartesian Coordinates (Ang):                
 ---------------------------------------------------------------------
 Center     Atomic                     Coordinates (Angstroms)
 Number     Number                        X           Y           Z
 ---------------------------------------------------------------------
      1          6                   -0.093047    1.397486    0.336067
      2          6                   -1.255521    0.672395   -0.289853
      3          1                   -0.196471    1.351853    1.436103
      4          1                   -0.117430    2.466659    0.090545
      5          1                   -2.085346    1.249853   -0.695701
      6          6                   -1.253266   -0.669299   -0.290475
      7          6                   -0.098752   -1.401692    0.331837
      8          1                   -2.095419   -1.239369   -0.679843
      9          1                   -0.107298   -2.464358    0.049087
     10          1                   -0.197368   -1.377523    1.430881
     11          6                    1.253134    0.773903   -0.077491
     12          6                    1.255259   -0.772431   -0.064801
     13          1                    2.061068    1.177227    0.559560
     14          1                    1.468245    1.115712   -1.080191
     15          1                    1.536774   -1.139900   -1.070079
     16          1                    2.021639   -1.144458    0.611125
 ---------------------------------------------------------------------
   CHANGE IN THE REACTION COORDINATE =    0.24516
   NET REACTION COORDINATE UP TO THIS POINT =   11.40770
  # OF POINTS ALONG THE PATH =  43
  # OF STEPS =   1

 Calculating another point on the path.
 Point Number 44 in FORWARD path direction.
 Using LQA Reaction Path Following.
   LQA: T_Est iteration completed in    4 iterations.
 IRC-IRC-IRC-IRC-IRC-IRC-IRC-IRC-IRC-IRC-IRC-IRC-IRC-IRC-IRC-IRC-IRC-IRC
 Leave Link  123 at Sun Apr 28 19:45:26 2024, MaxMem=   104857600 cpu:               0.2 elap:               1.3
 (Enter /mlatom/software/Gaussian/g16-avx2/l202.exe)
                          Input orientation:                          
 ---------------------------------------------------------------------
 Center     Atomic      Atomic             Coordinates (Angstroms)
 Number     Number       Type             X           Y           Z
 ---------------------------------------------------------------------
      1          6           0       -0.096408    1.393600    0.342282
      2          6           0       -1.254873    0.672359   -0.292371
      3          1           0       -0.189886    1.325326    1.436283
      4          1           0       -0.107750    2.463925    0.106392
      5          1           0       -2.075112    1.247440   -0.708001
      6          6           0       -1.256514   -0.670506   -0.293946
      7          6           0       -0.097396   -1.393870    0.336275
      8          1           0       -2.081451   -1.241688   -0.704280
      9          1           0       -0.111011   -2.462719    0.097524
     10          1           0       -0.193223   -1.331570    1.431271
     11          6           0        1.252323    0.771732   -0.078013
     12          6           0        1.258682   -0.773313   -0.069020
     13          1           0        2.044648    1.170463    0.565936
     14          1           0        1.479007    1.119295   -1.087751
     15          1           0        1.503071   -1.135355   -1.073598
     16          1           0        2.043834   -1.155153    0.588615
 ---------------------------------------------------------------------
                    Distance matrix (angstroms):
                    1          2          3          4          5
     1  C    0.000000
     2  C    1.504996   0.000000
     3  H    1.100108   2.132794   0.000000
     4  H    1.096070   2.164397   1.752645   0.000000
     5  H    2.244934   1.084555   2.856239   2.452261   0.000000
     6  C    2.451768   1.342867   2.848637   3.362230   2.126044
     7  C    2.787476   2.450357   2.934723   3.864652   3.460981
     8  H    3.461276   2.125200   3.840520   4.276009   2.489139
     9  H    3.864106   3.359934   4.018431   4.926654   4.274558
    10  H    2.936294   2.848469   2.656903   4.020995   3.843083
    11  C    1.543516   2.518304   2.163221   2.178834   3.419796
    12  C    2.588619   2.908232   2.961178   3.518184   3.950433
    13  H    2.164239   3.445524   2.403046   2.552850   4.312918
    14  H    2.145266   2.882096   3.032886   2.398292   3.576645
    15  H    3.310386   3.388863   3.901353   4.116058   4.314483
    16  H    3.337282   3.872648   3.443954   4.237874   4.941597
                    6          7          8          9         10
     6  C    0.000000
     7  C    1.504656   0.000000
     8  H    1.084041   2.245526   0.000000
     9  H    2.162742   1.095275   2.452843   0.000000
    10  H    2.131658   1.100946   2.852028   1.750754   0.000000
    11  C    2.901886   2.585190   3.944632   3.514423   2.965034
    12  C    2.527325   1.545413   3.432115   2.181259   2.161146
    13  H    3.876369   3.349164   4.945363   4.250446   3.466561
    14  H    3.364013   3.290728   4.289306   4.094369   3.892116
    15  H    2.905038   2.148503   3.605065   2.395555   3.031548
    16  H    3.450520   2.169222   4.324007   2.567928   2.397002
                   11         12         13         14         15
    11  C    0.000000
    12  C    1.545085   0.000000
    13  H    1.096100   2.190703   0.000000
    14  H    1.091676   2.160630   1.748499   0.000000
    15  H    2.165882   1.095434   2.880655   2.254822   0.000000
    16  H    2.187183   1.093045   2.325727   2.881379   1.748075
                   16
    16  H    0.000000
 Symmetry turned off by external request.
 Stoichiometry    C6H10
 Framework group  C1[X(C6H10)]
 Deg. of freedom    42
 Full point group                 C1      NOp   1
 Rotational constants (GHZ):           4.6589733           4.5627219           2.6023397
 Leave Link  202 at Sun Apr 28 19:45:30 2024, MaxMem=   104857600 cpu:               0.0 elap:               0.5
 (Enter /mlatom/software/Gaussian/g16-avx2/l301.exe)
 Standard basis: STO-3G (5D, 7F)
 Ernie: Thresh=  0.10000D-02 Tol=  0.10000D-05 Strict=F.
    40 basis functions,   120 primitive gaussians,    40 cartesian basis functions
    23 alpha electrons       23 beta electrons
       nuclear repulsion energy       236.5906809290 Hartrees.
 IExCor=    0 DFT=F Ex=HF Corr=None ExCW=0 ScaHFX=  1.000000
 ScaDFX=  1.000000  1.000000  1.000000  1.000000 ScalE2=  1.000000  1.000000
 IRadAn=      5 IRanWt=     -1 IRanGd=            0 ICorTp=0 IEmpDi=  4
 NAtoms=   16 NActive=   16 NUniq=   16 SFac= 1.00D+00 NAtFMM=   60 NAOKFM=F Big=F
 Integral buffers will be    131072 words long.
 Raffenetti 1 integral format.
 Two-electron integral symmetry is turned off.
 Leave Link  301 at Sun Apr 28 19:45:31 2024, MaxMem=   104857600 cpu:               0.1 elap:               0.4
 (Enter /mlatom/software/Gaussian/g16-avx2/l402.exe)
 External calculation of energy and first derivatives.
 Running external command "/mlatom/software/miniconda3/bin/python /mlatom/software/mlatom/mlatom/interfaces/gaussian_interface.py model_predict_kwargs R"
         input file       "/mlatom/home/qhzhang/git/ts-analysis/calculations/_other/irc/da/ani/irc_1/Gau-43310.EIn"
         output file      "/mlatom/home/qhzhang/git/ts-analysis/calculations/_other/irc/da/ani/irc_1/Gau-43310.EOu"
         message file     "/mlatom/home/qhzhang/git/ts-analysis/calculations/_other/irc/da/ani/irc_1/Gau-43310.EMs"
         fchk file        "/mlatom/home/qhzhang/git/ts-analysis/calculations/_other/irc/da/ani/irc_1/Gau-43310.EFC"
         mat. el file     "/mlatom/home/qhzhang/git/ts-analysis/calculations/_other/irc/da/ani/irc_1/Gau-43310.EUF"
model loaded from /mlatom/home/qhzhang/git/ts-analysis/calculations/_other/irc/da/ani/irc/da_energy_iteration27.npz
 Recovered energy= -234.657631823     dipole=      0.000000000000      0.000000000000      0.000000000000
 Energy=    -234.657632     NIter=   0.
 Dipole moment=       0.000000       0.000000       0.000000
 Leave Link  402 at Sun Apr 28 19:45:37 2024, MaxMem=   104857600 cpu:               0.1 elap:               5.5
 (Enter /mlatom/software/Gaussian/g16-avx2/l716.exe)
 Dipole        = 0.00000000D+00 0.00000000D+00 0.00000000D+00
 -------------------------------------------------------------------
 Center     Atomic                   Forces (Hartrees/Bohr)
 Number     Number              X              Y              Z
 -------------------------------------------------------------------
      1        6          -0.000299212   -0.000693277   -0.000626157
      2        6           0.000133652    0.000127169   -0.000232081
      3        1           0.000005477   -0.000077436    0.000474086
      4        1          -0.000087826   -0.000018043    0.000112895
      5        1          -0.000177965    0.000002668    0.000141560
      6        6           0.001022591    0.000831453   -0.000181171
      7        6           0.000457455    0.000238186    0.001021406
      8        1          -0.000195998   -0.000394820   -0.000140196
      9        1           0.000056524   -0.000524881   -0.000115314
     10        1          -0.000319675    0.000042820    0.000175270
     11        6           0.000576549    0.000116703    0.001073606
     12        6          -0.001752191    0.000250425   -0.002322944
     13        1          -0.000003593   -0.000344062   -0.000506091
     14        1           0.000083212    0.000440468   -0.000819183
     15        1          -0.000059947    0.000702126    0.001114125
     16        1           0.000560952   -0.000699498    0.000830190
 -------------------------------------------------------------------
 Cartesian Forces:  Max     0.002322944 RMS     0.000638657
 Z-matrix is all fixed cartesians, so copy forces.
 Leave Link  716 at Sun Apr 28 19:45:38 2024, MaxMem=   104857600 cpu:               0.0 elap:               0.4
 (Enter /mlatom/software/Gaussian/g16-avx2/l123.exe)
 IRC-IRC-IRC-IRC-IRC-IRC-IRC-IRC-IRC-IRC-IRC-IRC-IRC-IRC-IRC-IRC-IRC-IRC
 Pt 44 Step number   1 out of a maximum of  20
 Point Number:  44          Path Number:   1
                    CURRENT STRUCTURE
                Cartesian Coordinates (Ang):                
 ---------------------------------------------------------------------
 Center     Atomic                     Coordinates (Angstroms)
 Number     Number                        X           Y           Z
 ---------------------------------------------------------------------
      1          6                   -0.096408    1.393600    0.342282
      2          6                   -1.254873    0.672359   -0.292371
      3          1                   -0.189886    1.325326    1.436283
      4          1                   -0.107750    2.463925    0.106392
      5          1                   -2.075112    1.247440   -0.708001
      6          6                   -1.256514   -0.670506   -0.293946
      7          6                   -0.097396   -1.393870    0.336275
      8          1                   -2.081451   -1.241688   -0.704280
      9          1                   -0.111011   -2.462719    0.097524
     10          1                   -0.193223   -1.331570    1.431271
     11          6                    1.252323    0.771732   -0.078013
     12          6                    1.258682   -0.773313   -0.069020
     13          1                    2.044648    1.170463    0.565936
     14          1                    1.479007    1.119295   -1.087751
     15          1                    1.503071   -1.135355   -1.073598
     16          1                    2.043834   -1.155153    0.588615
 ---------------------------------------------------------------------
   CHANGE IN THE REACTION COORDINATE =    0.20807
   NET REACTION COORDINATE UP TO THIS POINT =   11.61576
  # OF POINTS ALONG THE PATH =  44
  # OF STEPS =   1

 PES minimum detected on this side of the pathway.
    Step angle =   28.297
 Calculation of FORWARD path complete.
 Beginning calculation of the REVERSE path.
 
 Calculating another point on the path.
 Point Number  1 in REVERSE path direction.
 Using LQA Reaction Path Following.
 IRC-IRC-IRC-IRC-IRC-IRC-IRC-IRC-IRC-IRC-IRC-IRC-IRC-IRC-IRC-IRC-IRC-IRC
 Leave Link  123 at Sun Apr 28 19:45:40 2024, MaxMem=   104857600 cpu:               0.0 elap:               1.1
 (Enter /mlatom/software/Gaussian/g16-avx2/l202.exe)
                          Input orientation:                          
 ---------------------------------------------------------------------
 Center     Atomic      Atomic             Coordinates (Angstroms)
 Number     Number       Type             X           Y           Z
 ---------------------------------------------------------------------
      1          6           0       -0.439728    1.427783    0.507484
      2          6           0       -1.292304    0.705324   -0.291120
      3          1           0       -0.082623    1.025074    1.447222
      4          1           0       -0.361385    2.505899    0.418528
      5          1           0       -1.836486    1.219017   -1.078955
      6          6           0       -1.292504   -0.705039   -0.291073
      7          6           0       -0.440092   -1.427677    0.507542
      8          1           0       -1.836844   -1.218628   -1.078866
      9          1           0       -0.362035   -2.505819    0.418631
     10          1           0       -0.082856   -1.025032    1.447258
     11          6           0        1.623491    0.687253   -0.233935
     12          6           0        1.623250   -0.687618   -0.234094
     13          1           0        2.096530    1.235301    0.573014
     14          1           0        1.482220    1.244015   -1.150080
     15          1           0        1.481623   -1.244100   -1.150349
     16          1           0        2.096182   -1.236035    0.572667
 ---------------------------------------------------------------------
                    Distance matrix (angstroms):
                    1          2          3          4          5
     1  C    0.000000
     2  C    1.373536   0.000000
     3  H    1.082962   2.141822   0.000000
     4  H    1.084612   2.147622   1.824490   0.000000
     5  H    2.123984   1.086599   3.081432   2.464639   0.000000
     6  C    2.431840   1.410363   2.734734   3.417694   2.149108
     7  C    2.855460   2.431835   2.650805   3.935370   3.387017
     8  H    3.387024   2.149106   3.806916   4.276829   2.437645
     9  H    3.935372   3.417687   3.688262   5.011718   4.276818
    10  H    2.650818   2.734750   2.050105   3.688270   3.806932
    11  C    2.314079   2.916412   2.418933   2.770003   3.601149
    12  C    3.046431   3.231717   2.944510   3.816182   4.039656
    13  H    2.544396   3.537203   2.357359   2.771215   4.265898
    14  H    2.544636   2.953977   3.040172   2.729791   3.319561
    15  H    3.684964   3.497599   3.787267   4.463244   4.133024
    16  H    3.678452   3.999605   3.259547   4.479449   4.921484
                    6          7          8          9         10
     6  C    0.000000
     7  C    1.373535   0.000000
     8  H    1.086599   2.123984   0.000000
     9  H    2.147618   1.084614   2.464634   0.000000
    10  H    2.141831   1.082962   3.081438   1.824485   0.000000
    11  C    3.231837   3.046489   4.039828   3.816264   2.944479
    12  C    2.916363   2.314107   3.601092   2.770065   2.419006
    13  H    3.999639   3.678341   4.921576   4.479325   3.259314
    14  H    3.497970   3.685232   4.133505   4.463562   3.787374
    15  H    2.953764   2.544660   3.319335   2.729965   3.040255
    16  H    3.537117   2.544337   4.265743   2.771085   2.357464
                   11         12         13         14         15
    11  C    0.000000
    12  C    1.374872   0.000000
    13  H    1.084108   2.138466   0.000000
    14  H    1.081324   2.142458   1.829346   0.000000
    15  H    2.142444   1.081320   3.081480   2.488115   0.000000
    16  H    2.138476   1.084107   2.471335   3.081469   1.829353
                   16
    16  H    0.000000
 Symmetry turned off by external request.
 Stoichiometry    C6H10
 Framework group  C1[X(C6H10)]
 Deg. of freedom    42
 Full point group                 C1      NOp   1
 Rotational constants (GHZ):           4.3619762           3.4119414           2.2502306
 Leave Link  202 at Sun Apr 28 19:45:44 2024, MaxMem=   104857600 cpu:               0.0 elap:               0.5
 (Enter /mlatom/software/Gaussian/g16-avx2/l301.exe)
 Standard basis: STO-3G (5D, 7F)
 Ernie: Thresh=  0.10000D-02 Tol=  0.10000D-05 Strict=F.
    40 basis functions,   120 primitive gaussians,    40 cartesian basis functions
    23 alpha electrons       23 beta electrons
       nuclear repulsion energy       224.0624712543 Hartrees.
 IExCor=    0 DFT=F Ex=HF Corr=None ExCW=0 ScaHFX=  1.000000
 ScaDFX=  1.000000  1.000000  1.000000  1.000000 ScalE2=  1.000000  1.000000
 IRadAn=      5 IRanWt=     -1 IRanGd=            0 ICorTp=0 IEmpDi=  4
 NAtoms=   16 NActive=   16 NUniq=   16 SFac= 1.00D+00 NAtFMM=   60 NAOKFM=F Big=F
 Integral buffers will be    131072 words long.
 Raffenetti 1 integral format.
 Two-electron integral symmetry is turned off.
 Leave Link  301 at Sun Apr 28 19:45:44 2024, MaxMem=   104857600 cpu:               0.0 elap:               0.4
 (Enter /mlatom/software/Gaussian/g16-avx2/l402.exe)
 External calculation of energy and first derivatives.
 Running external command "/mlatom/software/miniconda3/bin/python /mlatom/software/mlatom/mlatom/interfaces/gaussian_interface.py model_predict_kwargs R"
         input file       "/mlatom/home/qhzhang/git/ts-analysis/calculations/_other/irc/da/ani/irc_1/Gau-43310.EIn"
         output file      "/mlatom/home/qhzhang/git/ts-analysis/calculations/_other/irc/da/ani/irc_1/Gau-43310.EOu"
         message file     "/mlatom/home/qhzhang/git/ts-analysis/calculations/_other/irc/da/ani/irc_1/Gau-43310.EMs"
         fchk file        "/mlatom/home/qhzhang/git/ts-analysis/calculations/_other/irc/da/ani/irc_1/Gau-43310.EFC"
         mat. el file     "/mlatom/home/qhzhang/git/ts-analysis/calculations/_other/irc/da/ani/irc_1/Gau-43310.EUF"
model loaded from /mlatom/home/qhzhang/git/ts-analysis/calculations/_other/irc/da/ani/irc/da_energy_iteration27.npz
 Recovered energy= -234.566412242     dipole=      0.000000000000      0.000000000000      0.000000000000
 Energy=    -234.566412     NIter=   0.
 Dipole moment=       0.000000       0.000000       0.000000
 Leave Link  402 at Sun Apr 28 19:45:51 2024, MaxMem=   104857600 cpu:               0.1 elap:               5.9
 (Enter /mlatom/software/Gaussian/g16-avx2/l716.exe)
 Dipole        = 0.00000000D+00 0.00000000D+00 0.00000000D+00
 -------------------------------------------------------------------
 Center     Atomic                   Forces (Hartrees/Bohr)
 Number     Number              X              Y              Z
 -------------------------------------------------------------------
      1        6          -0.003291718    0.001188211    0.001455093
      2        6          -0.000162295    0.000655224    0.000090460
      3        1          -0.000018401    0.000118589   -0.000349657
      4        1          -0.000238247    0.000065137    0.000096572
      5        1           0.000030451   -0.000022866   -0.000059045
      6        6          -0.000159546   -0.000652096    0.000090088
      7        6          -0.003292604   -0.001189813    0.001455400
      8        1           0.000030567    0.000023039   -0.000058830
      9        1          -0.000237375   -0.000064404    0.000095808
     10        1          -0.000017203   -0.000117426   -0.000350311
     11        6           0.003844051   -0.000434397   -0.001310629
     12        6           0.003843890    0.000433522   -0.001310895
     13        1          -0.000086741    0.000014683    0.000040375
     14        1          -0.000080301    0.000043113    0.000037649
     15        1          -0.000076551   -0.000045726    0.000036393
     16        1          -0.000087977   -0.000014791    0.000041530
 -------------------------------------------------------------------
 Cartesian Forces:  Max     0.003844051 RMS     0.001150079
 Z-matrix is all fixed cartesians, so copy forces.
 Leave Link  716 at Sun Apr 28 19:45:52 2024, MaxMem=   104857600 cpu:               0.0 elap:               0.4
 (Enter /mlatom/software/Gaussian/g16-avx2/l123.exe)
 IRC-IRC-IRC-IRC-IRC-IRC-IRC-IRC-IRC-IRC-IRC-IRC-IRC-IRC-IRC-IRC-IRC-IRC
 Pt 45 Step number   1 out of a maximum of  20
 Point Number:   1          Path Number:   2
                    CURRENT STRUCTURE
                Cartesian Coordinates (Ang):                
 ---------------------------------------------------------------------
 Center     Atomic                     Coordinates (Angstroms)
 Number     Number                        X           Y           Z
 ---------------------------------------------------------------------
      1          6                   -0.439728    1.427783    0.507484
      2          6                   -1.292304    0.705324   -0.291120
      3          1                   -0.082623    1.025074    1.447222
      4          1                   -0.361385    2.505899    0.418528
      5          1                   -1.836486    1.219017   -1.078955
      6          6                   -1.292504   -0.705039   -0.291073
      7          6                   -0.440092   -1.427677    0.507542
      8          1                   -1.836844   -1.218628   -1.078866
      9          1                   -0.362035   -2.505819    0.418631
     10          1                   -0.082856   -1.025032    1.447258
     11          6                    1.623491    0.687253   -0.233935
     12          6                    1.623250   -0.687618   -0.234094
     13          1                    2.096530    1.235301    0.573014
     14          1                    1.482220    1.244015   -1.150080
     15          1                    1.481623   -1.244100   -1.150349
     16          1                    2.096182   -1.236035    0.572667
 ---------------------------------------------------------------------
   CHANGE IN THE REACTION COORDINATE =    0.29108
   NET REACTION COORDINATE UP TO THIS POINT =    0.29108
  # OF POINTS ALONG THE PATH =  45
  # OF STEPS =   1

 Calculating another point on the path.
 Point Number  2 in REVERSE path direction.
 Using LQA Reaction Path Following.
   LQA: T_Est iteration completed in    3 iterations.
 IRC-IRC-IRC-IRC-IRC-IRC-IRC-IRC-IRC-IRC-IRC-IRC-IRC-IRC-IRC-IRC-IRC-IRC
 Leave Link  123 at Sun Apr 28 19:45:53 2024, MaxMem=   104857600 cpu:               0.0 elap:               1.1
 (Enter /mlatom/software/Gaussian/g16-avx2/l202.exe)
                          Input orientation:                          
 ---------------------------------------------------------------------
 Center     Atomic      Atomic             Coordinates (Angstroms)
 Number     Number       Type             X           Y           Z
 ---------------------------------------------------------------------
      1          6           0       -0.458765    1.434522    0.513823
      2          6           0       -1.292867    0.708840   -0.290257
      3          1           0       -0.075878    1.024127    1.440249
      4          1           0       -0.375681    2.512193    0.423494
      5          1           0       -1.833307    1.218111   -1.083216
      6          6           0       -1.293061   -0.708548   -0.290212
      7          6           0       -0.459128   -1.434412    0.513878
      8          1           0       -1.833662   -1.217718   -1.083126
      9          1           0       -0.376322   -2.512107    0.423588
     10          1           0       -0.076089   -1.024077    1.440270
     11          6           0        1.644090    0.683474   -0.240982
     12          6           0        1.643855   -0.683850   -0.241137
     13          1           0        2.093230    1.236700    0.576804
     14          1           0        1.477892    1.247028   -1.149450
     15          1           0        1.477379   -1.247139   -1.149716
     16          1           0        2.092851   -1.237422    0.576498
 ---------------------------------------------------------------------
                    Distance matrix (angstroms):
                    1          2          3          4          5
     1  C    0.000000
     2  C    1.367072   0.000000
     3  H    1.083186   2.138952   0.000000
     4  H    1.084636   2.145403   1.827022   0.000000
     5  H    2.118191   1.086378   3.081243   2.463635   0.000000
     6  C    2.436241   1.417388   2.734628   3.424052   2.152379
     7  C    2.868934   2.436243   2.655081   3.948521   3.387470
     8  H    3.387471   2.152376   3.805665   4.278767   2.435828
     9  H    3.948521   3.424051   3.691723   5.024300   4.278760
    10  H    2.655081   2.734643   2.048204   3.691719   3.805680
    11  C    2.357075   2.937480   2.429171   2.804499   3.617662
    12  C    3.078713   3.250590   2.949869   3.838613   4.051815
    13  H    2.560425   3.534980   2.344303   2.783146   4.263063
    14  H    2.559741   2.950418   3.028272   2.740535   3.311988
    15  H    3.702340   3.498398   3.778779   4.476761   4.128259
    16  H    3.695126   4.000285   3.250239   4.491844   4.919248
                    6          7          8          9         10
     6  C    0.000000
     7  C    1.367071   0.000000
     8  H    1.086377   2.118188   0.000000
     9  H    2.145401   1.084637   2.463630   0.000000
    10  H    2.138959   1.083188   3.081247   1.827024   0.000000
    11  C    3.250693   3.078762   4.051974   3.838679   2.949806
    12  C    2.937429   2.357101   3.617607   2.804549   2.429216
    13  H    4.000334   3.695041   4.919351   4.491739   3.250020
    14  H    3.498678   3.702543   4.128651   4.477014   3.778813
    15  H    2.950282   2.559819   3.311841   2.740737   3.028374
    16  H    3.534868   2.560336   4.262891   2.782988   2.344338
                   11         12         13         14         15
    11  C    0.000000
    12  C    1.367324   0.000000
    13  H    1.084694   2.135294   0.000000
    14  H    1.081910   2.140296   1.832676   0.000000
    15  H    2.140293   1.081907   3.087004   2.494167   0.000000
    16  H    2.135298   1.084696   2.474121   3.086998   1.832679
                   16
    16  H    0.000000
 Symmetry turned off by external request.
 Stoichiometry    C6H10
 Framework group  C1[X(C6H10)]
 Deg. of freedom    42
 Full point group                 C1      NOp   1
 Rotational constants (GHZ):           4.3353672           3.3615860           2.2246941
 Leave Link  202 at Sun Apr 28 19:45:57 2024, MaxMem=   104857600 cpu:               0.0 elap:               0.5
 (Enter /mlatom/software/Gaussian/g16-avx2/l301.exe)
 Standard basis: STO-3G (5D, 7F)
 Ernie: Thresh=  0.10000D-02 Tol=  0.10000D-05 Strict=F.
    40 basis functions,   120 primitive gaussians,    40 cartesian basis functions
    23 alpha electrons       23 beta electrons
       nuclear repulsion energy       223.4389440744 Hartrees.
 IExCor=    0 DFT=F Ex=HF Corr=None ExCW=0 ScaHFX=  1.000000
 ScaDFX=  1.000000  1.000000  1.000000  1.000000 ScalE2=  1.000000  1.000000
 IRadAn=      5 IRanWt=     -1 IRanGd=            0 ICorTp=0 IEmpDi=  4
 NAtoms=   16 NActive=   16 NUniq=   16 SFac= 1.00D+00 NAtFMM=   60 NAOKFM=F Big=F
 Integral buffers will be    131072 words long.
 Raffenetti 1 integral format.
 Two-electron integral symmetry is turned off.
 Leave Link  301 at Sun Apr 28 19:45:57 2024, MaxMem=   104857600 cpu:               0.1 elap:               0.4
 (Enter /mlatom/software/Gaussian/g16-avx2/l402.exe)
 External calculation of energy and first derivatives.
 Running external command "/mlatom/software/miniconda3/bin/python /mlatom/software/mlatom/mlatom/interfaces/gaussian_interface.py model_predict_kwargs R"
         input file       "/mlatom/home/qhzhang/git/ts-analysis/calculations/_other/irc/da/ani/irc_1/Gau-43310.EIn"
         output file      "/mlatom/home/qhzhang/git/ts-analysis/calculations/_other/irc/da/ani/irc_1/Gau-43310.EOu"
         message file     "/mlatom/home/qhzhang/git/ts-analysis/calculations/_other/irc/da/ani/irc_1/Gau-43310.EMs"
         fchk file        "/mlatom/home/qhzhang/git/ts-analysis/calculations/_other/irc/da/ani/irc_1/Gau-43310.EFC"
         mat. el file     "/mlatom/home/qhzhang/git/ts-analysis/calculations/_other/irc/da/ani/irc_1/Gau-43310.EUF"
model loaded from /mlatom/home/qhzhang/git/ts-analysis/calculations/_other/irc/da/ani/irc/da_energy_iteration27.npz
 Recovered energy= -234.567419448     dipole=      0.000000000000      0.000000000000      0.000000000000
 Energy=    -234.567419     NIter=   0.
 Dipole moment=       0.000000       0.000000       0.000000
 Leave Link  402 at Sun Apr 28 19:46:03 2024, MaxMem=   104857600 cpu:               0.1 elap:               4.9
 (Enter /mlatom/software/Gaussian/g16-avx2/l716.exe)
 Dipole        = 0.00000000D+00 0.00000000D+00 0.00000000D+00
 -------------------------------------------------------------------
 Center     Atomic                   Forces (Hartrees/Bohr)
 Number     Number              X              Y              Z
 -------------------------------------------------------------------
      1        6          -0.006349622    0.002217659    0.002668788
      2        6          -0.000319777    0.001423874    0.000262953
      3        1          -0.000043500    0.000276949   -0.000583786
      4        1          -0.000521241    0.000188782    0.000142803
      5        1           0.000038575   -0.000059565   -0.000128871
      6        6          -0.000319252   -0.001422842    0.000262116
      7        6          -0.006348382   -0.002214936    0.002668525
      8        1           0.000038605    0.000059622   -0.000129202
      9        1          -0.000521205   -0.000188592    0.000142555
     10        1          -0.000043862   -0.000277242   -0.000584529
     11        6           0.007524157   -0.000981476   -0.002526233
     12        6           0.007526825    0.000978338   -0.002521231
     13        1          -0.000240447   -0.000157816   -0.000161626
     14        1          -0.000090210   -0.000107510    0.000325781
     15        1          -0.000089783    0.000105933    0.000324294
     16        1          -0.000240877    0.000158824   -0.000162340
 -------------------------------------------------------------------
 Cartesian Forces:  Max     0.007526825 RMS     0.002231466
 Z-matrix is all fixed cartesians, so copy forces.
 Leave Link  716 at Sun Apr 28 19:46:04 2024, MaxMem=   104857600 cpu:               0.0 elap:               0.4
 (Enter /mlatom/software/Gaussian/g16-avx2/l123.exe)
 IRC-IRC-IRC-IRC-IRC-IRC-IRC-IRC-IRC-IRC-IRC-IRC-IRC-IRC-IRC-IRC-IRC-IRC
 Pt 46 Step number   1 out of a maximum of  20
 Point Number:   2          Path Number:   2
                    CURRENT STRUCTURE
                Cartesian Coordinates (Ang):                
 ---------------------------------------------------------------------
 Center     Atomic                     Coordinates (Angstroms)
 Number     Number                        X           Y           Z
 ---------------------------------------------------------------------
      1          6                   -0.458765    1.434522    0.513823
      2          6                   -1.292867    0.708840   -0.290257
      3          1                   -0.075878    1.024127    1.440249
      4          1                   -0.375681    2.512193    0.423494
      5          1                   -1.833307    1.218111   -1.083216
      6          6                   -1.293061   -0.708548   -0.290212
      7          6                   -0.459128   -1.434412    0.513878
      8          1                   -1.833662   -1.217718   -1.083126
      9          1                   -0.376322   -2.512107    0.423588
     10          1                   -0.076089   -1.024077    1.440270
     11          6                    1.644090    0.683474   -0.240982
     12          6                    1.643855   -0.683850   -0.241137
     13          1                    2.093230    1.236700    0.576804
     14          1                    1.477892    1.247028   -1.149450
     15          1                    1.477379   -1.247139   -1.149716
     16          1                    2.092851   -1.237422    0.576498
 ---------------------------------------------------------------------
   CHANGE IN THE REACTION COORDINATE =    0.29088
   NET REACTION COORDINATE UP TO THIS POINT =    0.58196
  # OF POINTS ALONG THE PATH =  46
  # OF STEPS =   1

 Calculating another point on the path.
 Point Number  3 in REVERSE path direction.
 Using LQA Reaction Path Following.
   LQA: T_Est iteration completed in    3 iterations.
 IRC-IRC-IRC-IRC-IRC-IRC-IRC-IRC-IRC-IRC-IRC-IRC-IRC-IRC-IRC-IRC-IRC-IRC
 Leave Link  123 at Sun Apr 28 19:46:06 2024, MaxMem=   104857600 cpu:               0.1 elap:               1.1
 (Enter /mlatom/software/Gaussian/g16-avx2/l202.exe)
                          Input orientation:                          
 ---------------------------------------------------------------------
 Center     Atomic      Atomic             Coordinates (Angstroms)
 Number     Number       Type             X           Y           Z
 ---------------------------------------------------------------------
      1          6           0       -0.477482    1.441405    0.520041
      2          6           0       -1.293662    0.712450   -0.289308
      3          1           0       -0.070721    1.025784    1.433669
      4          1           0       -0.391901    2.518840    0.427737
      5          1           0       -1.830869    1.216842   -1.087399
      6          6           0       -1.293855   -0.712157   -0.289265
      7          6           0       -0.477843   -1.441287    0.520094
      8          1           0       -1.831221   -1.216446   -1.087314
      9          1           0       -0.392542   -2.518748    0.427826
     10          1           0       -0.070936   -1.025737    1.433689
     11          6           0        1.664918    0.679677   -0.247968
     12          6           0        1.664687   -0.680063   -0.248117
     13          1           0        2.090358    1.237268    0.579723
     14          1           0        1.473665    1.249284   -1.148021
     15          1           0        1.473166   -1.249404   -1.148282
     16          1           0        2.089981   -1.237984    0.579425
 ---------------------------------------------------------------------
                    Distance matrix (angstroms):
                    1          2          3          4          5
     1  C    0.000000
     2  C    1.361092   0.000000
     3  H    1.083011   2.135981   0.000000
     4  H    1.084763   2.142514   1.828735   0.000000
     5  H    2.113279   1.086256   3.080651   2.462004   0.000000
     6  C    2.441161   1.424607   2.735872   3.430298   2.155559
     7  C    2.882692   2.441163   2.662106   3.962136   3.388269
     8  H    3.388269   2.155556   3.805563   4.280114   2.433288
     9  H    3.962137   3.430297   3.698513   5.037588   4.280108
    10  H    2.662108   2.735886   2.051521   3.698511   3.805576
    11  C    2.399988   2.959050   2.441338   2.840704   3.635068
    12  C    3.111202   3.269957   2.958033   3.862552   4.064671
    13  H    2.576633   3.533022   2.333283   2.797702   4.260955
    14  H    2.574162   2.946808   3.016654   2.752294   3.305249
    15  H    3.718707   3.498864   3.771809   4.490209   4.123436
    16  H    3.711403   4.000991   3.243919   4.505161   4.917066
                    6          7          8          9         10
     6  C    0.000000
     7  C    1.361091   0.000000
     8  H    1.086256   2.113278   0.000000
     9  H    2.142512   1.084763   2.461998   0.000000
    10  H    2.135985   1.083010   3.080654   1.828736   0.000000
    11  C    3.270053   3.111243   4.064821   3.862611   2.957971
    12  C    2.959002   2.400009   3.635014   2.840749   2.441382
    13  H    4.001037   3.711317   4.917165   4.505056   3.243708
    14  H    3.499125   3.718892   4.123806   4.490444   3.771834
    15  H    2.946685   2.574244   3.305113   2.752493   3.016762
    16  H    3.532911   2.576542   4.260787   2.797545   2.333318
                   11         12         13         14         15
    11  C    0.000000
    12  C    1.359740   0.000000
    13  H    1.084886   2.131355   0.000000
    14  H    1.082185   2.137450   1.834544   0.000000
    15  H    2.137450   1.082186   3.090383   2.498688   0.000000
    16  H    2.131357   1.084886   2.475253   3.090375   1.834547
                   16
    16  H    0.000000
 Symmetry turned off by external request.
 Stoichiometry    C6H10
 Framework group  C1[X(C6H10)]
 Deg. of freedom    42
 Full point group                 C1      NOp   1
 Rotational constants (GHZ):           4.3087938           3.3111255           2.1987144
 Leave Link  202 at Sun Apr 28 19:46:10 2024, MaxMem=   104857600 cpu:               0.0 elap:               0.5
 (Enter /mlatom/software/Gaussian/g16-avx2/l301.exe)
 Standard basis: STO-3G (5D, 7F)
 Ernie: Thresh=  0.10000D-02 Tol=  0.10000D-05 Strict=F.
    40 basis functions,   120 primitive gaussians,    40 cartesian basis functions
    23 alpha electrons       23 beta electrons
       nuclear repulsion energy       222.8126089186 Hartrees.
 IExCor=    0 DFT=F Ex=HF Corr=None ExCW=0 ScaHFX=  1.000000
 ScaDFX=  1.000000  1.000000  1.000000  1.000000 ScalE2=  1.000000  1.000000
 IRadAn=      5 IRanWt=     -1 IRanGd=            0 ICorTp=0 IEmpDi=  4
 NAtoms=   16 NActive=   16 NUniq=   16 SFac= 1.00D+00 NAtFMM=   60 NAOKFM=F Big=F
 Integral buffers will be    131072 words long.
 Raffenetti 1 integral format.
 Two-electron integral symmetry is turned off.
 Leave Link  301 at Sun Apr 28 19:46:11 2024, MaxMem=   104857600 cpu:               0.1 elap:               0.4
 (Enter /mlatom/software/Gaussian/g16-avx2/l402.exe)
 External calculation of energy and first derivatives.
 Running external command "/mlatom/software/miniconda3/bin/python /mlatom/software/mlatom/mlatom/interfaces/gaussian_interface.py model_predict_kwargs R"
         input file       "/mlatom/home/qhzhang/git/ts-analysis/calculations/_other/irc/da/ani/irc_1/Gau-43310.EIn"
         output file      "/mlatom/home/qhzhang/git/ts-analysis/calculations/_other/irc/da/ani/irc_1/Gau-43310.EOu"
         message file     "/mlatom/home/qhzhang/git/ts-analysis/calculations/_other/irc/da/ani/irc_1/Gau-43310.EMs"
         fchk file        "/mlatom/home/qhzhang/git/ts-analysis/calculations/_other/irc/da/ani/irc_1/Gau-43310.EFC"
         mat. el file     "/mlatom/home/qhzhang/git/ts-analysis/calculations/_other/irc/da/ani/irc_1/Gau-43310.EUF"
model loaded from /mlatom/home/qhzhang/git/ts-analysis/calculations/_other/irc/da/ani/irc/da_energy_iteration27.npz
 Recovered energy= -234.569005856     dipole=      0.000000000000      0.000000000000      0.000000000000
 Energy=    -234.569006     NIter=   0.
 Dipole moment=       0.000000       0.000000       0.000000
 Leave Link  402 at Sun Apr 28 19:46:17 2024, MaxMem=   104857600 cpu:               0.1 elap:               4.8
 (Enter /mlatom/software/Gaussian/g16-avx2/l716.exe)
 Dipole        = 0.00000000D+00 0.00000000D+00 0.00000000D+00
 -------------------------------------------------------------------
 Center     Atomic                   Forces (Hartrees/Bohr)
 Number     Number              X              Y              Z
 -------------------------------------------------------------------
      1        6          -0.008194017    0.003468380    0.003692848
      2        6          -0.000893105    0.000884497   -0.000132586
      3        1          -0.000026555    0.000310753   -0.000392863
      4        1          -0.000735850    0.000309648    0.000237254
      5        1           0.000008475   -0.000102026   -0.000170486
      6        6          -0.000892142   -0.000883703   -0.000133334
      7        6          -0.008194215   -0.003465820    0.003691201
      8        1           0.000008763    0.000102167   -0.000170555
      9        1          -0.000735761   -0.000309371    0.000237177
     10        1          -0.000026343   -0.000310578   -0.000392333
     11        6           0.010016797   -0.000941540   -0.003436065
     12        6           0.010017727    0.000937536   -0.003435238
     13        1          -0.000115077   -0.000308647   -0.000130012
     14        1          -0.000062253   -0.000282945    0.000331708
     15        1          -0.000061396    0.000282936    0.000332295
     16        1          -0.000115048    0.000308715   -0.000129010
 -------------------------------------------------------------------
 Cartesian Forces:  Max     0.010017727 RMS     0.002949062
 Z-matrix is all fixed cartesians, so copy forces.
 Leave Link  716 at Sun Apr 28 19:46:17 2024, MaxMem=   104857600 cpu:               0.0 elap:               0.4
 (Enter /mlatom/software/Gaussian/g16-avx2/l123.exe)
 IRC-IRC-IRC-IRC-IRC-IRC-IRC-IRC-IRC-IRC-IRC-IRC-IRC-IRC-IRC-IRC-IRC-IRC
 Pt 47 Step number   1 out of a maximum of  20
 Point Number:   3          Path Number:   2
                    CURRENT STRUCTURE
                Cartesian Coordinates (Ang):                
 ---------------------------------------------------------------------
 Center     Atomic                     Coordinates (Angstroms)
 Number     Number                        X           Y           Z
 ---------------------------------------------------------------------
      1          6                   -0.477482    1.441405    0.520041
      2          6                   -1.293662    0.712450   -0.289308
      3          1                   -0.070721    1.025784    1.433669
      4          1                   -0.391901    2.518840    0.427737
      5          1                   -1.830869    1.216842   -1.087399
      6          6                   -1.293855   -0.712157   -0.289265
      7          6                   -0.477843   -1.441287    0.520094
      8          1                   -1.831221   -1.216446   -1.087314
      9          1                   -0.392542   -2.518748    0.427826
     10          1                   -0.070936   -1.025737    1.433689
     11          6                    1.664918    0.679677   -0.247968
     12          6                    1.664687   -0.680063   -0.248117
     13          1                    2.090358    1.237268    0.579723
     14          1                    1.473665    1.249284   -1.148021
     15          1                    1.473166   -1.249404   -1.148282
     16          1                    2.089981   -1.237984    0.579425
 ---------------------------------------------------------------------
   CHANGE IN THE REACTION COORDINATE =    0.29083
   NET REACTION COORDINATE UP TO THIS POINT =    0.87279
  # OF POINTS ALONG THE PATH =  47
  # OF STEPS =   1

 Calculating another point on the path.
 Point Number  4 in REVERSE path direction.
 Using LQA Reaction Path Following.
   LQA: T_Est iteration completed in    3 iterations.
 IRC-IRC-IRC-IRC-IRC-IRC-IRC-IRC-IRC-IRC-IRC-IRC-IRC-IRC-IRC-IRC-IRC-IRC
 Leave Link  123 at Sun Apr 28 19:46:19 2024, MaxMem=   104857600 cpu:               0.1 elap:               1.1
 (Enter /mlatom/software/Gaussian/g16-avx2/l202.exe)
                          Input orientation:                          
 ---------------------------------------------------------------------
 Center     Atomic      Atomic             Coordinates (Angstroms)
 Number     Number       Type             X           Y           Z
 ---------------------------------------------------------------------
      1          6           0       -0.495739    1.448711    0.526845
      2          6           0       -1.295021    0.715222   -0.288993
      3          1           0       -0.067924    1.029932    1.429415
      4          1           0       -0.410536    2.526286    0.433080
      5          1           0       -1.829638    1.214866   -1.091749
      6          6           0       -1.295212   -0.714927   -0.288952
      7          6           0       -0.496101   -1.448588    0.526897
      8          1           0       -1.829984   -1.214469   -1.091668
      9          1           0       -0.411177   -2.526189    0.433167
     10          1           0       -0.068140   -1.029886    1.429434
     11          6           0        1.685916    0.676384   -0.255014
     12          6           0        1.685687   -0.676777   -0.255160
     13          1           0        2.091095    1.235635    0.581607
     14          1           0        1.471052    1.249480   -1.147514
     15          1           0        1.470570   -1.249604   -1.147771
     16          1           0        2.090712   -1.236347    0.581323
 ---------------------------------------------------------------------
                    Distance matrix (angstroms):
                    1          2          3          4          5
     1  C    0.000000
     2  C    1.357368   0.000000
     3  H    1.083067   2.134885   0.000000
     4  H    1.084998   2.140948   1.830067   0.000000
     5  H    2.110407   1.086221   3.081251   2.461458   0.000000
     6  C    2.446632   1.430149   2.739261   3.436487   2.157358
     7  C    2.897298   2.446635   2.672253   3.976902   3.390033
     8  H    3.390032   2.157355   3.807630   4.281698   2.429335
     9  H    3.976903   3.436487   3.708953   5.052476   4.281693
    10  H    2.672255   2.739276   2.059817   3.708951   3.807644
    11  C    2.442828   2.981383   2.457285   2.879361   3.653656
    12  C    3.144496   3.289897   2.970825   3.889401   4.078689
    13  H    2.596173   3.534764   2.328617   2.818866   4.262945
    14  H    2.590645   2.945106   3.009521   2.769276   3.301343
    15  H    3.735186   3.499505   3.768971   4.504998   4.119238
    16  H    3.728570   4.003656   3.242683   4.520579   4.916987
                    6          7          8          9         10
     6  C    0.000000
     7  C    1.357367   0.000000
     8  H    1.086221   2.110405   0.000000
     9  H    2.140945   1.084999   2.461452   0.000000
    10  H    2.134890   1.083068   3.081254   1.830068   0.000000
    11  C    3.289988   3.144532   4.078831   3.889456   2.970763
    12  C    2.981334   2.442847   3.653601   2.879402   2.457326
    13  H    4.003703   3.728489   4.917085   4.520478   3.242482
    14  H    3.499748   3.735359   4.119588   4.505221   3.768989
    15  H    2.944996   2.590733   3.301218   2.769477   3.009633
    16  H    3.534649   2.596076   4.262774   2.818704   2.328639
                   11         12         13         14         15
    11  C    0.000000
    12  C    1.353161   0.000000
    13  H    1.084835   2.126466   0.000000
    14  H    1.082202   2.133736   1.836983   0.000000
    15  H    2.133734   1.082202   3.090666   2.499084   0.000000
    16  H    2.126467   1.084836   2.471982   3.090662   1.836987
                   16
    16  H    0.000000
 Symmetry turned off by external request.
 Stoichiometry    C6H10
 Framework group  C1[X(C6H10)]
 Deg. of freedom    42
 Full point group                 C1      NOp   1
 Rotational constants (GHZ):           4.2805861           3.2584341           2.1719154
 Leave Link  202 at Sun Apr 28 19:46:22 2024, MaxMem=   104857600 cpu:               0.0 elap:               0.5
 (Enter /mlatom/software/Gaussian/g16-avx2/l301.exe)
 Standard basis: STO-3G (5D, 7F)
 Ernie: Thresh=  0.10000D-02 Tol=  0.10000D-05 Strict=F.
    40 basis functions,   120 primitive gaussians,    40 cartesian basis functions
    23 alpha electrons       23 beta electrons
       nuclear repulsion energy       222.1167508174 Hartrees.
 IExCor=    0 DFT=F Ex=HF Corr=None ExCW=0 ScaHFX=  1.000000
 ScaDFX=  1.000000  1.000000  1.000000  1.000000 ScalE2=  1.000000  1.000000
 IRadAn=      5 IRanWt=     -1 IRanGd=            0 ICorTp=0 IEmpDi=  4
 NAtoms=   16 NActive=   16 NUniq=   16 SFac= 1.00D+00 NAtFMM=   60 NAOKFM=F Big=F
 Integral buffers will be    131072 words long.
 Raffenetti 1 integral format.
 Two-electron integral symmetry is turned off.
 Leave Link  301 at Sun Apr 28 19:46:24 2024, MaxMem=   104857600 cpu:               0.1 elap:               0.4
 (Enter /mlatom/software/Gaussian/g16-avx2/l402.exe)
 External calculation of energy and first derivatives.
 Running external command "/mlatom/software/miniconda3/bin/python /mlatom/software/mlatom/mlatom/interfaces/gaussian_interface.py model_predict_kwargs R"
         input file       "/mlatom/home/qhzhang/git/ts-analysis/calculations/_other/irc/da/ani/irc_1/Gau-43310.EIn"
         output file      "/mlatom/home/qhzhang/git/ts-analysis/calculations/_other/irc/da/ani/irc_1/Gau-43310.EOu"
         message file     "/mlatom/home/qhzhang/git/ts-analysis/calculations/_other/irc/da/ani/irc_1/Gau-43310.EMs"
         fchk file        "/mlatom/home/qhzhang/git/ts-analysis/calculations/_other/irc/da/ani/irc_1/Gau-43310.EFC"
         mat. el file     "/mlatom/home/qhzhang/git/ts-analysis/calculations/_other/irc/da/ani/irc_1/Gau-43310.EUF"
model loaded from /mlatom/home/qhzhang/git/ts-analysis/calculations/_other/irc/da/ani/irc/da_energy_iteration27.npz
 Recovered energy= -234.570785144     dipole=      0.000000000000      0.000000000000      0.000000000000
 Energy=    -234.570785     NIter=   0.
 Dipole moment=       0.000000       0.000000       0.000000
 Leave Link  402 at Sun Apr 28 19:46:29 2024, MaxMem=   104857600 cpu:               0.1 elap:               5.2
 (Enter /mlatom/software/Gaussian/g16-avx2/l716.exe)
 Dipole        = 0.00000000D+00 0.00000000D+00 0.00000000D+00
 -------------------------------------------------------------------
 Center     Atomic                   Forces (Hartrees/Bohr)
 Number     Number              X              Y              Z
 -------------------------------------------------------------------
      1        6          -0.008759315    0.003405269    0.003746056
      2        6          -0.000768371    0.000947687    0.000034027
      3        1          -0.000051220    0.000341555   -0.000243462
      4        1          -0.000932188    0.000309857    0.000245803
      5        1          -0.000043877   -0.000006090   -0.000269652
      6        6          -0.000768100   -0.000946463    0.000032674
      7        6          -0.008758712   -0.003402895    0.003745859
      8        1          -0.000043751    0.000006041   -0.000269892
      9        1          -0.000932142   -0.000309381    0.000245718
     10        1          -0.000051438   -0.000341756   -0.000243653
     11        6           0.010184525    0.000483902   -0.003599700
     12        6           0.010185129   -0.000487262   -0.003597339
     13        1           0.000236249   -0.000196483   -0.000009131
     14        1           0.000133316   -0.000280447    0.000095937
     15        1           0.000133710    0.000279840    0.000095774
     16        1           0.000236186    0.000196623   -0.000009021
 -------------------------------------------------------------------
 Cartesian Forces:  Max     0.010185129 RMS     0.003042908
 Z-matrix is all fixed cartesians, so copy forces.
 Leave Link  716 at Sun Apr 28 19:46:30 2024, MaxMem=   104857600 cpu:               0.0 elap:               0.4
 (Enter /mlatom/software/Gaussian/g16-avx2/l123.exe)
 IRC-IRC-IRC-IRC-IRC-IRC-IRC-IRC-IRC-IRC-IRC-IRC-IRC-IRC-IRC-IRC-IRC-IRC
 Pt 48 Step number   1 out of a maximum of  20
 Point Number:   4          Path Number:   2
                    CURRENT STRUCTURE
                Cartesian Coordinates (Ang):                
 ---------------------------------------------------------------------
 Center     Atomic                     Coordinates (Angstroms)
 Number     Number                        X           Y           Z
 ---------------------------------------------------------------------
      1          6                   -0.495739    1.448711    0.526845
      2          6                   -1.295021    0.715222   -0.288993
      3          1                   -0.067924    1.029932    1.429415
      4          1                   -0.410536    2.526286    0.433080
      5          1                   -1.829638    1.214866   -1.091749
      6          6                   -1.295212   -0.714927   -0.288952
      7          6                   -0.496101   -1.448588    0.526897
      8          1                   -1.829984   -1.214469   -1.091668
      9          1                   -0.411177   -2.526189    0.433167
     10          1                   -0.068140   -1.029886    1.429434
     11          6                    1.685916    0.676384   -0.255014
     12          6                    1.685687   -0.676777   -0.255160
     13          1                    2.091095    1.235635    0.581607
     14          1                    1.471052    1.249480   -1.147514
     15          1                    1.470570   -1.249604   -1.147771
     16          1                    2.090712   -1.236347    0.581323
 ---------------------------------------------------------------------
   CHANGE IN THE REACTION COORDINATE =    0.29085
   NET REACTION COORDINATE UP TO THIS POINT =    1.16364
  # OF POINTS ALONG THE PATH =  48
  # OF STEPS =   1

 Calculating another point on the path.
 Point Number  5 in REVERSE path direction.
 Using LQA Reaction Path Following.
   LQA: T_Est iteration completed in    3 iterations.
 IRC-IRC-IRC-IRC-IRC-IRC-IRC-IRC-IRC-IRC-IRC-IRC-IRC-IRC-IRC-IRC-IRC-IRC
 Leave Link  123 at Sun Apr 28 19:46:31 2024, MaxMem=   104857600 cpu:               0.0 elap:               1.1
 (Enter /mlatom/software/Gaussian/g16-avx2/l202.exe)
                          Input orientation:                          
 ---------------------------------------------------------------------
 Center     Atomic      Atomic             Coordinates (Angstroms)
 Number     Number       Type             X           Y           Z
 ---------------------------------------------------------------------
      1          6           0       -0.513828    1.455800    0.533969
      2          6           0       -1.296595    0.717553   -0.288908
      3          1           0       -0.066993    1.036002    1.427027
      4          1           0       -0.434413    2.534073    0.439494
      5          1           0       -1.828503    1.213220   -1.096484
      6          6           0       -1.296785   -0.717256   -0.288869
      7          6           0       -0.514189   -1.455672    0.534019
      8          1           0       -1.828845   -1.212822   -1.096408
      9          1           0       -0.435052   -2.533968    0.439578
     10          1           0       -0.067212   -1.035959    1.427046
     11          6           0        1.706740    0.674992   -0.262031
     12          6           0        1.706513   -0.675392   -0.262174
     13          1           0        2.097219    1.233865    0.581904
     14          1           0        1.472880    1.248386   -1.149384
     15          1           0        1.472407   -1.248518   -1.149637
     16          1           0        2.096836   -1.234576    0.581628
 ---------------------------------------------------------------------
                    Distance matrix (angstroms):
                    1          2          3          4          5
     1  C    0.000000
     2  C    1.354570   0.000000
     3  H    1.083256   2.134892   0.000000
     4  H    1.085313   2.138615   1.831512   0.000000
     5  H    2.108457   1.086642   3.082601   2.459140   0.000000
     6  C    2.451990   1.434808   2.744194   3.441706   2.159098
     7  C    2.911472   2.451994   2.684378   3.991662   3.392484
     8  H    3.392483   2.159095   3.811699   4.282833   2.426042
     9  H    3.991663   3.441705   3.722259   5.068042   4.282828
    10  H    2.684383   2.744209   2.071960   3.722260   3.811713
    11  C    2.484794   3.003757   2.475757   2.921105   3.672049
    12  C    3.178952   3.310539   2.987908   3.921297   4.093809
    13  H    2.620901   3.541591   2.331780   2.849558   4.269509
    14  H    2.612222   2.948252   3.009021   2.795584   3.301994
    15  H    3.754064   3.503378   3.771999   4.524301   4.118129
    16  H    3.749128   4.010488   3.248442   4.542041   4.920981
                    6          7          8          9         10
     6  C    0.000000
     7  C    1.354571   0.000000
     8  H    1.086643   2.108457   0.000000
     9  H    2.138613   1.085313   2.459134   0.000000
    10  H    2.134897   1.083256   3.082604   1.831511   0.000000
    11  C    3.310625   3.178986   4.093945   3.921346   2.987849
    12  C    3.003708   2.484809   3.671992   2.921140   2.475797
    13  H    4.010534   3.749047   4.921076   4.541941   3.248250
    14  H    3.503609   3.754227   4.118462   4.524512   3.772016
    15  H    2.948150   2.612312   3.301874   2.795780   3.009137
    16  H    3.541476   2.620802   4.269338   2.849396   2.331798
                   11         12         13         14         15
    11  C    0.000000
    12  C    1.350385   0.000000
    13  H    1.084915   2.123767   0.000000
    14  H    1.082066   2.131349   1.840481   0.000000
    15  H    2.131349   1.082067   3.090445   2.496904   0.000000
    16  H    2.123767   1.084915   2.468441   3.090441   1.840485
                   16
    16  H    0.000000
 Symmetry turned off by external request.
 Stoichiometry    C6H10
 Framework group  C1[X(C6H10)]
 Deg. of freedom    42
 Full point group                 C1      NOp   1
 Rotational constants (GHZ):           4.2502802           3.2042738           2.1442475
 Leave Link  202 at Sun Apr 28 19:46:35 2024, MaxMem=   104857600 cpu:               0.0 elap:               0.5
 (Enter /mlatom/software/Gaussian/g16-avx2/l301.exe)
 Standard basis: STO-3G (5D, 7F)
 Ernie: Thresh=  0.10000D-02 Tol=  0.10000D-05 Strict=F.
    40 basis functions,   120 primitive gaussians,    40 cartesian basis functions
    23 alpha electrons       23 beta electrons
       nuclear repulsion energy       221.3355816474 Hartrees.
 IExCor=    0 DFT=F Ex=HF Corr=None ExCW=0 ScaHFX=  1.000000
 ScaDFX=  1.000000  1.000000  1.000000  1.000000 ScalE2=  1.000000  1.000000
 IRadAn=      5 IRanWt=     -1 IRanGd=            0 ICorTp=0 IEmpDi=  4
 NAtoms=   16 NActive=   16 NUniq=   16 SFac= 1.00D+00 NAtFMM=   60 NAOKFM=F Big=F
 Integral buffers will be    131072 words long.
 Raffenetti 1 integral format.
 Two-electron integral symmetry is turned off.
 Leave Link  301 at Sun Apr 28 19:46:36 2024, MaxMem=   104857600 cpu:               0.1 elap:               0.4
 (Enter /mlatom/software/Gaussian/g16-avx2/l402.exe)
 External calculation of energy and first derivatives.
 Running external command "/mlatom/software/miniconda3/bin/python /mlatom/software/mlatom/mlatom/interfaces/gaussian_interface.py model_predict_kwargs R"
         input file       "/mlatom/home/qhzhang/git/ts-analysis/calculations/_other/irc/da/ani/irc_1/Gau-43310.EIn"
         output file      "/mlatom/home/qhzhang/git/ts-analysis/calculations/_other/irc/da/ani/irc_1/Gau-43310.EOu"
         message file     "/mlatom/home/qhzhang/git/ts-analysis/calculations/_other/irc/da/ani/irc_1/Gau-43310.EMs"
         fchk file        "/mlatom/home/qhzhang/git/ts-analysis/calculations/_other/irc/da/ani/irc_1/Gau-43310.EFC"
         mat. el file     "/mlatom/home/qhzhang/git/ts-analysis/calculations/_other/irc/da/ani/irc_1/Gau-43310.EUF"
model loaded from /mlatom/home/qhzhang/git/ts-analysis/calculations/_other/irc/da/ani/irc/da_energy_iteration27.npz
 Recovered energy= -234.572617361     dipole=      0.000000000000      0.000000000000      0.000000000000
 Energy=    -234.572617     NIter=   0.
 Dipole moment=       0.000000       0.000000       0.000000
 Leave Link  402 at Sun Apr 28 19:46:42 2024, MaxMem=   104857600 cpu:               0.0 elap:               5.2
 (Enter /mlatom/software/Gaussian/g16-avx2/l716.exe)
 Dipole        = 0.00000000D+00 0.00000000D+00 0.00000000D+00
 -------------------------------------------------------------------
 Center     Atomic                   Forces (Hartrees/Bohr)
 Number     Number              X              Y              Z
 -------------------------------------------------------------------
      1        6          -0.008981222    0.003250834    0.003548471
      2        6          -0.000744366    0.001243713    0.000087238
      3        1          -0.000122954    0.000427592   -0.000197409
      4        1          -0.000901584    0.000174409    0.000259378
      5        1           0.000020631    0.000004642   -0.000145179
      6        6          -0.000742246   -0.001242661    0.000086100
      7        6          -0.008981551   -0.003247793    0.003547185
      8        1           0.000020933   -0.000004438   -0.000145156
      9        1          -0.000901586   -0.000174241    0.000259259
     10        1          -0.000123055   -0.000427452   -0.000197326
     11        6           0.010283295   -0.001283356   -0.003492245
     12        6           0.010284145    0.001280203   -0.003491000
     13        1           0.000301235    0.000080040   -0.000071224
     14        1           0.000142746    0.000033804    0.000011225
     15        1           0.000144451   -0.000035010    0.000011532
     16        1           0.000301133   -0.000080288   -0.000070841
 -------------------------------------------------------------------
 Cartesian Forces:  Max     0.010284145 RMS     0.003074073
 Z-matrix is all fixed cartesians, so copy forces.
 Leave Link  716 at Sun Apr 28 19:46:43 2024, MaxMem=   104857600 cpu:               0.0 elap:               0.4
 (Enter /mlatom/software/Gaussian/g16-avx2/l123.exe)
 IRC-IRC-IRC-IRC-IRC-IRC-IRC-IRC-IRC-IRC-IRC-IRC-IRC-IRC-IRC-IRC-IRC-IRC
 Pt 49 Step number   1 out of a maximum of  20
 Point Number:   5          Path Number:   2
                    CURRENT STRUCTURE
                Cartesian Coordinates (Ang):                
 ---------------------------------------------------------------------
 Center     Atomic                     Coordinates (Angstroms)
 Number     Number                        X           Y           Z
 ---------------------------------------------------------------------
      1          6                   -0.513828    1.455800    0.533969
      2          6                   -1.296595    0.717553   -0.288908
      3          1                   -0.066993    1.036002    1.427027
      4          1                   -0.434413    2.534073    0.439494
      5          1                   -1.828503    1.213220   -1.096484
      6          6                   -1.296785   -0.717256   -0.288869
      7          6                   -0.514189   -1.455672    0.534019
      8          1                   -1.828845   -1.212822   -1.096408
      9          1                   -0.435052   -2.533968    0.439578
     10          1                   -0.067212   -1.035959    1.427046
     11          6                    1.706740    0.674992   -0.262031
     12          6                    1.706513   -0.675392   -0.262174
     13          1                    2.097219    1.233865    0.581904
     14          1                    1.472880    1.248386   -1.149384
     15          1                    1.472407   -1.248518   -1.149637
     16          1                    2.096836   -1.234576    0.581628
 ---------------------------------------------------------------------
   CHANGE IN THE REACTION COORDINATE =    0.29089
   NET REACTION COORDINATE UP TO THIS POINT =    1.45453
  # OF POINTS ALONG THE PATH =  49
  # OF STEPS =   1

 Calculating another point on the path.
 Point Number  6 in REVERSE path direction.
 Using LQA Reaction Path Following.
   LQA: T_Est iteration completed in    3 iterations.
 IRC-IRC-IRC-IRC-IRC-IRC-IRC-IRC-IRC-IRC-IRC-IRC-IRC-IRC-IRC-IRC-IRC-IRC
 Leave Link  123 at Sun Apr 28 19:46:45 2024, MaxMem=   104857600 cpu:               0.0 elap:               1.1
 (Enter /mlatom/software/Gaussian/g16-avx2/l202.exe)
                          Input orientation:                          
 ---------------------------------------------------------------------
 Center     Atomic      Atomic             Coordinates (Angstroms)
 Number     Number       Type             X           Y           Z
 ---------------------------------------------------------------------
      1          6           0       -0.532093    1.462437    0.540984
      2          6           0       -1.298265    0.720032   -0.288756
      3          1           0       -0.067927    1.043216    1.425572
      4          1           0       -0.456090    2.540819    0.444762
      5          1           0       -1.827601    1.212555   -1.100237
      6          6           0       -1.298452   -0.719732   -0.288720
      7          6           0       -0.532453   -1.462303    0.541032
      8          1           0       -1.827936   -1.212154   -1.100165
      9          1           0       -0.456731   -2.540707    0.444843
     10          1           0       -0.068148   -1.043172    1.425590
     11          6           0        1.727777    0.672697   -0.269010
     12          6           0        1.727553   -0.673105   -0.269149
     13          1           0        2.103742    1.233986    0.580697
     14          1           0        1.474898    1.248418   -1.150475
     15          1           0        1.474462   -1.248569   -1.150722
     16          1           0        2.103355   -1.234694    0.580433
 ---------------------------------------------------------------------
                    Distance matrix (angstroms):
                    1          2          3          4          5
     1  C    0.000000
     2  C    1.351538   0.000000
     3  H    1.083370   2.134737   0.000000
     4  H    1.085331   2.136018   1.831795   0.000000
     5  H    2.105799   1.086865   3.082992   2.456084   0.000000
     6  C    2.457148   1.439763   2.749723   3.446557   2.161548
     7  C    2.924739   2.457153   2.697373   4.005007   3.395001
     8  H    3.394999   2.161545   3.816238   4.284106   2.424709
     9  H    4.005008   3.446559   3.735975   5.081526   4.284102
    10  H    2.697378   2.749738   2.086389   3.735976   3.816252
    11  C    2.527210   3.026477   2.496687   2.961186   3.690948
    12  C    3.212920   3.331185   3.006923   3.950604   4.109202
    13  H    2.646015   3.548768   2.338024   2.877331   4.275682
    14  H    2.633410   2.951641   3.009723   2.818473   3.303075
    15  H    3.773286   3.508047   3.777371   4.542253   4.118653
    16  H    3.771162   4.018391   3.258466   4.563295   4.926063
                    6          7          8          9         10
     6  C    0.000000
     7  C    1.351538   0.000000
     8  H    1.086865   2.105796   0.000000
     9  H    2.136015   1.085331   2.456075   0.000000
    10  H    2.134741   1.083371   3.082993   1.831795   0.000000
    11  C    3.331262   3.212947   4.109328   3.950649   3.006863
    12  C    3.026427   2.527222   3.690889   2.961219   2.496724
    13  H    4.018436   3.771084   4.926154   4.563200   3.258283
    14  H    3.508234   3.773415   4.118939   4.542433   3.777366
    15  H    2.951571   2.633519   3.302986   2.818680   3.009853
    16  H    3.548649   2.645911   4.275508   2.877169   2.338033
                   11         12         13         14         15
    11  C    0.000000
    12  C    1.345802   0.000000
    13  H    1.085540   2.121498   0.000000
    14  H    1.082767   2.129043   1.841904   0.000000
    15  H    2.129049   1.082767   3.091421   2.496988   0.000000
    16  H    2.121498   1.085541   2.468680   3.091416   1.841900
                   16
    16  H    0.000000
 Symmetry turned off by external request.
 Stoichiometry    C6H10
 Framework group  C1[X(C6H10)]
 Deg. of freedom    42
 Full point group                 C1      NOp   1
 Rotational constants (GHZ):           4.2223538           3.1506548           2.1169158
 Leave Link  202 at Sun Apr 28 19:46:49 2024, MaxMem=   104857600 cpu:               0.0 elap:               0.5
 (Enter /mlatom/software/Gaussian/g16-avx2/l301.exe)
 Standard basis: STO-3G (5D, 7F)
 Ernie: Thresh=  0.10000D-02 Tol=  0.10000D-05 Strict=F.
    40 basis functions,   120 primitive gaussians,    40 cartesian basis functions
    23 alpha electrons       23 beta electrons
       nuclear repulsion energy       220.5850952382 Hartrees.
 IExCor=    0 DFT=F Ex=HF Corr=None ExCW=0 ScaHFX=  1.000000
 ScaDFX=  1.000000  1.000000  1.000000  1.000000 ScalE2=  1.000000  1.000000
 IRadAn=      5 IRanWt=     -1 IRanGd=            0 ICorTp=0 IEmpDi=  4
 NAtoms=   16 NActive=   16 NUniq=   16 SFac= 1.00D+00 NAtFMM=   60 NAOKFM=F Big=F
 Integral buffers will be    131072 words long.
 Raffenetti 1 integral format.
 Two-electron integral symmetry is turned off.
 Leave Link  301 at Sun Apr 28 19:46:50 2024, MaxMem=   104857600 cpu:               0.1 elap:               0.4
 (Enter /mlatom/software/Gaussian/g16-avx2/l402.exe)
 External calculation of energy and first derivatives.
 Running external command "/mlatom/software/miniconda3/bin/python /mlatom/software/mlatom/mlatom/interfaces/gaussian_interface.py model_predict_kwargs R"
         input file       "/mlatom/home/qhzhang/git/ts-analysis/calculations/_other/irc/da/ani/irc_1/Gau-43310.EIn"
         output file      "/mlatom/home/qhzhang/git/ts-analysis/calculations/_other/irc/da/ani/irc_1/Gau-43310.EOu"
         message file     "/mlatom/home/qhzhang/git/ts-analysis/calculations/_other/irc/da/ani/irc_1/Gau-43310.EMs"
         fchk file        "/mlatom/home/qhzhang/git/ts-analysis/calculations/_other/irc/da/ani/irc_1/Gau-43310.EFC"
         mat. el file     "/mlatom/home/qhzhang/git/ts-analysis/calculations/_other/irc/da/ani/irc_1/Gau-43310.EUF"
model loaded from /mlatom/home/qhzhang/git/ts-analysis/calculations/_other/irc/da/ani/irc/da_energy_iteration27.npz
 Recovered energy= -234.574446482     dipole=      0.000000000000      0.000000000000      0.000000000000
 Energy=    -234.574446     NIter=   0.
 Dipole moment=       0.000000       0.000000       0.000000
 Leave Link  402 at Sun Apr 28 19:46:55 2024, MaxMem=   104857600 cpu:               0.1 elap:               4.8
 (Enter /mlatom/software/Gaussian/g16-avx2/l716.exe)
 Dipole        = 0.00000000D+00 0.00000000D+00 0.00000000D+00
 -------------------------------------------------------------------
 Center     Atomic                   Forces (Hartrees/Bohr)
 Number     Number              X              Y              Z
 -------------------------------------------------------------------
      1        6          -0.008449118    0.003319448    0.003633294
      2        6          -0.001016698    0.000874016   -0.000094799
      3        1          -0.000227935    0.000301362   -0.000078938
      4        1          -0.001056630    0.000260098    0.000158791
      5        1           0.000045826   -0.000035604   -0.000101286
      6        6          -0.001016143   -0.000873529   -0.000096295
      7        6          -0.008449040   -0.003315968    0.003631932
      8        1           0.000046137    0.000035494   -0.000101568
      9        1          -0.001056702   -0.000260048    0.000158492
     10        1          -0.000228251   -0.000300988   -0.000078788
     11        6           0.010041517   -0.000234022   -0.003439039
     12        6           0.010044024    0.000229725   -0.003434694
     13        1           0.000378224    0.000011973   -0.000297598
     14        1           0.000283353   -0.000082819    0.000219555
     15        1           0.000283171    0.000082212    0.000218677
     16        1           0.000378266   -0.000011356   -0.000297734
 -------------------------------------------------------------------
 Cartesian Forces:  Max     0.010044024 RMS     0.002971094
 Z-matrix is all fixed cartesians, so copy forces.
 Leave Link  716 at Sun Apr 28 19:46:56 2024, MaxMem=   104857600 cpu:               0.0 elap:               0.4
 (Enter /mlatom/software/Gaussian/g16-avx2/l123.exe)
 IRC-IRC-IRC-IRC-IRC-IRC-IRC-IRC-IRC-IRC-IRC-IRC-IRC-IRC-IRC-IRC-IRC-IRC
 Reaction path inflection point has been passed.
   Previous lowest Hessian eigenvalue=   -0.0003002946
   Current lowest Hessian eigenvalue =    0.0004217572
 Pt 50 Step number   1 out of a maximum of  20
 Point Number:   6          Path Number:   2
                    CURRENT STRUCTURE
                Cartesian Coordinates (Ang):                
 ---------------------------------------------------------------------
 Center     Atomic                     Coordinates (Angstroms)
 Number     Number                        X           Y           Z
 ---------------------------------------------------------------------
      1          6                   -0.532093    1.462437    0.540984
      2          6                   -1.298265    0.720032   -0.288756
      3          1                   -0.067927    1.043216    1.425572
      4          1                   -0.456090    2.540819    0.444762
      5          1                   -1.827601    1.212555   -1.100237
      6          6                   -1.298452   -0.719732   -0.288720
      7          6                   -0.532453   -1.462303    0.541032
      8          1                   -1.827936   -1.212154   -1.100165
      9          1                   -0.456731   -2.540707    0.444843
     10          1                   -0.068148   -1.043172    1.425590
     11          6                    1.727777    0.672697   -0.269010
     12          6                    1.727553   -0.673105   -0.269149
     13          1                    2.103742    1.233986    0.580697
     14          1                    1.474898    1.248418   -1.150475
     15          1                    1.474462   -1.248569   -1.150722
     16          1                    2.103355   -1.234694    0.580433
 ---------------------------------------------------------------------
   CHANGE IN THE REACTION COORDINATE =    0.29099
   NET REACTION COORDINATE UP TO THIS POINT =    1.74552
  # OF POINTS ALONG THE PATH =  50
  # OF STEPS =   1

 Calculating another point on the path.
 Point Number  7 in REVERSE path direction.
 Using LQA Reaction Path Following.
   LQA: T_Est iteration completed in    2 iterations.
 IRC-IRC-IRC-IRC-IRC-IRC-IRC-IRC-IRC-IRC-IRC-IRC-IRC-IRC-IRC-IRC-IRC-IRC
 Leave Link  123 at Sun Apr 28 19:46:58 2024, MaxMem=   104857600 cpu:               0.0 elap:               1.1
 (Enter /mlatom/software/Gaussian/g16-avx2/l202.exe)
                          Input orientation:                          
 ---------------------------------------------------------------------
 Center     Atomic      Atomic             Coordinates (Angstroms)
 Number     Number       Type             X           Y           Z
 ---------------------------------------------------------------------
      1          6           0       -0.549767    1.469176    0.548127
      2          6           0       -1.300256    0.721979   -0.288770
      3          1           0       -0.071417    1.051190    1.425580
      4          1           0       -0.483080    2.548229    0.450061
      5          1           0       -1.826660    1.211678   -1.104039
      6          6           0       -1.300441   -0.721678   -0.288737
      7          6           0       -0.550127   -1.469035    0.548172
      8          1           0       -1.826987   -1.211277   -1.103975
      9          1           0       -0.483721   -2.548109    0.450138
     10          1           0       -0.071648   -1.051141    1.425598
     11          6           0        1.748604    0.671421   -0.275844
     12          6           0        1.748383   -0.671838   -0.275978
     13          1           0        2.114628    1.234554    0.576681
     14          1           0        1.479675    1.248619   -1.151476
     15          1           0        1.479243   -1.248779   -1.151720
     16          1           0        2.114249   -1.235259    0.576423
 ---------------------------------------------------------------------
                    Distance matrix (angstroms):
                    1          2          3          4          5
     1  C    0.000000
     2  C    1.349790   0.000000
     3  H    1.083261   2.134811   0.000000
     4  H    1.085550   2.132800   1.833638   0.000000
     5  H    2.103904   1.087001   3.083116   2.450877   0.000000
     6  C    2.462457   1.443656   2.755439   3.450535   2.163213
     7  C    2.938211   2.462459   2.711188   4.019021   3.397876
     8  H    3.397876   2.163211   3.820920   4.284274   2.422956
     9  H    4.019022   3.450534   3.751857   5.096337   4.284268
    10  H    2.711190   2.755447   2.102331   3.751854   3.820927
    11  C    2.568628   3.049306   2.520228   3.004956   3.709487
    12  C    3.247242   3.352176   3.029158   3.984393   4.124833
    13  H    2.674858   3.559940   2.352243   2.913737   4.284751
    14  H    2.656300   2.957977   3.014313   2.847159   3.306881
    15  H    3.793895   3.514851   3.786407   4.564392   4.121300
    16  H    3.796282   4.029663   3.275066   4.590955   4.933783
                    6          7          8          9         10
     6  C    0.000000
     7  C    1.349789   0.000000
     8  H    1.087001   2.103901   0.000000
     9  H    2.132796   1.085551   2.450867   0.000000
    10  H    2.134812   1.083261   3.083115   1.833641   0.000000
    11  C    3.352247   3.247263   4.124948   3.984431   3.029099
    12  C    3.049258   2.568638   3.709427   3.004984   2.520267
    13  H    4.029701   3.796199   4.933865   4.590857   3.274883
    14  H    3.515029   3.794014   4.121572   4.564563   3.786398
    15  H    2.957908   2.656406   3.306788   2.847356   3.014447
    16  H    3.559828   2.674762   4.284583   2.913584   2.352264
                   11         12         13         14         15
    11  C    0.000000
    12  C    1.343258   0.000000
    13  H    1.085308   2.120257   0.000000
    14  H    1.082687   2.127641   1.841166   0.000000
    15  H    2.127646   1.082692   3.091605   2.497398   0.000000
    16  H    2.120256   1.085306   2.469813   3.091597   1.841166
                   16
    16  H    0.000000
 Symmetry turned off by external request.
 Stoichiometry    C6H10
 Framework group  C1[X(C6H10)]
 Deg. of freedom    42
 Full point group                 C1      NOp   1
 Rotational constants (GHZ):           4.1934572           3.0968844           2.0890967
 Leave Link  202 at Sun Apr 28 19:47:02 2024, MaxMem=   104857600 cpu:               0.0 elap:               0.5
 (Enter /mlatom/software/Gaussian/g16-avx2/l301.exe)
 Standard basis: STO-3G (5D, 7F)
 Ernie: Thresh=  0.10000D-02 Tol=  0.10000D-05 Strict=F.
    40 basis functions,   120 primitive gaussians,    40 cartesian basis functions
    23 alpha electrons       23 beta electrons
       nuclear repulsion energy       219.7932973121 Hartrees.
 IExCor=    0 DFT=F Ex=HF Corr=None ExCW=0 ScaHFX=  1.000000
 ScaDFX=  1.000000  1.000000  1.000000  1.000000 ScalE2=  1.000000  1.000000
 IRadAn=      5 IRanWt=     -1 IRanGd=            0 ICorTp=0 IEmpDi=  4
 NAtoms=   16 NActive=   16 NUniq=   16 SFac= 1.00D+00 NAtFMM=   60 NAOKFM=F Big=F
 Integral buffers will be    131072 words long.
 Raffenetti 1 integral format.
 Two-electron integral symmetry is turned off.
 Leave Link  301 at Sun Apr 28 19:47:02 2024, MaxMem=   104857600 cpu:               0.0 elap:               0.4
 (Enter /mlatom/software/Gaussian/g16-avx2/l402.exe)
 External calculation of energy and first derivatives.
 Running external command "/mlatom/software/miniconda3/bin/python /mlatom/software/mlatom/mlatom/interfaces/gaussian_interface.py model_predict_kwargs R"
         input file       "/mlatom/home/qhzhang/git/ts-analysis/calculations/_other/irc/da/ani/irc_1/Gau-43310.EIn"
         output file      "/mlatom/home/qhzhang/git/ts-analysis/calculations/_other/irc/da/ani/irc_1/Gau-43310.EOu"
         message file     "/mlatom/home/qhzhang/git/ts-analysis/calculations/_other/irc/da/ani/irc_1/Gau-43310.EMs"
         fchk file        "/mlatom/home/qhzhang/git/ts-analysis/calculations/_other/irc/da/ani/irc_1/Gau-43310.EFC"
         mat. el file     "/mlatom/home/qhzhang/git/ts-analysis/calculations/_other/irc/da/ani/irc_1/Gau-43310.EUF"
model loaded from /mlatom/home/qhzhang/git/ts-analysis/calculations/_other/irc/da/ani/irc/da_energy_iteration27.npz
 Recovered energy= -234.576176611     dipole=      0.000000000000      0.000000000000      0.000000000000
 Energy=    -234.576177     NIter=   0.
 Dipole moment=       0.000000       0.000000       0.000000
 Leave Link  402 at Sun Apr 28 19:47:08 2024, MaxMem=   104857600 cpu:               0.1 elap:               4.9
 (Enter /mlatom/software/Gaussian/g16-avx2/l716.exe)
 Dipole        = 0.00000000D+00 0.00000000D+00 0.00000000D+00
 -------------------------------------------------------------------
 Center     Atomic                   Forces (Hartrees/Bohr)
 Number     Number              X              Y              Z
 -------------------------------------------------------------------
      1        6          -0.007965513    0.003066565    0.002781684
      2        6          -0.000873017    0.000388731   -0.000027521
      3        1          -0.000283741   -0.000052624    0.000475642
      4        1          -0.000983972    0.000445804    0.000073230
      5        1           0.000055620   -0.000073728    0.000029671
      6        6          -0.000872421   -0.000387781   -0.000029238
      7        6          -0.007965424   -0.003064645    0.002780846
      8        1           0.000055880    0.000074037    0.000029460
      9        1          -0.000983927   -0.000445184    0.000073351
     10        1          -0.000283570    0.000052668    0.000476014
     11        6           0.009366222   -0.001317752   -0.003314271
     12        6           0.009366997    0.001313739   -0.003315053
     13        1           0.000546112    0.000148378   -0.000022318
     14        1           0.000136679    0.000000596    0.000003789
     15        1           0.000137721    0.000000176    0.000005525
     16        1           0.000546356   -0.000148980   -0.000020807
 -------------------------------------------------------------------
 Cartesian Forces:  Max     0.009366997 RMS     0.002767201
 Z-matrix is all fixed cartesians, so copy forces.
 Leave Link  716 at Sun Apr 28 19:47:09 2024, MaxMem=   104857600 cpu:               0.0 elap:               0.4
 (Enter /mlatom/software/Gaussian/g16-avx2/l123.exe)
 IRC-IRC-IRC-IRC-IRC-IRC-IRC-IRC-IRC-IRC-IRC-IRC-IRC-IRC-IRC-IRC-IRC-IRC
 Pt 51 Step number   1 out of a maximum of  20
 Point Number:   7          Path Number:   2
                    CURRENT STRUCTURE
                Cartesian Coordinates (Ang):                
 ---------------------------------------------------------------------
 Center     Atomic                     Coordinates (Angstroms)
 Number     Number                        X           Y           Z
 ---------------------------------------------------------------------
      1          6                   -0.549767    1.469176    0.548127
      2          6                   -1.300256    0.721979   -0.288770
      3          1                   -0.071417    1.051190    1.425580
      4          1                   -0.483080    2.548229    0.450061
      5          1                   -1.826660    1.211678   -1.104039
      6          6                   -1.300441   -0.721678   -0.288737
      7          6                   -0.550127   -1.469035    0.548172
      8          1                   -1.826987   -1.211277   -1.103975
      9          1                   -0.483721   -2.548109    0.450138
     10          1                   -0.071648   -1.051141    1.425598
     11          6                    1.748604    0.671421   -0.275844
     12          6                    1.748383   -0.671838   -0.275978
     13          1                    2.114628    1.234554    0.576681
     14          1                    1.479675    1.248619   -1.151476
     15          1                    1.479243   -1.248779   -1.151720
     16          1                    2.114249   -1.235259    0.576423
 ---------------------------------------------------------------------
   CHANGE IN THE REACTION COORDINATE =    0.29097
   NET REACTION COORDINATE UP TO THIS POINT =    2.03648
  # OF POINTS ALONG THE PATH =  51
  # OF STEPS =   1

 Calculating another point on the path.
 Point Number  8 in REVERSE path direction.
 Using LQA Reaction Path Following.
   LQA: T_Est iteration completed in    4 iterations.
 IRC-IRC-IRC-IRC-IRC-IRC-IRC-IRC-IRC-IRC-IRC-IRC-IRC-IRC-IRC-IRC-IRC-IRC
 Leave Link  123 at Sun Apr 28 19:47:11 2024, MaxMem=   104857600 cpu:               0.1 elap:               1.1
 (Enter /mlatom/software/Gaussian/g16-avx2/l202.exe)
                          Input orientation:                          
 ---------------------------------------------------------------------
 Center     Atomic      Atomic             Coordinates (Angstroms)
 Number     Number       Type             X           Y           Z
 ---------------------------------------------------------------------
      1          6           0       -0.567458    1.475579    0.555076
      2          6           0       -1.302104    0.723427   -0.288717
      3          1           0       -0.079635    1.057090    1.428168
      4          1           0       -0.508533    2.555534    0.453977
      5          1           0       -1.826501    1.210521   -1.106480
      6          6           0       -1.302288   -0.723124   -0.288687
      7          6           0       -0.567818   -1.475433    0.555120
      8          1           0       -1.826822   -1.210116   -1.106423
      9          1           0       -0.509173   -2.555406    0.454053
     10          1           0       -0.079869   -1.057040    1.428187
     11          6           0        1.769642    0.669422   -0.282731
     12          6           0        1.769425   -0.669847   -0.282861
     13          1           0        2.127135    1.235211    0.572411
     14          1           0        1.482786    1.248293   -1.152638
     15          1           0        1.482375   -1.248459   -1.152876
     16          1           0        2.126752   -1.235915    0.572167
 ---------------------------------------------------------------------
                    Distance matrix (angstroms):
                    1          2          3          4          5
     1  C    0.000000
     2  C    1.348118   0.000000
     3  H    1.084156   2.133882   0.000000
     4  H    1.086276   2.130249   1.838024   0.000000
     5  H    2.101479   1.086734   3.082129   2.445633   0.000000
     6  C    2.467024   1.446552   2.758919   3.454156   2.163925
     7  C    2.951012   2.467026   2.722904   4.032671   3.399933
     8  H    3.399932   2.163923   3.823224   4.284023   2.420638
     9  H    4.032672   3.454156   3.766103   5.110939   4.284020
    10  H    2.722907   2.758927   2.114130   3.766102   3.823231
    11  C    2.610334   3.072226   2.548978   3.047989   3.728752
    12  C    3.281161   3.372764   3.054334   4.016853   4.140630
    13  H    2.705348   3.572554   2.373580   2.950259   4.295407
    14  H    2.677956   2.962677   3.022959   2.873229   3.309824
    15  H    3.813043   3.519720   3.797001   4.584326   4.122790
    16  H    3.822468   4.041930   3.295263   4.618851   4.942784
                    6          7          8          9         10
     6  C    0.000000
     7  C    1.348118   0.000000
     8  H    1.086734   2.101477   0.000000
     9  H    2.130246   1.086276   2.445626   0.000000
    10  H    2.133885   1.084156   3.082131   1.838026   0.000000
    11  C    3.372829   3.281177   4.140735   4.016885   3.054276
    12  C    3.072180   2.610342   3.728691   3.048013   2.549018
    13  H    4.041968   3.822390   4.942862   4.618756   3.295092
    14  H    3.519877   3.813148   4.123035   4.584483   3.796987
    15  H    2.962625   2.678070   3.309745   2.873429   3.023100
    16  H    3.572441   2.705248   4.295239   2.950103   2.373593
                   11         12         13         14         15
    11  C    0.000000
    12  C    1.339270   0.000000
    13  H    1.085903   2.118654   0.000000
    14  H    1.083567   2.125544   1.841508   0.000000
    15  H    2.125545   1.083565   3.092077   2.496752   0.000000
    16  H    2.118653   1.085904   2.471126   3.092077   1.841508
                   16
    16  H    0.000000
 Symmetry turned off by external request.
 Stoichiometry    C6H10
 Framework group  C1[X(C6H10)]
 Deg. of freedom    42
 Full point group                 C1      NOp   1
 Rotational constants (GHZ):           4.1676710           3.0437618           2.0620629
 Leave Link  202 at Sun Apr 28 19:47:15 2024, MaxMem=   104857600 cpu:               0.0 elap:               0.5
 (Enter /mlatom/software/Gaussian/g16-avx2/l301.exe)
 Standard basis: STO-3G (5D, 7F)
 Ernie: Thresh=  0.10000D-02 Tol=  0.10000D-05 Strict=F.
    40 basis functions,   120 primitive gaussians,    40 cartesian basis functions
    23 alpha electrons       23 beta electrons
       nuclear repulsion energy       219.0336109382 Hartrees.
 IExCor=    0 DFT=F Ex=HF Corr=None ExCW=0 ScaHFX=  1.000000
 ScaDFX=  1.000000  1.000000  1.000000  1.000000 ScalE2=  1.000000  1.000000
 IRadAn=      5 IRanWt=     -1 IRanGd=            0 ICorTp=0 IEmpDi=  4
 NAtoms=   16 NActive=   16 NUniq=   16 SFac= 1.00D+00 NAtFMM=   60 NAOKFM=F Big=F
 Integral buffers will be    131072 words long.
 Raffenetti 1 integral format.
 Two-electron integral symmetry is turned off.
 Leave Link  301 at Sun Apr 28 19:47:15 2024, MaxMem=   104857600 cpu:               0.1 elap:               0.4
 (Enter /mlatom/software/Gaussian/g16-avx2/l402.exe)
 External calculation of energy and first derivatives.
 Running external command "/mlatom/software/miniconda3/bin/python /mlatom/software/mlatom/mlatom/interfaces/gaussian_interface.py model_predict_kwargs R"
         input file       "/mlatom/home/qhzhang/git/ts-analysis/calculations/_other/irc/da/ani/irc_1/Gau-43310.EIn"
         output file      "/mlatom/home/qhzhang/git/ts-analysis/calculations/_other/irc/da/ani/irc_1/Gau-43310.EOu"
         message file     "/mlatom/home/qhzhang/git/ts-analysis/calculations/_other/irc/da/ani/irc_1/Gau-43310.EMs"
         fchk file        "/mlatom/home/qhzhang/git/ts-analysis/calculations/_other/irc/da/ani/irc_1/Gau-43310.EFC"
         mat. el file     "/mlatom/home/qhzhang/git/ts-analysis/calculations/_other/irc/da/ani/irc_1/Gau-43310.EUF"
model loaded from /mlatom/home/qhzhang/git/ts-analysis/calculations/_other/irc/da/ani/irc/da_energy_iteration27.npz
 Recovered energy= -234.577793018     dipole=      0.000000000000      0.000000000000      0.000000000000
 Energy=    -234.577793     NIter=   0.
 Dipole moment=       0.000000       0.000000       0.000000
 Leave Link  402 at Sun Apr 28 19:47:20 2024, MaxMem=   104857600 cpu:               0.1 elap:               4.9
 (Enter /mlatom/software/Gaussian/g16-avx2/l716.exe)
 Dipole        = 0.00000000D+00 0.00000000D+00 0.00000000D+00
 -------------------------------------------------------------------
 Center     Atomic                   Forces (Hartrees/Bohr)
 Number     Number              X              Y              Z
 -------------------------------------------------------------------
      1        6          -0.007239604    0.002697395    0.002617609
      2        6          -0.000891018    0.000341360    0.000100987
      3        1          -0.000381019    0.000150645    0.000379458
      4        1          -0.001033576    0.000203586    0.000198480
      5        1          -0.000011382   -0.000035932   -0.000147220
      6        6          -0.000890165   -0.000340869    0.000099956
      7        6          -0.007239633   -0.002694767    0.002616655
      8        1          -0.000011055    0.000036033   -0.000147369
      9        1          -0.001033495   -0.000203301    0.000198438
     10        1          -0.000381300   -0.000150595    0.000379365
     11        6           0.008575494    0.000157204   -0.003182804
     12        6           0.008577388   -0.000159880   -0.003179073
     13        1           0.000662654   -0.000115278   -0.000179018
     14        1           0.000317298   -0.000394135    0.000212585
     15        1           0.000316718    0.000392700    0.000211513
     16        1           0.000662695    0.000115834   -0.000179564
 -------------------------------------------------------------------
 Cartesian Forces:  Max     0.008577388 RMS     0.002528320
 Z-matrix is all fixed cartesians, so copy forces.
 Leave Link  716 at Sun Apr 28 19:47:22 2024, MaxMem=   104857600 cpu:               0.0 elap:               0.6
 (Enter /mlatom/software/Gaussian/g16-avx2/l123.exe)
 IRC-IRC-IRC-IRC-IRC-IRC-IRC-IRC-IRC-IRC-IRC-IRC-IRC-IRC-IRC-IRC-IRC-IRC
 Pt 52 Step number   1 out of a maximum of  20
 Point Number:   8          Path Number:   2
                    CURRENT STRUCTURE
                Cartesian Coordinates (Ang):                
 ---------------------------------------------------------------------
 Center     Atomic                     Coordinates (Angstroms)
 Number     Number                        X           Y           Z
 ---------------------------------------------------------------------
      1          6                   -0.567458    1.475579    0.555076
      2          6                   -1.302104    0.723427   -0.288717
      3          1                   -0.079635    1.057090    1.428168
      4          1                   -0.508533    2.555534    0.453977
      5          1                   -1.826501    1.210521   -1.106480
      6          6                   -1.302288   -0.723124   -0.288687
      7          6                   -0.567818   -1.475433    0.555120
      8          1                   -1.826822   -1.210116   -1.106423
      9          1                   -0.509173   -2.555406    0.454053
     10          1                   -0.079869   -1.057040    1.428187
     11          6                    1.769642    0.669422   -0.282731
     12          6                    1.769425   -0.669847   -0.282861
     13          1                    2.127135    1.235211    0.572411
     14          1                    1.482786    1.248293   -1.152638
     15          1                    1.482375   -1.248459   -1.152876
     16          1                    2.126752   -1.235915    0.572167
 ---------------------------------------------------------------------
   CHANGE IN THE REACTION COORDINATE =    0.29090
   NET REACTION COORDINATE UP TO THIS POINT =    2.32739
  # OF POINTS ALONG THE PATH =  52
  # OF STEPS =   1

 Calculating another point on the path.
 Point Number  9 in REVERSE path direction.
 Using LQA Reaction Path Following.
   LQA: T_Est iteration completed in    4 iterations.
 IRC-IRC-IRC-IRC-IRC-IRC-IRC-IRC-IRC-IRC-IRC-IRC-IRC-IRC-IRC-IRC-IRC-IRC
 Leave Link  123 at Sun Apr 28 19:47:23 2024, MaxMem=   104857600 cpu:               0.0 elap:               1.1
 (Enter /mlatom/software/Gaussian/g16-avx2/l202.exe)
                          Input orientation:                          
 ---------------------------------------------------------------------
 Center     Atomic      Atomic             Coordinates (Angstroms)
 Number     Number       Type             X           Y           Z
 ---------------------------------------------------------------------
      1          6           0       -0.584261    1.481620    0.561798
      2          6           0       -1.304357    0.724338   -0.288656
      3          1           0       -0.091151    1.064972    1.433280
      4          1           0       -0.540621    2.563048    0.460483
      5          1           0       -1.825613    1.208709   -1.110313
      6          6           0       -1.304539   -0.724033   -0.288629
      7          6           0       -0.584621   -1.481468    0.561840
      8          1           0       -1.825926   -1.208301   -1.110264
      9          1           0       -0.541259   -2.562910    0.460556
     10          1           0       -0.091393   -1.064919    1.433301
     11          6           0        1.790041    0.668609   -0.289389
     12          6           0        1.789827   -0.669041   -0.289514
     13          1           0        2.146534    1.233709    0.565765
     14          1           0        1.490079    1.244936   -1.155271
     15          1           0        1.489661   -1.245116   -1.155501
     16          1           0        2.146161   -1.234413    0.565523
 ---------------------------------------------------------------------
                    Distance matrix (angstroms):
                    1          2          3          4          5
     1  C    0.000000
     2  C    1.347326   0.000000
     3  H    1.084542   2.133767   0.000000
     4  H    1.087040   2.127288   1.841898   0.000000
     5  H    2.100331   1.086943   3.082026   2.439844   0.000000
     6  C    2.471221   1.448371   2.763661   3.456825   2.163833
     7  C    2.963087   2.471222   2.736289   4.046024   3.401942
     8  H    3.401940   2.163831   3.827118   4.282794   2.417010
     9  H    4.046025   3.456824   3.782898   5.125958   4.282792
    10  H    2.736292   2.763667   2.129891   3.782899   3.827124
    11  C    2.650059   3.094899   2.581390   3.095673   3.746809
    12  C    3.314568   3.393446   3.084298   4.054612   4.155846
    13  H    2.742027   3.591398   2.405886   2.999838   4.311359
    14  H    2.703188   2.971685   3.038629   2.910639   3.316194
    15  H    3.832148   3.526571   3.812776   4.608206   4.124844
    16  H    3.851240   4.058620   3.323512   4.653014   4.955023
                    6          7          8          9         10
     6  C    0.000000
     7  C    1.347325   0.000000
     8  H    1.086942   2.100330   0.000000
     9  H    2.127285   1.087040   2.439838   0.000000
    10  H    2.133769   1.084542   3.082026   1.841898   0.000000
    11  C    3.393505   3.314580   4.155940   4.054638   3.084246
    12  C    3.094854   2.650065   3.746745   3.095691   2.581433
    13  H    4.058651   3.851157   4.955091   4.652915   3.323346
    14  H    3.526726   3.832248   4.125080   4.608353   3.812766
    15  H    2.971624   2.703289   3.316100   2.910817   3.038766
    16  H    3.591293   2.741937   4.311196   2.999691   2.405912
                   11         12         13         14         15
    11  C    0.000000
    12  C    1.337650   0.000000
    13  H    1.085225   2.116412   0.000000
    14  H    1.082535   2.121955   1.842016   0.000000
    15  H    2.121961   1.082541   3.088497   2.490052   0.000000
    16  H    2.116409   1.085223   2.468122   3.088486   1.842018
                   16
    16  H    0.000000
 Symmetry turned off by external request.
 Stoichiometry    C6H10
 Framework group  C1[X(C6H10)]
 Deg. of freedom    42
 Full point group                 C1      NOp   1
 Rotational constants (GHZ):           4.1424889           2.9906153           2.0351771
 Leave Link  202 at Sun Apr 28 19:47:27 2024, MaxMem=   104857600 cpu:               0.0 elap:               0.5
 (Enter /mlatom/software/Gaussian/g16-avx2/l301.exe)
 Standard basis: STO-3G (5D, 7F)
 Ernie: Thresh=  0.10000D-02 Tol=  0.10000D-05 Strict=F.
    40 basis functions,   120 primitive gaussians,    40 cartesian basis functions
    23 alpha electrons       23 beta electrons
       nuclear repulsion energy       218.2540968454 Hartrees.
 IExCor=    0 DFT=F Ex=HF Corr=None ExCW=0 ScaHFX=  1.000000
 ScaDFX=  1.000000  1.000000  1.000000  1.000000 ScalE2=  1.000000  1.000000
 IRadAn=      5 IRanWt=     -1 IRanGd=            0 ICorTp=0 IEmpDi=  4
 NAtoms=   16 NActive=   16 NUniq=   16 SFac= 1.00D+00 NAtFMM=   60 NAOKFM=F Big=F
 Integral buffers will be    131072 words long.
 Raffenetti 1 integral format.
 Two-electron integral symmetry is turned off.
 Leave Link  301 at Sun Apr 28 19:47:28 2024, MaxMem=   104857600 cpu:               0.0 elap:               0.4
 (Enter /mlatom/software/Gaussian/g16-avx2/l402.exe)
 External calculation of energy and first derivatives.
 Running external command "/mlatom/software/miniconda3/bin/python /mlatom/software/mlatom/mlatom/interfaces/gaussian_interface.py model_predict_kwargs R"
         input file       "/mlatom/home/qhzhang/git/ts-analysis/calculations/_other/irc/da/ani/irc_1/Gau-43310.EIn"
         output file      "/mlatom/home/qhzhang/git/ts-analysis/calculations/_other/irc/da/ani/irc_1/Gau-43310.EOu"
         message file     "/mlatom/home/qhzhang/git/ts-analysis/calculations/_other/irc/da/ani/irc_1/Gau-43310.EMs"
         fchk file        "/mlatom/home/qhzhang/git/ts-analysis/calculations/_other/irc/da/ani/irc_1/Gau-43310.EFC"
         mat. el file     "/mlatom/home/qhzhang/git/ts-analysis/calculations/_other/irc/da/ani/irc_1/Gau-43310.EUF"
model loaded from /mlatom/home/qhzhang/git/ts-analysis/calculations/_other/irc/da/ani/irc/da_energy_iteration27.npz
 Recovered energy= -234.579313235     dipole=      0.000000000000      0.000000000000      0.000000000000
 Energy=    -234.579313     NIter=   0.
 Dipole moment=       0.000000       0.000000       0.000000
 Leave Link  402 at Sun Apr 28 19:47:34 2024, MaxMem=   104857600 cpu:               0.0 elap:               5.2
 (Enter /mlatom/software/Gaussian/g16-avx2/l716.exe)
 Dipole        = 0.00000000D+00 0.00000000D+00 0.00000000D+00
 -------------------------------------------------------------------
 Center     Atomic                   Forces (Hartrees/Bohr)
 Number     Number              X              Y              Z
 -------------------------------------------------------------------
      1        6          -0.007418432    0.002262770    0.001853367
      2        6          -0.000515751    0.000801124    0.000432233
      3        1          -0.000283479    0.000118975    0.000417107
      4        1          -0.000807953   -0.000049060    0.000265133
      5        1           0.000005870   -0.000069174   -0.000046391
      6        6          -0.000515140   -0.000800034    0.000430923
      7        6          -0.007418611   -0.002261393    0.001852625
      8        1           0.000006036    0.000069271   -0.000046511
      9        1          -0.000807677    0.000049372    0.000265168
     10        1          -0.000283261   -0.000118522    0.000417498
     11        6           0.008285035   -0.001503924   -0.002807894
     12        6           0.008284476    0.001500152   -0.002809731
     13        1           0.000708797    0.000292912    0.000161185
     14        1           0.000024745    0.000108762   -0.000274940
     15        1           0.000026359   -0.000107195   -0.000272481
     16        1           0.000708986   -0.000294037    0.000162710
 -------------------------------------------------------------------
 Cartesian Forces:  Max     0.008285035 RMS     0.002459366
 Z-matrix is all fixed cartesians, so copy forces.
 Leave Link  716 at Sun Apr 28 19:47:35 2024, MaxMem=   104857600 cpu:               0.0 elap:               0.5
 (Enter /mlatom/software/Gaussian/g16-avx2/l123.exe)
 IRC-IRC-IRC-IRC-IRC-IRC-IRC-IRC-IRC-IRC-IRC-IRC-IRC-IRC-IRC-IRC-IRC-IRC
 Pt 53 Step number   1 out of a maximum of  20
 Point Number:   9          Path Number:   2
                    CURRENT STRUCTURE
                Cartesian Coordinates (Ang):                
 ---------------------------------------------------------------------
 Center     Atomic                     Coordinates (Angstroms)
 Number     Number                        X           Y           Z
 ---------------------------------------------------------------------
      1          6                   -0.584261    1.481620    0.561798
      2          6                   -1.304357    0.724338   -0.288656
      3          1                   -0.091151    1.064972    1.433280
      4          1                   -0.540621    2.563048    0.460483
      5          1                   -1.825613    1.208709   -1.110313
      6          6                   -1.304539   -0.724033   -0.288629
      7          6                   -0.584621   -1.481468    0.561840
      8          1                   -1.825926   -1.208301   -1.110264
      9          1                   -0.541259   -2.562910    0.460556
     10          1                   -0.091393   -1.064919    1.433301
     11          6                    1.790041    0.668609   -0.289389
     12          6                    1.789827   -0.669041   -0.289514
     13          1                    2.146534    1.233709    0.565765
     14          1                    1.490079    1.244936   -1.155271
     15          1                    1.489661   -1.245116   -1.155501
     16          1                    2.146161   -1.234413    0.565523
 ---------------------------------------------------------------------
   CHANGE IN THE REACTION COORDINATE =    0.29090
   NET REACTION COORDINATE UP TO THIS POINT =    2.61829
  # OF POINTS ALONG THE PATH =  53
  # OF STEPS =   1

 Calculating another point on the path.
 Point Number 10 in REVERSE path direction.
 Using LQA Reaction Path Following.
   LQA: T_Est iteration completed in    4 iterations.
 IRC-IRC-IRC-IRC-IRC-IRC-IRC-IRC-IRC-IRC-IRC-IRC-IRC-IRC-IRC-IRC-IRC-IRC
 Leave Link  123 at Sun Apr 28 19:47:37 2024, MaxMem=   104857600 cpu:               0.1 elap:               1.1
 (Enter /mlatom/software/Gaussian/g16-avx2/l202.exe)
                          Input orientation:                          
 ---------------------------------------------------------------------
 Center     Atomic      Atomic             Coordinates (Angstroms)
 Number     Number       Type             X           Y           Z
 ---------------------------------------------------------------------
      1          6           0       -0.602148    1.486828    0.568019
      2          6           0       -1.306418    0.725908   -0.288173
      3          1           0       -0.101965    1.070280    1.437098
      4          1           0       -0.564232    2.568204    0.465952
      5          1           0       -1.825841    1.207129   -1.112714
      6          6           0       -1.306598   -0.725602   -0.288148
      7          6           0       -0.602509   -1.486671    0.568060
      8          1           0       -1.826149   -1.206720   -1.112668
      9          1           0       -0.564865   -2.568059    0.466027
     10          1           0       -0.102207   -1.070219    1.437119
     11          6           0        1.811383    0.666575   -0.296099
     12          6           0        1.811170   -0.667015   -0.296221
     13          1           0        2.162288    1.234867    0.560915
     14          1           0        1.492358    1.243128   -1.157238
     15          1           0        1.491966   -1.243308   -1.157464
     16          1           0        2.161907   -1.235575    0.560686
 ---------------------------------------------------------------------
                    Distance matrix (angstroms):
                    1          2          3          4          5
     1  C    0.000000
     2  C    1.344641   0.000000
     3  H    1.085814   2.132102   0.000000
     4  H    1.086844   2.124523   1.844069   0.000000
     5  H    2.097741   1.086850   3.080912   2.436466   0.000000
     6  C    2.474695   1.451510   2.766371   3.459615   2.164480
     7  C    2.973498   2.474697   2.746592   4.056340   3.402661
     8  H    3.402659   2.164478   3.828688   4.281884   2.413850
     9  H    4.056341   3.459616   3.794044   5.136263   4.281884
    10  H    2.746591   2.766374   2.140499   3.794042   3.828691
    11  C    2.691588   3.118375   2.613015   3.136951   3.766757
    12  C    3.348142   3.414623   3.111700   4.085350   4.172160
    13  H    2.775904   3.607203   2.433439   3.036563   4.325156
    14  H    2.724492   2.975892   3.049970   2.936006   3.318692
    15  H    3.849188   3.530500   3.824272   4.625046   4.124862
    16  H    3.879630   4.073973   3.348161   4.680763   4.966810
                    6          7          8          9         10
     6  C    0.000000
     7  C    1.344641   0.000000
     8  H    1.086849   2.097741   0.000000
     9  H    2.124523   1.086844   2.436465   0.000000
    10  H    2.132103   1.085816   3.080913   1.844071   0.000000
    11  C    3.414678   3.348150   4.172249   4.085370   3.111643
    12  C    3.118329   2.691591   3.766690   3.136963   2.613054
    13  H    4.074006   3.879552   4.966877   4.680665   3.347999
    14  H    3.530633   3.849275   4.125073   4.625182   3.824252
    15  H    2.975851   2.724606   3.318619   2.936195   3.050115
    16  H    3.607093   2.775806   4.324990   3.036406   2.433452
                   11         12         13         14         15
    11  C    0.000000
    12  C    1.333590   0.000000
    13  H    1.086537   2.115449   0.000000
    14  H    1.084321   2.119349   1.844160   0.000000
    15  H    2.119346   1.084317   3.089257   2.486436   0.000000
    16  H    2.115448   1.086539   2.470442   3.089260   1.844158
                   16
    16  H    0.000000
 Symmetry turned off by external request.
 Stoichiometry    C6H10
 Framework group  C1[X(C6H10)]
 Deg. of freedom    42
 Full point group                 C1      NOp   1
 Rotational constants (GHZ):           4.1217840           2.9386245           2.0090609
 Leave Link  202 at Sun Apr 28 19:47:41 2024, MaxMem=   104857600 cpu:               0.0 elap:               0.5
 (Enter /mlatom/software/Gaussian/g16-avx2/l301.exe)
 Standard basis: STO-3G (5D, 7F)
 Ernie: Thresh=  0.10000D-02 Tol=  0.10000D-05 Strict=F.
    40 basis functions,   120 primitive gaussians,    40 cartesian basis functions
    23 alpha electrons       23 beta electrons
       nuclear repulsion energy       217.5476548464 Hartrees.
 IExCor=    0 DFT=F Ex=HF Corr=None ExCW=0 ScaHFX=  1.000000
 ScaDFX=  1.000000  1.000000  1.000000  1.000000 ScalE2=  1.000000  1.000000
 IRadAn=      5 IRanWt=     -1 IRanGd=            0 ICorTp=0 IEmpDi=  4
 NAtoms=   16 NActive=   16 NUniq=   16 SFac= 1.00D+00 NAtFMM=   60 NAOKFM=F Big=F
 Integral buffers will be    131072 words long.
 Raffenetti 1 integral format.
 Two-electron integral symmetry is turned off.
 Leave Link  301 at Sun Apr 28 19:47:42 2024, MaxMem=   104857600 cpu:               0.0 elap:               0.4
 (Enter /mlatom/software/Gaussian/g16-avx2/l402.exe)
 External calculation of energy and first derivatives.
 Running external command "/mlatom/software/miniconda3/bin/python /mlatom/software/mlatom/mlatom/interfaces/gaussian_interface.py model_predict_kwargs R"
         input file       "/mlatom/home/qhzhang/git/ts-analysis/calculations/_other/irc/da/ani/irc_1/Gau-43310.EIn"
         output file      "/mlatom/home/qhzhang/git/ts-analysis/calculations/_other/irc/da/ani/irc_1/Gau-43310.EOu"
         message file     "/mlatom/home/qhzhang/git/ts-analysis/calculations/_other/irc/da/ani/irc_1/Gau-43310.EMs"
         fchk file        "/mlatom/home/qhzhang/git/ts-analysis/calculations/_other/irc/da/ani/irc_1/Gau-43310.EFC"
         mat. el file     "/mlatom/home/qhzhang/git/ts-analysis/calculations/_other/irc/da/ani/irc_1/Gau-43310.EUF"
model loaded from /mlatom/home/qhzhang/git/ts-analysis/calculations/_other/irc/da/ani/irc/da_energy_iteration27.npz
 Recovered energy= -234.580738918     dipole=      0.000000000000      0.000000000000      0.000000000000
 Energy=    -234.580739     NIter=   0.
 Dipole moment=       0.000000       0.000000       0.000000
 Leave Link  402 at Sun Apr 28 19:47:47 2024, MaxMem=   104857600 cpu:               0.0 elap:               5.1
 (Enter /mlatom/software/Gaussian/g16-avx2/l716.exe)
 Dipole        = 0.00000000D+00 0.00000000D+00 0.00000000D+00
 -------------------------------------------------------------------
 Center     Atomic                   Forces (Hartrees/Bohr)
 Number     Number              X              Y              Z
 -------------------------------------------------------------------
      1        6          -0.005849170    0.002176707    0.002919976
      2        6          -0.001297958   -0.000440509   -0.000361302
      3        1          -0.000569304    0.000316469    0.000099618
      4        1          -0.000999597    0.000273479    0.000263842
      5        1          -0.000064133   -0.000072895   -0.000137727
      6        6          -0.001296737    0.000440434   -0.000361469
      7        6          -0.005848912   -0.002173332    0.002919725
      8        1          -0.000064095    0.000072904   -0.000138231
      9        1          -0.000999570   -0.000273371    0.000263699
     10        1          -0.000569950   -0.000316762    0.000099043
     11        6           0.007288437    0.000820642   -0.002719009
     12        6           0.007290384   -0.000821749   -0.002713994
     13        1           0.000876075   -0.000202476   -0.000486065
     14        1           0.000614932   -0.000554748    0.000420886
     15        1           0.000613526    0.000552009    0.000418231
     16        1           0.000876073    0.000203199   -0.000487225
 -------------------------------------------------------------------
 Cartesian Forces:  Max     0.007290384 RMS     0.002181132
 Z-matrix is all fixed cartesians, so copy forces.
 Leave Link  716 at Sun Apr 28 19:47:49 2024, MaxMem=   104857600 cpu:               0.1 elap:               0.4
 (Enter /mlatom/software/Gaussian/g16-avx2/l123.exe)
 IRC-IRC-IRC-IRC-IRC-IRC-IRC-IRC-IRC-IRC-IRC-IRC-IRC-IRC-IRC-IRC-IRC-IRC
 Pt 54 Step number   1 out of a maximum of  20
 Point Number:  10          Path Number:   2
                    CURRENT STRUCTURE
                Cartesian Coordinates (Ang):                
 ---------------------------------------------------------------------
 Center     Atomic                     Coordinates (Angstroms)
 Number     Number                        X           Y           Z
 ---------------------------------------------------------------------
      1          6                   -0.602148    1.486828    0.568019
      2          6                   -1.306418    0.725908   -0.288173
      3          1                   -0.101965    1.070280    1.437098
      4          1                   -0.564232    2.568204    0.465952
      5          1                   -1.825841    1.207129   -1.112714
      6          6                   -1.306598   -0.725602   -0.288148
      7          6                   -0.602509   -1.486671    0.568060
      8          1                   -1.826149   -1.206720   -1.112668
      9          1                   -0.564865   -2.568059    0.466027
     10          1                   -0.102207   -1.070219    1.437119
     11          6                    1.811383    0.666575   -0.296099
     12          6                    1.811170   -0.667015   -0.296221
     13          1                    2.162288    1.234867    0.560915
     14          1                    1.492358    1.243128   -1.157238
     15          1                    1.491966   -1.243308   -1.157464
     16          1                    2.161907   -1.235575    0.560686
 ---------------------------------------------------------------------
   CHANGE IN THE REACTION COORDINATE =    0.29084
   NET REACTION COORDINATE UP TO THIS POINT =    2.90913
  # OF POINTS ALONG THE PATH =  54
  # OF STEPS =   1

 Calculating another point on the path.
 Point Number 11 in REVERSE path direction.
 Using LQA Reaction Path Following.
   LQA: T_Est iteration completed in    2 iterations.
 IRC-IRC-IRC-IRC-IRC-IRC-IRC-IRC-IRC-IRC-IRC-IRC-IRC-IRC-IRC-IRC-IRC-IRC
 Leave Link  123 at Sun Apr 28 19:47:50 2024, MaxMem=   104857600 cpu:               0.0 elap:               1.1
 (Enter /mlatom/software/Gaussian/g16-avx2/l202.exe)
                          Input orientation:                          
 ---------------------------------------------------------------------
 Center     Atomic      Atomic             Coordinates (Angstroms)
 Number     Number       Type             X           Y           Z
 ---------------------------------------------------------------------
      1          6           0       -0.616925    1.492226    0.574409
      2          6           0       -1.309140    0.725410   -0.288672
      3          1           0       -0.118899    1.080381    1.445731
      4          1           0       -0.604456    2.576283    0.476835
      5          1           0       -1.826224    1.204045   -1.116545
      6          6           0       -1.309318   -0.725103   -0.288649
      7          6           0       -0.617285   -1.492063    0.574448
      8          1           0       -1.826523   -1.203632   -1.116510
      9          1           0       -0.605085   -2.576126    0.476905
     10          1           0       -0.119153   -1.080318    1.445755
     11          6           0        1.829788    0.666842   -0.301922
     12          6           0        1.829578   -0.667289   -0.302040
     13          1           0        2.194634    1.232269    0.548306
     14          1           0        1.506729    1.237312   -1.161123
     15          1           0        1.506323   -1.237515   -1.161342
     16          1           0        2.194265   -1.232978    0.548076
 ---------------------------------------------------------------------
                    Distance matrix (angstroms):
                    1          2          3          4          5
     1  C    0.000000
     2  C    1.346134   0.000000
     3  H    1.084826   2.133268   0.000000
     4  H    1.088510   2.123278   1.847227   0.000000
     5  H    2.098757   1.087125   3.081479   2.431999   0.000000
     6  C    2.478070   1.450513   2.772174   3.461495   2.161994
     7  C    2.984290   2.478069   2.761339   4.069538   3.404408
     8  H    3.404407   2.161991   3.833767   4.280181   2.407677
     9  H    4.069538   3.461494   3.813796   5.152409   4.280182
    10  H    2.761341   2.772176   2.160699   3.813798   3.833769
    11  C    2.726833   3.139503   2.650035   3.190294   3.783996
    12  C    3.378912   3.433852   3.147318   4.129398   4.186908
    13  H    2.823672   3.637839   2.486137   3.105863   4.351991
    14  H    2.754443   2.992045   3.076195   2.988787   3.333417
    15  H    3.869432   3.541393   3.848482   4.656616   4.131476
    16  H    3.915382   4.099912   3.392365   4.727408   4.987422
                    6          7          8          9         10
     6  C    0.000000
     7  C    1.346133   0.000000
     8  H    1.087126   2.098759   0.000000
     9  H    2.123276   1.088510   2.432000   0.000000
    10  H    2.133267   1.084825   3.081480   1.847225   0.000000
    11  C    3.433901   3.378915   4.186984   4.129410   3.147271
    12  C    3.139457   2.726834   3.783926   3.190298   2.650082
    13  H    4.099937   3.915298   4.987477   4.727304   3.392210
    14  H    3.541526   3.869513   4.131678   4.656737   3.848469
    15  H    2.991989   2.754537   3.333320   2.988943   3.076335
    16  H    3.637738   2.823585   4.351832   3.105716   2.486168
                   11         12         13         14         15
    11  C    0.000000
    12  C    1.334131   0.000000
    13  H    1.084300   2.112978   0.000000
    14  H    1.080754   2.114180   1.842657   0.000000
    15  H    2.114192   1.080764   3.081640   2.474827   0.000000
    16  H    2.112973   1.084296   2.465248   3.081623   1.842659
                   16
    16  H    0.000000
 Symmetry turned off by external request.
 Stoichiometry    C6H10
 Framework group  C1[X(C6H10)]
 Deg. of freedom    42
 Full point group                 C1      NOp   1
 Rotational constants (GHZ):           4.0990389           2.8877220           1.9834634
 Leave Link  202 at Sun Apr 28 19:47:54 2024, MaxMem=   104857600 cpu:               0.0 elap:               0.5
 (Enter /mlatom/software/Gaussian/g16-avx2/l301.exe)
 Standard basis: STO-3G (5D, 7F)
 Ernie: Thresh=  0.10000D-02 Tol=  0.10000D-05 Strict=F.
    40 basis functions,   120 primitive gaussians,    40 cartesian basis functions
    23 alpha electrons       23 beta electrons
       nuclear repulsion energy       216.7677059145 Hartrees.
 IExCor=    0 DFT=F Ex=HF Corr=None ExCW=0 ScaHFX=  1.000000
 ScaDFX=  1.000000  1.000000  1.000000  1.000000 ScalE2=  1.000000  1.000000
 IRadAn=      5 IRanWt=     -1 IRanGd=            0 ICorTp=0 IEmpDi=  4
 NAtoms=   16 NActive=   16 NUniq=   16 SFac= 1.00D+00 NAtFMM=   60 NAOKFM=F Big=F
 Integral buffers will be    131072 words long.
 Raffenetti 1 integral format.
 Two-electron integral symmetry is turned off.
 Leave Link  301 at Sun Apr 28 19:47:55 2024, MaxMem=   104857600 cpu:               0.0 elap:               0.4
 (Enter /mlatom/software/Gaussian/g16-avx2/l402.exe)
 External calculation of energy and first derivatives.
 Running external command "/mlatom/software/miniconda3/bin/python /mlatom/software/mlatom/mlatom/interfaces/gaussian_interface.py model_predict_kwargs R"
         input file       "/mlatom/home/qhzhang/git/ts-analysis/calculations/_other/irc/da/ani/irc_1/Gau-43310.EIn"
         output file      "/mlatom/home/qhzhang/git/ts-analysis/calculations/_other/irc/da/ani/irc_1/Gau-43310.EOu"
         message file     "/mlatom/home/qhzhang/git/ts-analysis/calculations/_other/irc/da/ani/irc_1/Gau-43310.EMs"
         fchk file        "/mlatom/home/qhzhang/git/ts-analysis/calculations/_other/irc/da/ani/irc_1/Gau-43310.EFC"
         mat. el file     "/mlatom/home/qhzhang/git/ts-analysis/calculations/_other/irc/da/ani/irc_1/Gau-43310.EUF"
model loaded from /mlatom/home/qhzhang/git/ts-analysis/calculations/_other/irc/da/ani/irc/da_energy_iteration27.npz
 Recovered energy= -234.582018682     dipole=      0.000000000000      0.000000000000      0.000000000000
 Energy=    -234.582019     NIter=   0.
 Dipole moment=       0.000000       0.000000       0.000000
 Leave Link  402 at Sun Apr 28 19:48:01 2024, MaxMem=   104857600 cpu:               0.0 elap:               4.8
 (Enter /mlatom/software/Gaussian/g16-avx2/l716.exe)
 Dipole        = 0.00000000D+00 0.00000000D+00 0.00000000D+00
 -------------------------------------------------------------------
 Center     Atomic                   Forces (Hartrees/Bohr)
 Number     Number              X              Y              Z
 -------------------------------------------------------------------
      1        6          -0.007845949    0.002268058    0.000754857
      2        6           0.000060560    0.001617386    0.000968679
      3        1           0.000162712   -0.000265372    0.000553783
      4        1          -0.000372143   -0.000723931    0.000254165
      5        1           0.000023874   -0.000013403   -0.000070457
      6        6           0.000060365   -0.001616232    0.000966551
      7        6          -0.007846592   -0.002267246    0.000754139
      8        1           0.000024261    0.000013385   -0.000069872
      9        1          -0.000371864    0.000724038    0.000254133
     10        1           0.000163317    0.000266081    0.000554601
     11        6           0.007949399   -0.003353003   -0.002070505
     12        6           0.007947835    0.003347857   -0.002074881
     13        1           0.000677891    0.001036979    0.000639032
     14        1          -0.000657163    0.001077412   -0.001029777
     15        1          -0.000654876   -0.001073483   -0.001025473
     16        1           0.000678375   -0.001038524    0.000641027
 -------------------------------------------------------------------
 Cartesian Forces:  Max     0.007949399 RMS     0.002543439
 Z-matrix is all fixed cartesians, so copy forces.
 Leave Link  716 at Sun Apr 28 19:48:01 2024, MaxMem=   104857600 cpu:               0.0 elap:               0.4
 (Enter /mlatom/software/Gaussian/g16-avx2/l123.exe)
 IRC-IRC-IRC-IRC-IRC-IRC-IRC-IRC-IRC-IRC-IRC-IRC-IRC-IRC-IRC-IRC-IRC-IRC
 Reaction path inflection point has been passed.
   Previous lowest Hessian eigenvalue=   -0.0024132547
   Current lowest Hessian eigenvalue =    0.0000692040
 Pt 55 Step number   1 out of a maximum of  20
 Point Number:  11          Path Number:   2
                    CURRENT STRUCTURE
                Cartesian Coordinates (Ang):                
 ---------------------------------------------------------------------
 Center     Atomic                     Coordinates (Angstroms)
 Number     Number                        X           Y           Z
 ---------------------------------------------------------------------
      1          6                   -0.616925    1.492226    0.574409
      2          6                   -1.309140    0.725410   -0.288672
      3          1                   -0.118899    1.080381    1.445731
      4          1                   -0.604456    2.576283    0.476835
      5          1                   -1.826224    1.204045   -1.116545
      6          6                   -1.309318   -0.725103   -0.288649
      7          6                   -0.617285   -1.492063    0.574448
      8          1                   -1.826523   -1.203632   -1.116510
      9          1                   -0.605085   -2.576126    0.476905
     10          1                   -0.119153   -1.080318    1.445755
     11          6                    1.829788    0.666842   -0.301922
     12          6                    1.829578   -0.667289   -0.302040
     13          1                    2.194634    1.232269    0.548306
     14          1                    1.506729    1.237312   -1.161123
     15          1                    1.506323   -1.237515   -1.161342
     16          1                    2.194265   -1.232978    0.548076
 ---------------------------------------------------------------------
   CHANGE IN THE REACTION COORDINATE =    0.29047
   NET REACTION COORDINATE UP TO THIS POINT =    3.19960
  # OF POINTS ALONG THE PATH =  55
  # OF STEPS =   1

 Calculating another point on the path.
 Point Number 12 in REVERSE path direction.
 Using LQA Reaction Path Following.
   LQA: T_Est iteration completed in    4 iterations.
 IRC-IRC-IRC-IRC-IRC-IRC-IRC-IRC-IRC-IRC-IRC-IRC-IRC-IRC-IRC-IRC-IRC-IRC
 Leave Link  123 at Sun Apr 28 19:48:03 2024, MaxMem=   104857600 cpu:               0.1 elap:               1.2
 (Enter /mlatom/software/Gaussian/g16-avx2/l202.exe)
                          Input orientation:                          
 ---------------------------------------------------------------------
 Center     Atomic      Atomic             Coordinates (Angstroms)
 Number     Number       Type             X           Y           Z
 ---------------------------------------------------------------------
      1          6           0       -0.635440    1.496619    0.580259
      2          6           0       -1.310925    0.727658   -0.288069
      3          1           0       -0.126930    1.081063    1.447164
      4          1           0       -0.620529    2.578623    0.482166
      5          1           0       -1.826506    1.202863   -1.118898
      6          6           0       -1.311102   -0.727349   -0.288049
      7          6           0       -0.635801   -1.496451    0.580298
      8          1           0       -1.826803   -1.202452   -1.118862
      9          1           0       -0.621157   -2.578462    0.482237
     10          1           0       -0.127185   -1.080994    1.447189
     11          6           0        1.851272    0.664203   -0.308215
     12          6           0        1.851061   -0.664657   -0.308332
     13          1           0        2.210244    1.237977    0.542532
     14          1           0        1.501416    1.238494   -1.161649
     15          1           0        1.501026   -1.238685   -1.161865
     16          1           0        2.209876   -1.238691    0.542304
 ---------------------------------------------------------------------
                    Distance matrix (angstroms):
                    1          2          3          4          5
     1  C    0.000000
     2  C    1.342228   0.000000
     3  H    1.087563   2.130205   0.000000
     4  H    1.086544   2.120373   1.848661   0.000000
     5  H    2.095725   1.087162   3.080271   2.431152   0.000000
     6  C    2.481232   1.455007   2.771928   3.464040   2.163717
     7  C    2.993070   2.481232   2.766584   4.076284   3.404606
     8  H    3.404605   2.163716   3.832557   4.279593   2.405315
     9  H    4.076284   3.464041   3.816735   5.157085   4.279594
    10  H    2.766583   2.771928   2.162057   3.816734   3.832558
    11  C    2.768762   3.162898   2.677388   3.224827   3.804394
    12  C    3.412242   3.455012   3.168872   4.153614   4.203469
    13  H    2.857663   3.653623   2.511048   3.132771   4.365425
    14  H    2.768940   2.988872   3.079318   3.000121   3.328387
    15  H    3.883475   3.540776   3.852078   4.666442   4.127406
    16  H    3.947048   4.117292   3.414776   4.752547   5.001316
                    6          7          8          9         10
     6  C    0.000000
     7  C    1.342228   0.000000
     8  H    1.087161   2.095725   0.000000
     9  H    2.120374   1.086544   2.431153   0.000000
    10  H    2.130206   1.087564   3.080271   1.848662   0.000000
    11  C    3.455059   3.412244   4.203544   4.153624   3.168824
    12  C    3.162849   2.768759   3.804321   3.224827   2.677432
    13  H    4.117312   3.946961   5.001367   4.752439   3.414617
    14  H    3.540900   3.883555   4.127600   4.666565   3.852064
    15  H    2.988827   2.769044   3.328304   3.000289   3.079464
    16  H    3.653525   2.857580   4.365268   3.132626   2.511083
                   11         12         13         14         15
    11  C    0.000000
    12  C    1.328860   0.000000
    13  H    1.087129   2.114947   0.000000
    14  H    1.086535   2.114801   1.845717   0.000000
    15  H    2.114799   1.086532   3.088984   2.477179   0.000000
    16  H    2.114943   1.087127   2.476668   3.088983   1.845714
                   16
    16  H    0.000000
 Symmetry turned off by external request.
 Stoichiometry    C6H10
 Framework group  C1[X(C6H10)]
 Deg. of freedom    42
 Full point group                 C1      NOp   1
 Rotational constants (GHZ):           4.0821315           2.8393119           1.9588396
 Leave Link  202 at Sun Apr 28 19:48:07 2024, MaxMem=   104857600 cpu:               0.0 elap:               0.5
 (Enter /mlatom/software/Gaussian/g16-avx2/l301.exe)
 Standard basis: STO-3G (5D, 7F)
 Ernie: Thresh=  0.10000D-02 Tol=  0.10000D-05 Strict=F.
    40 basis functions,   120 primitive gaussians,    40 cartesian basis functions
    23 alpha electrons       23 beta electrons
       nuclear repulsion energy       216.1267027027 Hartrees.
 IExCor=    0 DFT=F Ex=HF Corr=None ExCW=0 ScaHFX=  1.000000
 ScaDFX=  1.000000  1.000000  1.000000  1.000000 ScalE2=  1.000000  1.000000
 IRadAn=      5 IRanWt=     -1 IRanGd=            0 ICorTp=0 IEmpDi=  4
 NAtoms=   16 NActive=   16 NUniq=   16 SFac= 1.00D+00 NAtFMM=   60 NAOKFM=F Big=F
 Integral buffers will be    131072 words long.
 Raffenetti 1 integral format.
 Two-electron integral symmetry is turned off.
 Leave Link  301 at Sun Apr 28 19:48:08 2024, MaxMem=   104857600 cpu:               0.1 elap:               0.4
 (Enter /mlatom/software/Gaussian/g16-avx2/l402.exe)
 External calculation of energy and first derivatives.
 Running external command "/mlatom/software/miniconda3/bin/python /mlatom/software/mlatom/mlatom/interfaces/gaussian_interface.py model_predict_kwargs R"
         input file       "/mlatom/home/qhzhang/git/ts-analysis/calculations/_other/irc/da/ani/irc_1/Gau-43310.EIn"
         output file      "/mlatom/home/qhzhang/git/ts-analysis/calculations/_other/irc/da/ani/irc_1/Gau-43310.EOu"
         message file     "/mlatom/home/qhzhang/git/ts-analysis/calculations/_other/irc/da/ani/irc_1/Gau-43310.EMs"
         fchk file        "/mlatom/home/qhzhang/git/ts-analysis/calculations/_other/irc/da/ani/irc_1/Gau-43310.EFC"
         mat. el file     "/mlatom/home/qhzhang/git/ts-analysis/calculations/_other/irc/da/ani/irc_1/Gau-43310.EUF"
model loaded from /mlatom/home/qhzhang/git/ts-analysis/calculations/_other/irc/da/ani/irc/da_energy_iteration27.npz
 Recovered energy= -234.583243900     dipole=      0.000000000000      0.000000000000      0.000000000000
 Energy=    -234.583244     NIter=   0.
 Dipole moment=       0.000000       0.000000       0.000000
 Leave Link  402 at Sun Apr 28 19:48:13 2024, MaxMem=   104857600 cpu:               0.0 elap:               4.8
 (Enter /mlatom/software/Gaussian/g16-avx2/l716.exe)
 Dipole        = 0.00000000D+00 0.00000000D+00 0.00000000D+00
 -------------------------------------------------------------------
 Center     Atomic                   Forces (Hartrees/Bohr)
 Number     Number              X              Y              Z
 -------------------------------------------------------------------
      1        6          -0.004537707    0.001294893    0.003585310
      2        6          -0.001440160   -0.001053181   -0.000848449
      3        1          -0.000703955    0.000512649   -0.000508074
      4        1          -0.000848446    0.000638239    0.000174920
      5        1          -0.000058399   -0.000032417   -0.000086821
      6        6          -0.001438941    0.001053418   -0.000848229
      7        6          -0.004537831   -0.001293182    0.003584779
      8        1          -0.000058397    0.000032478   -0.000087280
      9        1          -0.000848667   -0.000638010    0.000174900
     10        1          -0.000704224   -0.000512401   -0.000508058
     11        6           0.005314688    0.003750479   -0.002988698
     12        6           0.005315105   -0.003749727   -0.002987502
     13        1           0.001007785   -0.000131275   -0.000802455
     14        1           0.001265893   -0.001122842    0.001474765
     15        1           0.001265353    0.001120080    0.001472676
     16        1           0.001007904    0.000130796   -0.000801780
 -------------------------------------------------------------------
 Cartesian Forces:  Max     0.005315105 RMS     0.002032589
 Z-matrix is all fixed cartesians, so copy forces.
 Leave Link  716 at Sun Apr 28 19:48:14 2024, MaxMem=   104857600 cpu:               0.0 elap:               0.4
 (Enter /mlatom/software/Gaussian/g16-avx2/l123.exe)
 IRC-IRC-IRC-IRC-IRC-IRC-IRC-IRC-IRC-IRC-IRC-IRC-IRC-IRC-IRC-IRC-IRC-IRC
 Pt 56 Step number   1 out of a maximum of  20
 Point Number:  12          Path Number:   2
                    CURRENT STRUCTURE
                Cartesian Coordinates (Ang):                
 ---------------------------------------------------------------------
 Center     Atomic                     Coordinates (Angstroms)
 Number     Number                        X           Y           Z
 ---------------------------------------------------------------------
      1          6                   -0.635440    1.496619    0.580259
      2          6                   -1.310925    0.727658   -0.288069
      3          1                   -0.126930    1.081063    1.447164
      4          1                   -0.620529    2.578623    0.482166
      5          1                   -1.826506    1.202863   -1.118898
      6          6                   -1.311102   -0.727349   -0.288049
      7          6                   -0.635801   -1.496451    0.580298
      8          1                   -1.826803   -1.202452   -1.118862
      9          1                   -0.621157   -2.578462    0.482237
     10          1                   -0.127185   -1.080994    1.447189
     11          6                    1.851272    0.664203   -0.308215
     12          6                    1.851061   -0.664657   -0.308332
     13          1                    2.210244    1.237977    0.542532
     14          1                    1.501416    1.238494   -1.161649
     15          1                    1.501026   -1.238685   -1.161865
     16          1                    2.209876   -1.238691    0.542304
 ---------------------------------------------------------------------
   CHANGE IN THE REACTION COORDINATE =    0.28867
   NET REACTION COORDINATE UP TO THIS POINT =    3.48826
  # OF POINTS ALONG THE PATH =  56
  # OF STEPS =   1

 Calculating another point on the path.
 Point Number 13 in REVERSE path direction.
 Using LQA Reaction Path Following.
   LQA: T_Est iteration completed in    4 iterations.
 IRC-IRC-IRC-IRC-IRC-IRC-IRC-IRC-IRC-IRC-IRC-IRC-IRC-IRC-IRC-IRC-IRC-IRC
 Leave Link  123 at Sun Apr 28 19:48:16 2024, MaxMem=   104857600 cpu:               0.0 elap:               1.1
 (Enter /mlatom/software/Gaussian/g16-avx2/l202.exe)
                          Input orientation:                          
 ---------------------------------------------------------------------
 Center     Atomic      Atomic             Coordinates (Angstroms)
 Number     Number       Type             X           Y           Z
 ---------------------------------------------------------------------
      1          6           0       -0.648528    1.501109    0.586440
      2          6           0       -1.313194    0.726423   -0.289224
      3          1           0       -0.145169    1.089171    1.454746
      4          1           0       -0.665151    2.586722    0.496634
      5          1           0       -1.826538    1.199878   -1.122971
      6          6           0       -1.313370   -0.726113   -0.289206
      7          6           0       -0.648890   -1.500937    0.586476
      8          1           0       -1.826828   -1.199463   -1.122942
      9          1           0       -0.665780   -2.586549    0.496706
     10          1           0       -0.145423   -1.089090    1.454768
     11          6           0        1.866878    0.667237   -0.312883
     12          6           0        1.866671   -0.667697   -0.312998
     13          1           0        2.254309    1.243046    0.521554
     14          1           0        1.517236    1.234086   -1.162904
     15          1           0        1.516876   -1.234296   -1.163119
     16          1           0        2.253931   -1.243767    0.521342
 ---------------------------------------------------------------------
                    Distance matrix (angstroms):
                    1          2          3          4          5
     1  C    0.000000
     2  C    1.344882   0.000000
     3  H    1.084905   2.130094   0.000000
     4  H    1.089448   2.120907   1.852301   0.000000
     5  H    2.097745   1.087573   3.079591   2.428019   0.000000
     6  C    2.483805   1.452536   2.775125   3.465921   2.160543
     7  C    3.002046   2.483805   2.777821   4.088679   3.406387
     8  H    3.406386   2.160542   3.835400   4.278752   2.399342
     9  H    4.088679   3.465922   3.834031   5.173271   4.278755
    10  H    2.777811   2.775119   2.178261   3.834022   3.835395
    11  C    2.798462   3.180711   2.711249   3.278858   3.818543
    12  C    3.440775   3.472129   3.202968   4.202008   4.217071
    13  H    2.915008   3.694772   2.579151   3.213928   4.399959
    14  H    2.796791   3.005391   3.104300   3.057205   3.344188
    15  H    3.902867   3.552099   3.874804   4.702786   4.135847
    16  H    3.995353   4.154882   3.474121   4.816045   5.032434
                    6          7          8          9         10
     6  C    0.000000
     7  C    1.344881   0.000000
     8  H    1.087573   2.097745   0.000000
     9  H    2.120908   1.089448   2.428023   0.000000
    10  H    2.130093   1.084909   3.079592   1.852306   0.000000
    11  C    3.472169   3.440773   4.217135   4.202013   3.202909
    12  C    3.180666   2.798463   3.818470   3.278860   2.711289
    13  H    4.154907   3.995276   5.032484   4.815946   3.473969
    14  H    3.552191   3.902921   4.136004   4.702884   3.874763
    15  H    3.005373   2.796914   3.344127   3.057384   3.104458
    16  H    3.694670   2.914919   4.399798   3.213780   2.579168
                   11         12         13         14         15
    11  C    0.000000
    12  C    1.334934   0.000000
    13  H    1.085331   2.120773   0.000000
    14  H    1.079862   2.112161   1.838683   0.000000
    15  H    2.112163   1.079860   3.085313   2.468382   0.000000
    16  H    2.120773   1.085334   2.486813   3.085313   1.838681
                   16
    16  H    0.000000
 Symmetry turned off by external request.
 Stoichiometry    C6H10
 Framework group  C1[X(C6H10)]
 Deg. of freedom    42
 Full point group                 C1      NOp   1
 Rotational constants (GHZ):           4.0596955           2.7942782           1.9351713
 Leave Link  202 at Sun Apr 28 19:48:19 2024, MaxMem=   104857600 cpu:               0.0 elap:               0.5
 (Enter /mlatom/software/Gaussian/g16-avx2/l301.exe)
 Standard basis: STO-3G (5D, 7F)
 Ernie: Thresh=  0.10000D-02 Tol=  0.10000D-05 Strict=F.
    40 basis functions,   120 primitive gaussians,    40 cartesian basis functions
    23 alpha electrons       23 beta electrons
       nuclear repulsion energy       215.3485663655 Hartrees.
 IExCor=    0 DFT=F Ex=HF Corr=None ExCW=0 ScaHFX=  1.000000
 ScaDFX=  1.000000  1.000000  1.000000  1.000000 ScalE2=  1.000000  1.000000
 IRadAn=      5 IRanWt=     -1 IRanGd=            0 ICorTp=0 IEmpDi=  4
 NAtoms=   16 NActive=   16 NUniq=   16 SFac= 1.00D+00 NAtFMM=   60 NAOKFM=F Big=F
 Integral buffers will be    131072 words long.
 Raffenetti 1 integral format.
 Two-electron integral symmetry is turned off.
 Leave Link  301 at Sun Apr 28 19:48:20 2024, MaxMem=   104857600 cpu:               0.1 elap:               0.6
 (Enter /mlatom/software/Gaussian/g16-avx2/l402.exe)
 External calculation of energy and first derivatives.
 Running external command "/mlatom/software/miniconda3/bin/python /mlatom/software/mlatom/mlatom/interfaces/gaussian_interface.py model_predict_kwargs R"
         input file       "/mlatom/home/qhzhang/git/ts-analysis/calculations/_other/irc/da/ani/irc_1/Gau-43310.EIn"
         output file      "/mlatom/home/qhzhang/git/ts-analysis/calculations/_other/irc/da/ani/irc_1/Gau-43310.EOu"
         message file     "/mlatom/home/qhzhang/git/ts-analysis/calculations/_other/irc/da/ani/irc_1/Gau-43310.EMs"
         fchk file        "/mlatom/home/qhzhang/git/ts-analysis/calculations/_other/irc/da/ani/irc_1/Gau-43310.EFC"
         mat. el file     "/mlatom/home/qhzhang/git/ts-analysis/calculations/_other/irc/da/ani/irc_1/Gau-43310.EUF"
model loaded from /mlatom/home/qhzhang/git/ts-analysis/calculations/_other/irc/da/ani/irc/da_energy_iteration27.npz
 Recovered energy= -234.584215918     dipole=      0.000000000000      0.000000000000      0.000000000000
 Energy=    -234.584216     NIter=   0.
 Dipole moment=       0.000000       0.000000       0.000000
 Leave Link  402 at Sun Apr 28 19:48:27 2024, MaxMem=   104857600 cpu:               0.0 elap:               6.1
 (Enter /mlatom/software/Gaussian/g16-avx2/l716.exe)
 Dipole        = 0.00000000D+00 0.00000000D+00 0.00000000D+00
 -------------------------------------------------------------------
 Center     Atomic                   Forces (Hartrees/Bohr)
 Number     Number              X              Y              Z
 -------------------------------------------------------------------
      1        6          -0.007946879    0.002257096    0.000171739
      2        6           0.000383574    0.001992227    0.000923190
      3        1           0.000606807   -0.000369084    0.000697889
      4        1           0.000242642   -0.001347326    0.000224207
      5        1           0.000106930   -0.000024830    0.000064155
      6        6           0.000383269   -0.001992355    0.000922135
      7        6          -0.007945498   -0.002253341    0.000173639
      8        1           0.000106887    0.000024922    0.000064051
      9        1           0.000242695    0.001346861    0.000224109
     10        1           0.000605647    0.000367671    0.000696380
     11        6           0.007747503   -0.006222586   -0.000797538
     12        6           0.007751867    0.006220185   -0.000791953
     13        1           0.000171702    0.000397038    0.000584993
     14        1          -0.001313141    0.001282321   -0.001868934
     15        1          -0.001315912   -0.001283253   -0.001871032
     16        1           0.000171901   -0.000395550    0.000582973
 -------------------------------------------------------------------
 Cartesian Forces:  Max     0.007946879 RMS     0.002760943
 Z-matrix is all fixed cartesians, so copy forces.
 Leave Link  716 at Sun Apr 28 19:48:28 2024, MaxMem=   104857600 cpu:               0.0 elap:               0.4
 (Enter /mlatom/software/Gaussian/g16-avx2/l123.exe)
 IRC-IRC-IRC-IRC-IRC-IRC-IRC-IRC-IRC-IRC-IRC-IRC-IRC-IRC-IRC-IRC-IRC-IRC
 Reaction path inflection point has been passed.
   Previous lowest Hessian eigenvalue=   -0.0069511765
   Current lowest Hessian eigenvalue =    0.0005421969
 Pt 57 Step number   1 out of a maximum of  20
 Point Number:  13          Path Number:   2
                    CURRENT STRUCTURE
                Cartesian Coordinates (Ang):                
 ---------------------------------------------------------------------
 Center     Atomic                     Coordinates (Angstroms)
 Number     Number                        X           Y           Z
 ---------------------------------------------------------------------
      1          6                   -0.648528    1.501109    0.586440
      2          6                   -1.313194    0.726423   -0.289224
      3          1                   -0.145169    1.089171    1.454746
      4          1                   -0.665151    2.586722    0.496634
      5          1                   -1.826538    1.199878   -1.122971
      6          6                   -1.313370   -0.726113   -0.289206
      7          6                   -0.648890   -1.500937    0.586476
      8          1                   -1.826828   -1.199463   -1.122942
      9          1                   -0.665780   -2.586549    0.496706
     10          1                   -0.145423   -1.089090    1.454768
     11          6                    1.866878    0.667237   -0.312883
     12          6                    1.866671   -0.667697   -0.312998
     13          1                    2.254309    1.243046    0.521554
     14          1                    1.517236    1.234086   -1.162904
     15          1                    1.516876   -1.234296   -1.163119
     16          1                    2.253931   -1.243767    0.521342
 ---------------------------------------------------------------------
   CHANGE IN THE REACTION COORDINATE =    0.28803
   NET REACTION COORDINATE UP TO THIS POINT =    3.77629
  # OF POINTS ALONG THE PATH =  57
  # OF STEPS =   1

 Calculating another point on the path.
 Point Number 14 in REVERSE path direction.
 Using LQA Reaction Path Following.
   LQA: T_Est iteration completed in    4 iterations.
 IRC-IRC-IRC-IRC-IRC-IRC-IRC-IRC-IRC-IRC-IRC-IRC-IRC-IRC-IRC-IRC-IRC-IRC
 Leave Link  123 at Sun Apr 28 19:48:30 2024, MaxMem=   104857600 cpu:               0.1 elap:               1.2
 (Enter /mlatom/software/Gaussian/g16-avx2/l202.exe)
                          Input orientation:                          
 ---------------------------------------------------------------------
 Center     Atomic      Atomic             Coordinates (Angstroms)
 Number     Number       Type             X           Y           Z
 ---------------------------------------------------------------------
      1          6           0       -0.667391    1.505178    0.592733
      2          6           0       -1.314901    0.728643   -0.289063
      3          1           0       -0.150542    1.089780    1.455476
      4          1           0       -0.674383    2.587391    0.500481
      5          1           0       -1.826935    1.199372   -1.124714
      6          6           0       -1.315075   -0.728333   -0.289045
      7          6           0       -0.667753   -1.505002    0.592771
      8          1           0       -1.827220   -1.198955   -1.124690
      9          1           0       -0.675015   -2.587216    0.500549
     10          1           0       -0.150817   -1.089709    1.455507
     11          6           0        1.887489    0.663322   -0.318917
     12          6           0        1.887284   -0.663785   -0.319030
     13          1           0        2.272201    1.243863    0.515209
     14          1           0        1.513860    1.232264   -1.164417
     15          1           0        1.513435   -1.232479   -1.164626
     16          1           0        2.271852   -1.244585    0.514976
 ---------------------------------------------------------------------
                    Distance matrix (angstroms):
                    1          2          3          4          5
     1  C    0.000000
     2  C    1.341581   0.000000
     3  H    1.088124   2.128278   0.000000
     4  H    1.086160   2.118629   1.851827   0.000000
     5  H    2.094680   1.087234   3.078909   2.428216   0.000000
     6  C    2.487087   1.456976   2.775793   3.468122   2.162497
     7  C    3.010180   2.487087   2.782922   4.093439   3.406919
     8  H    3.406917   2.162494   3.834946   4.278626   2.398328
     9  H    4.093440   3.468121   3.835004   5.174608   4.278628
    10  H    2.782925   2.775792   2.179489   3.835005   3.834946
    11  C    2.840289   3.203195   2.735673   3.307060   3.838438
    12  C    3.473051   3.491954   3.221272   4.219465   4.232719
    13  H    2.952203   3.712089   2.603369   3.238463   4.415229
    14  H    2.814235   3.003625   3.107149   3.065398   3.341193
    15  H    3.916514   3.551351   3.876421   4.706436   4.132018
    16  H    4.025716   4.171918   3.493106   4.833689   5.045945
                    6          7          8          9         10
     6  C    0.000000
     7  C    1.341581   0.000000
     8  H    1.087235   2.094684   0.000000
     9  H    2.118628   1.086161   2.428219   0.000000
    10  H    2.128275   1.088120   3.078909   1.851825   0.000000
    11  C    3.491993   3.473048   4.232778   4.219472   3.221240
    12  C    3.203150   2.840289   3.838364   3.307064   2.735736
    13  H    4.171922   4.025618   5.045977   4.833577   3.492956
    14  H    3.551491   3.916602   4.132217   4.706561   3.876430
    15  H    3.003544   2.814302   3.341062   3.065523   3.107284
    16  H    3.712009   2.952143   4.415085   3.238347   2.603442
                   11         12         13         14         15
    11  C    0.000000
    12  C    1.327107   0.000000
    13  H    1.086644   2.117365   0.000000
    14  H    1.085433   2.109295   1.842921   0.000000
    15  H    2.109313   1.085453   3.087044   2.464743   0.000000
    16  H    2.117361   1.086640   2.488447   3.087020   1.842933
                   16
    16  H    0.000000
 Symmetry turned off by external request.
 Stoichiometry    C6H10
 Framework group  C1[X(C6H10)]
 Deg. of freedom    42
 Full point group                 C1      NOp   1
 Rotational constants (GHZ):           4.0466686           2.7484551           1.9123899
 Leave Link  202 at Sun Apr 28 19:48:33 2024, MaxMem=   104857600 cpu:               0.0 elap:               0.5
 (Enter /mlatom/software/Gaussian/g16-avx2/l301.exe)
 Standard basis: STO-3G (5D, 7F)
 Ernie: Thresh=  0.10000D-02 Tol=  0.10000D-05 Strict=F.
    40 basis functions,   120 primitive gaussians,    40 cartesian basis functions
    23 alpha electrons       23 beta electrons
       nuclear repulsion energy       214.7952146944 Hartrees.
 IExCor=    0 DFT=F Ex=HF Corr=None ExCW=0 ScaHFX=  1.000000
 ScaDFX=  1.000000  1.000000  1.000000  1.000000 ScalE2=  1.000000  1.000000
 IRadAn=      5 IRanWt=     -1 IRanGd=            0 ICorTp=0 IEmpDi=  4
 NAtoms=   16 NActive=   16 NUniq=   16 SFac= 1.00D+00 NAtFMM=   60 NAOKFM=F Big=F
 Integral buffers will be    131072 words long.
 Raffenetti 1 integral format.
 Two-electron integral symmetry is turned off.
 Leave Link  301 at Sun Apr 28 19:48:33 2024, MaxMem=   104857600 cpu:               0.1 elap:               0.4
 (Enter /mlatom/software/Gaussian/g16-avx2/l402.exe)
 External calculation of energy and first derivatives.
 Running external command "/mlatom/software/miniconda3/bin/python /mlatom/software/mlatom/mlatom/interfaces/gaussian_interface.py model_predict_kwargs R"
         input file       "/mlatom/home/qhzhang/git/ts-analysis/calculations/_other/irc/da/ani/irc_1/Gau-43310.EIn"
         output file      "/mlatom/home/qhzhang/git/ts-analysis/calculations/_other/irc/da/ani/irc_1/Gau-43310.EOu"
         message file     "/mlatom/home/qhzhang/git/ts-analysis/calculations/_other/irc/da/ani/irc_1/Gau-43310.EMs"
         fchk file        "/mlatom/home/qhzhang/git/ts-analysis/calculations/_other/irc/da/ani/irc_1/Gau-43310.EFC"
         mat. el file     "/mlatom/home/qhzhang/git/ts-analysis/calculations/_other/irc/da/ani/irc_1/Gau-43310.EUF"
model loaded from /mlatom/home/qhzhang/git/ts-analysis/calculations/_other/irc/da/ani/irc/da_energy_iteration27.npz
 Recovered energy= -234.585288541     dipole=      0.000000000000      0.000000000000      0.000000000000
 Energy=    -234.585289     NIter=   0.
 Dipole moment=       0.000000       0.000000       0.000000
 Leave Link  402 at Sun Apr 28 19:48:39 2024, MaxMem=   104857600 cpu:               0.0 elap:               5.5
 (Enter /mlatom/software/Gaussian/g16-avx2/l716.exe)
 Dipole        = 0.00000000D+00 0.00000000D+00 0.00000000D+00
 -------------------------------------------------------------------
 Center     Atomic                   Forces (Hartrees/Bohr)
 Number     Number              X              Y              Z
 -------------------------------------------------------------------
      1        6          -0.003938143    0.000149756    0.002785589
      2        6          -0.000795808   -0.000637176   -0.000288551
      3        1          -0.000679842    0.000463657   -0.000520343
      4        1          -0.000511749    0.000844443    0.000150156
      5        1          -0.000092479   -0.000024150   -0.000173035
      6        6          -0.000794937    0.000638339   -0.000289369
      7        6          -0.003940901   -0.000151563    0.002783034
      8        1          -0.000092189    0.000024085   -0.000172495
      9        1          -0.000511803   -0.000843791    0.000150168
     10        1          -0.000677942   -0.000461754   -0.000517936
     11        6           0.004797801    0.003430103   -0.002480048
     12        6           0.004791058   -0.003436281   -0.002491202
     13        1           0.000576303    0.000222417   -0.000212025
     14        1           0.000643881   -0.000456478    0.000738290
     15        1           0.000650951    0.000462699    0.000747563
     16        1           0.000575801   -0.000224304   -0.000209796
 -------------------------------------------------------------------
 Cartesian Forces:  Max     0.004797801 RMS     0.001695073
 Z-matrix is all fixed cartesians, so copy forces.
 Leave Link  716 at Sun Apr 28 19:48:40 2024, MaxMem=   104857600 cpu:               0.0 elap:               0.4
 (Enter /mlatom/software/Gaussian/g16-avx2/l123.exe)
 IRC-IRC-IRC-IRC-IRC-IRC-IRC-IRC-IRC-IRC-IRC-IRC-IRC-IRC-IRC-IRC-IRC-IRC
 Pt 58 Step number   1 out of a maximum of  20
 Point Number:  14          Path Number:   2
                    CURRENT STRUCTURE
                Cartesian Coordinates (Ang):                
 ---------------------------------------------------------------------
 Center     Atomic                     Coordinates (Angstroms)
 Number     Number                        X           Y           Z
 ---------------------------------------------------------------------
      1          6                   -0.667391    1.505178    0.592733
      2          6                   -1.314901    0.728643   -0.289063
      3          1                   -0.150542    1.089780    1.455476
      4          1                   -0.674383    2.587391    0.500481
      5          1                   -1.826935    1.199372   -1.124714
      6          6                   -1.315075   -0.728333   -0.289045
      7          6                   -0.667753   -1.505002    0.592771
      8          1                   -1.827220   -1.198955   -1.124690
      9          1                   -0.675015   -2.587216    0.500549
     10          1                   -0.150817   -1.089709    1.455507
     11          6                    1.887489    0.663322   -0.318917
     12          6                    1.887284   -0.663785   -0.319030
     13          1                    2.272201    1.243863    0.515209
     14          1                    1.513860    1.232264   -1.164417
     15          1                    1.513435   -1.232479   -1.164626
     16          1                    2.271852   -1.244585    0.514976
 ---------------------------------------------------------------------
   CHANGE IN THE REACTION COORDINATE =    0.28376
   NET REACTION COORDINATE UP TO THIS POINT =    4.06004
  # OF POINTS ALONG THE PATH =  58
  # OF STEPS =   1

 Calculating another point on the path.
 Point Number 15 in REVERSE path direction.
 Using LQA Reaction Path Following.
   LQA: T_Est iteration completed in    4 iterations.
 IRC-IRC-IRC-IRC-IRC-IRC-IRC-IRC-IRC-IRC-IRC-IRC-IRC-IRC-IRC-IRC-IRC-IRC
 Leave Link  123 at Sun Apr 28 19:48:42 2024, MaxMem=   104857600 cpu:               0.0 elap:               1.1
 (Enter /mlatom/software/Gaussian/g16-avx2/l202.exe)
                          Input orientation:                          
 ---------------------------------------------------------------------
 Center     Atomic      Atomic             Coordinates (Angstroms)
 Number     Number       Type             X           Y           Z
 ---------------------------------------------------------------------
      1          6           0       -0.683476    1.508724    0.599595
      2          6           0       -1.317176    0.728439   -0.289699
      3          1           0       -0.168478    1.095643    1.461157
      4          1           0       -0.705471    2.593372    0.512291
      5          1           0       -1.826408    1.196399   -1.129506
      6          6           0       -1.317348   -0.728125   -0.289684
      7          6           0       -0.683840   -1.508545    0.599629
      8          1           0       -1.826692   -1.195983   -1.129477
      9          1           0       -0.706107   -2.593190    0.512362
     10          1           0       -0.168729   -1.095554    1.461182
     11          6           0        1.906519    0.665957   -0.324941
     12          6           0        1.906312   -0.666431   -0.325052
     13          1           0        2.304391    1.251101    0.501242
     14          1           0        1.522134    1.231482   -1.165536
     15          1           0        1.521849   -1.231687   -1.165735
     16          1           0        2.304009   -1.251823    0.501045
 ---------------------------------------------------------------------
                    Distance matrix (angstroms):
                    1          2          3          4          5
     1  C    0.000000
     2  C    1.342112   0.000000
     3  H    1.085426   2.125992   0.000000
     4  H    1.088378   2.120224   1.852539   0.000000
     5  H    2.096099   1.087924   3.077405   2.429719   0.000000
     6  C    2.489198   1.456564   2.776955   3.471297   2.160609
     7  C    3.017269   2.489200   2.790990   4.102904   3.407652
     8  H    3.407650   2.160610   3.835702   4.279224   2.392382
     9  H    4.102904   3.471300   3.846654   5.186562   4.279227
    10  H    2.790979   2.776953   2.191197   3.846643   3.835702
    11  C    2.876299   3.224494   2.771352   3.352370   3.855313
    12  C    3.506176   3.512518   3.255795   4.260149   4.248585
    13  H    3.000565   3.743596   2.657195   3.295616   4.441377
    14  H    2.838532   3.013606   3.126682   3.103558   3.348919
    15  H    3.935695   3.559438   3.895411   4.733688   4.136150
    16  H    4.068832   4.202344   3.541977   4.882891   5.070782
                    6          7          8          9         10
     6  C    0.000000
     7  C    1.342113   0.000000
     8  H    1.087922   2.096095   0.000000
     9  H    2.120226   1.088378   2.429718   0.000000
    10  H    2.125997   1.085437   3.077408   1.852552   0.000000
    11  C    3.512553   3.506173   4.248643   4.260156   3.255735
    12  C    3.224444   2.876296   3.855235   3.352372   2.771385
    13  H    4.202368   4.068766   5.070830   4.882806   3.541835
    14  H    3.559471   3.935718   4.136245   4.733763   3.895351
    15  H    3.013649   2.838702   3.348928   3.103786   3.126864
    16  H    3.743494   3.000478   4.441218   3.295481   2.657201
                   11         12         13         14         15
    11  C    0.000000
    12  C    1.332387   0.000000
    13  H    1.087784   2.125596   0.000000
    14  H    1.083591   2.110942   1.841320   0.000000
    15  H    2.110913   1.083546   3.091184   2.463168   0.000000
    16  H    2.125589   1.087789   2.502924   3.091217   1.841286
                   16
    16  H    0.000000
 Symmetry turned off by external request.
 Stoichiometry    C6H10
 Framework group  C1[X(C6H10)]
 Deg. of freedom    42
 Full point group                 C1      NOp   1
 Rotational constants (GHZ):           4.0256752           2.7015276           1.8879402
 Leave Link  202 at Sun Apr 28 19:48:46 2024, MaxMem=   104857600 cpu:               0.0 elap:               0.5
 (Enter /mlatom/software/Gaussian/g16-avx2/l301.exe)
 Standard basis: STO-3G (5D, 7F)
 Ernie: Thresh=  0.10000D-02 Tol=  0.10000D-05 Strict=F.
    40 basis functions,   120 primitive gaussians,    40 cartesian basis functions
    23 alpha electrons       23 beta electrons
       nuclear repulsion energy       214.0110177955 Hartrees.
 IExCor=    0 DFT=F Ex=HF Corr=None ExCW=0 ScaHFX=  1.000000
 ScaDFX=  1.000000  1.000000  1.000000  1.000000 ScalE2=  1.000000  1.000000
 IRadAn=      5 IRanWt=     -1 IRanGd=            0 ICorTp=0 IEmpDi=  4
 NAtoms=   16 NActive=   16 NUniq=   16 SFac= 1.00D+00 NAtFMM=   60 NAOKFM=F Big=F
 Integral buffers will be    131072 words long.
 Raffenetti 1 integral format.
 Two-electron integral symmetry is turned off.
 Leave Link  301 at Sun Apr 28 19:48:47 2024, MaxMem=   104857600 cpu:               0.1 elap:               0.4
 (Enter /mlatom/software/Gaussian/g16-avx2/l402.exe)
 External calculation of energy and first derivatives.
 Running external command "/mlatom/software/miniconda3/bin/python /mlatom/software/mlatom/mlatom/interfaces/gaussian_interface.py model_predict_kwargs R"
         input file       "/mlatom/home/qhzhang/git/ts-analysis/calculations/_other/irc/da/ani/irc_1/Gau-43310.EIn"
         output file      "/mlatom/home/qhzhang/git/ts-analysis/calculations/_other/irc/da/ani/irc_1/Gau-43310.EOu"
         message file     "/mlatom/home/qhzhang/git/ts-analysis/calculations/_other/irc/da/ani/irc_1/Gau-43310.EMs"
         fchk file        "/mlatom/home/qhzhang/git/ts-analysis/calculations/_other/irc/da/ani/irc_1/Gau-43310.EFC"
         mat. el file     "/mlatom/home/qhzhang/git/ts-analysis/calculations/_other/irc/da/ani/irc_1/Gau-43310.EUF"
model loaded from /mlatom/home/qhzhang/git/ts-analysis/calculations/_other/irc/da/ani/irc/da_energy_iteration27.npz
 Recovered energy= -234.586120473     dipole=      0.000000000000      0.000000000000      0.000000000000
 Energy=    -234.586120     NIter=   0.
 Dipole moment=       0.000000       0.000000       0.000000
 Leave Link  402 at Sun Apr 28 19:48:53 2024, MaxMem=   104857600 cpu:               0.0 elap:               5.1
 (Enter /mlatom/software/Gaussian/g16-avx2/l716.exe)
 Dipole        = 0.00000000D+00 0.00000000D+00 0.00000000D+00
 -------------------------------------------------------------------
 Center     Atomic                   Forces (Hartrees/Bohr)
 Number     Number              X              Y              Z
 -------------------------------------------------------------------
      1        6          -0.005418079    0.001822250    0.000400665
      2        6          -0.000382306    0.000734405   -0.000035007
      3        1           0.000624922   -0.000476156    0.000905871
      4        1           0.000002205   -0.000831570    0.000189129
      5        1           0.000151110   -0.000045132    0.000212004
      6        6          -0.000382206   -0.000735843   -0.000033501
      7        6          -0.005414301   -0.001815957    0.000405101
      8        1           0.000150681    0.000045248    0.000210680
      9        1           0.000002394    0.000831202    0.000189076
     10        1           0.000620889    0.000472253    0.000900719
     11        6           0.005245580   -0.003691914   -0.000590151
     12        6           0.005263691    0.003705014   -0.000563092
     13        1          -0.000130653   -0.000411792   -0.000486252
     14        1          -0.000093318    0.000292491   -0.000596674
     15        1          -0.000110436   -0.000309060   -0.000620102
     16        1          -0.000130175    0.000414565   -0.000488460
 -------------------------------------------------------------------
 Cartesian Forces:  Max     0.005418079 RMS     0.001805532
 Z-matrix is all fixed cartesians, so copy forces.
 Leave Link  716 at Sun Apr 28 19:48:54 2024, MaxMem=   104857600 cpu:               0.0 elap:               0.4
 (Enter /mlatom/software/Gaussian/g16-avx2/l123.exe)
 IRC-IRC-IRC-IRC-IRC-IRC-IRC-IRC-IRC-IRC-IRC-IRC-IRC-IRC-IRC-IRC-IRC-IRC
 Reaction path inflection point has been passed.
   Previous lowest Hessian eigenvalue=   -0.0008977043
   Current lowest Hessian eigenvalue =    0.0006598597
 Pt 59 Step number   1 out of a maximum of  20
 Point Number:  15          Path Number:   2
                    CURRENT STRUCTURE
                Cartesian Coordinates (Ang):                
 ---------------------------------------------------------------------
 Center     Atomic                     Coordinates (Angstroms)
 Number     Number                        X           Y           Z
 ---------------------------------------------------------------------
      1          6                   -0.683476    1.508724    0.599595
      2          6                   -1.317176    0.728439   -0.289699
      3          1                   -0.168478    1.095643    1.461157
      4          1                   -0.705471    2.593372    0.512291
      5          1                   -1.826408    1.196399   -1.129506
      6          6                   -1.317348   -0.728125   -0.289684
      7          6                   -0.683840   -1.508545    0.599629
      8          1                   -1.826692   -1.195983   -1.129477
      9          1                   -0.706107   -2.593190    0.512362
     10          1                   -0.168729   -1.095554    1.461182
     11          6                    1.906519    0.665957   -0.324941
     12          6                    1.906312   -0.666431   -0.325052
     13          1                    2.304391    1.251101    0.501242
     14          1                    1.522134    1.231482   -1.165536
     15          1                    1.521849   -1.231687   -1.165735
     16          1                    2.304009   -1.251823    0.501045
 ---------------------------------------------------------------------
   CHANGE IN THE REACTION COORDINATE =    0.28895
   NET REACTION COORDINATE UP TO THIS POINT =    4.34900
  # OF POINTS ALONG THE PATH =  59
  # OF STEPS =   1

 Calculating another point on the path.
 Point Number 16 in REVERSE path direction.
 Using LQA Reaction Path Following.
   LQA: T_Est iteration completed in    4 iterations.
 IRC-IRC-IRC-IRC-IRC-IRC-IRC-IRC-IRC-IRC-IRC-IRC-IRC-IRC-IRC-IRC-IRC-IRC
 Leave Link  123 at Sun Apr 28 19:48:56 2024, MaxMem=   104857600 cpu:               0.1 elap:               1.1
 (Enter /mlatom/software/Gaussian/g16-avx2/l202.exe)
                          Input orientation:                          
 ---------------------------------------------------------------------
 Center     Atomic      Atomic             Coordinates (Angstroms)
 Number     Number       Type             X           Y           Z
 ---------------------------------------------------------------------
      1          6           0       -0.702016    1.511966    0.606575
      2          6           0       -1.319803    0.729750   -0.290139
      3          1           0       -0.173808    1.094481    1.462963
      4          1           0       -0.721531    2.594796    0.521026
      5          1           0       -1.827986    1.196434   -1.130305
      6          6           0       -1.319975   -0.729440   -0.290122
      7          6           0       -0.702387   -1.511783    0.606616
      8          1           0       -1.828258   -1.196013   -1.130292
      9          1           0       -0.722163   -2.594610    0.521083
     10          1           0       -0.174111   -1.094422    1.463008
     11          6           0        1.926884    0.662876   -0.331468
     12          6           0        1.926690   -0.663342   -0.331578
     13          1           0        2.322632    1.249492    0.494069
     14          1           0        1.536504    1.228863   -1.168296
     15          1           0        1.535948   -1.229107   -1.168492
     16          1           0        2.322294   -1.250232    0.493832
 ---------------------------------------------------------------------
                    Distance matrix (angstroms):
                    1          2          3          4          5
     1  C    0.000000
     2  C    1.340753   0.000000
     3  H    1.089357   2.125959   0.000000
     4  H    1.086379   2.119980   1.854236   0.000000
     5  H    2.093829   1.087163   3.077619   2.430340   0.000000
     6  C    2.491955   1.459189   2.777354   3.473707   2.161706
     7  C    3.023749   2.491955   2.793803   4.107515   3.408564
     8  H    3.408559   2.161699   3.835172   4.280412   2.392447
     9  H    4.107515   3.473704   3.846716   5.189406   4.280414
    10  H    2.793818   2.777362   2.188903   3.846730   3.835179
    11  C    2.917533   3.247639   2.796279   3.387206   3.875806
    12  C    3.538671   3.533007   3.274509   4.284328   4.265480
    13  H    3.038100   3.761974   2.682349   3.328288   4.457470
    14  H    2.870765   3.029648   3.141138   3.133417   3.364861
    15  H    3.958892   3.572665   3.904725   4.751096   4.147380
    16  H    4.097426   4.218982   3.559131   4.904064   5.084173
                    6          7          8          9         10
     6  C    0.000000
     7  C    1.340752   0.000000
     8  H    1.087165   2.093836   0.000000
     9  H    2.119975   1.086380   2.430342   0.000000
    10  H    2.125954   1.089345   3.077617   1.854224   0.000000
    11  C    3.533037   3.538673   4.265522   4.284333   3.274511
    12  C    3.247603   2.917551   3.875734   3.387218   2.796379
    13  H    4.218971   4.097322   5.084185   4.903940   3.559003
    14  H    3.572900   3.959051   4.147661   4.751266   3.904820
    15  H    3.029439   2.870724   3.364586   3.133421   3.141215
    16  H    3.761906   3.038062   4.457331   3.328184   2.682465
                   11         12         13         14         15
    11  C    0.000000
    12  C    1.326217   0.000000
    13  H    1.087312   2.120707   0.000000
    14  H    1.083060   2.105417   1.838989   0.000000
    15  H    2.105478   1.083141   3.086492   2.457970   0.000000
    16  H    2.120719   1.087311   2.499724   3.086430   1.839050
                   16
    16  H    0.000000
 Symmetry turned off by external request.
 Stoichiometry    C6H10
 Framework group  C1[X(C6H10)]
 Deg. of freedom    42
 Full point group                 C1      NOp   1
 Rotational constants (GHZ):           4.0142048           2.6544339           1.8649291
 Leave Link  202 at Sun Apr 28 19:49:00 2024, MaxMem=   104857600 cpu:               0.0 elap:               0.5
 (Enter /mlatom/software/Gaussian/g16-avx2/l301.exe)
 Standard basis: STO-3G (5D, 7F)
 Ernie: Thresh=  0.10000D-02 Tol=  0.10000D-05 Strict=F.
    40 basis functions,   120 primitive gaussians,    40 cartesian basis functions
    23 alpha electrons       23 beta electrons
       nuclear repulsion energy       213.4324044405 Hartrees.
 IExCor=    0 DFT=F Ex=HF Corr=None ExCW=0 ScaHFX=  1.000000
 ScaDFX=  1.000000  1.000000  1.000000  1.000000 ScalE2=  1.000000  1.000000
 IRadAn=      5 IRanWt=     -1 IRanGd=            0 ICorTp=0 IEmpDi=  4
 NAtoms=   16 NActive=   16 NUniq=   16 SFac= 1.00D+00 NAtFMM=   60 NAOKFM=F Big=F
 Integral buffers will be    131072 words long.
 Raffenetti 1 integral format.
 Two-electron integral symmetry is turned off.
 Leave Link  301 at Sun Apr 28 19:49:01 2024, MaxMem=   104857600 cpu:               0.0 elap:               0.4
 (Enter /mlatom/software/Gaussian/g16-avx2/l402.exe)
 External calculation of energy and first derivatives.
 Running external command "/mlatom/software/miniconda3/bin/python /mlatom/software/mlatom/mlatom/interfaces/gaussian_interface.py model_predict_kwargs R"
         input file       "/mlatom/home/qhzhang/git/ts-analysis/calculations/_other/irc/da/ani/irc_1/Gau-43310.EIn"
         output file      "/mlatom/home/qhzhang/git/ts-analysis/calculations/_other/irc/da/ani/irc_1/Gau-43310.EOu"
         message file     "/mlatom/home/qhzhang/git/ts-analysis/calculations/_other/irc/da/ani/irc_1/Gau-43310.EMs"
         fchk file        "/mlatom/home/qhzhang/git/ts-analysis/calculations/_other/irc/da/ani/irc_1/Gau-43310.EFC"
         mat. el file     "/mlatom/home/qhzhang/git/ts-analysis/calculations/_other/irc/da/ani/irc_1/Gau-43310.EUF"
model loaded from /mlatom/home/qhzhang/git/ts-analysis/calculations/_other/irc/da/ani/irc/da_energy_iteration27.npz
 Recovered energy= -234.586862744     dipole=      0.000000000000      0.000000000000      0.000000000000
 Energy=    -234.586863     NIter=   0.
 Dipole moment=       0.000000       0.000000       0.000000
 Leave Link  402 at Sun Apr 28 19:49:07 2024, MaxMem=   104857600 cpu:               0.1 elap:               4.8
 (Enter /mlatom/software/Gaussian/g16-avx2/l716.exe)
 Dipole        = 0.00000000D+00 0.00000000D+00 0.00000000D+00
 -------------------------------------------------------------------
 Center     Atomic                   Forces (Hartrees/Bohr)
 Number     Number              X              Y              Z
 -------------------------------------------------------------------
      1        6          -0.002193516   -0.000458222    0.002260033
      2        6          -0.000747842   -0.000415963   -0.000097547
      3        1          -0.000924380    0.000756265   -0.000689728
      4        1          -0.000402686    0.000383253    0.000286639
      5        1          -0.000173754    0.000033316   -0.000272693
      6        6          -0.000748103    0.000418696   -0.000101095
      7        6          -0.002199170    0.000452584    0.002255150
      8        1          -0.000173121   -0.000033467   -0.000270761
      9        1          -0.000402784   -0.000383685    0.000286450
     10        1          -0.000919830   -0.000751452   -0.000683622
     11        6           0.004622106    0.002648518   -0.000105578
     12        6           0.004591723   -0.002678116   -0.000146356
     13        1           0.000165069   -0.000196438   -0.000209028
     14        1          -0.000342868    0.000652712   -0.001171724
     15        1          -0.000313049   -0.000624111   -0.001132208
     16        1           0.000162207    0.000196114   -0.000207931
 -------------------------------------------------------------------
 Cartesian Forces:  Max     0.004622106 RMS     0.001346963
 Z-matrix is all fixed cartesians, so copy forces.
 Leave Link  716 at Sun Apr 28 19:49:08 2024, MaxMem=   104857600 cpu:               0.0 elap:               0.5
 (Enter /mlatom/software/Gaussian/g16-avx2/l123.exe)
 IRC-IRC-IRC-IRC-IRC-IRC-IRC-IRC-IRC-IRC-IRC-IRC-IRC-IRC-IRC-IRC-IRC-IRC
 Pt 60 Step number   1 out of a maximum of  20
 Point Number:  16          Path Number:   2
                    CURRENT STRUCTURE
                Cartesian Coordinates (Ang):                
 ---------------------------------------------------------------------
 Center     Atomic                     Coordinates (Angstroms)
 Number     Number                        X           Y           Z
 ---------------------------------------------------------------------
      1          6                   -0.702016    1.511966    0.606575
      2          6                   -1.319803    0.729750   -0.290139
      3          1                   -0.173808    1.094481    1.462963
      4          1                   -0.721531    2.594796    0.521026
      5          1                   -1.827986    1.196434   -1.130305
      6          6                   -1.319975   -0.729440   -0.290122
      7          6                   -0.702387   -1.511783    0.606616
      8          1                   -1.828258   -1.196013   -1.130292
      9          1                   -0.722163   -2.594610    0.521083
     10          1                   -0.174111   -1.094422    1.463008
     11          6                    1.926884    0.662876   -0.331468
     12          6                    1.926690   -0.663342   -0.331578
     13          1                    2.322632    1.249492    0.494069
     14          1                    1.536504    1.228863   -1.168296
     15          1                    1.535948   -1.229107   -1.168492
     16          1                    2.322294   -1.250232    0.493832
 ---------------------------------------------------------------------
   CHANGE IN THE REACTION COORDINATE =    0.28701
   NET REACTION COORDINATE UP TO THIS POINT =    4.63601
  # OF POINTS ALONG THE PATH =  60
  # OF STEPS =   1

 Calculating another point on the path.
 Point Number 17 in REVERSE path direction.
 Using LQA Reaction Path Following.
   LQA: T_Est iteration completed in    4 iterations.
 IRC-IRC-IRC-IRC-IRC-IRC-IRC-IRC-IRC-IRC-IRC-IRC-IRC-IRC-IRC-IRC-IRC-IRC
 Leave Link  123 at Sun Apr 28 19:49:10 2024, MaxMem=   104857600 cpu:               0.1 elap:               1.2
 (Enter /mlatom/software/Gaussian/g16-avx2/l202.exe)
                          Input orientation:                          
 ---------------------------------------------------------------------
 Center     Atomic      Atomic             Coordinates (Angstroms)
 Number     Number       Type             X           Y           Z
 ---------------------------------------------------------------------
      1          6           0       -0.717103    1.513295    0.613273
      2          6           0       -1.323170    0.729606   -0.291082
      3          1           0       -0.196575    1.101423    1.471025
      4          1           0       -0.749934    2.597689    0.535741
      5          1           0       -1.828059    1.194357   -1.135636
      6          6           0       -1.323340   -0.729285   -0.291075
      7          6           0       -0.717462   -1.513107    0.613298
      8          1           0       -1.828339   -1.193941   -1.135610
      9          1           0       -0.750568   -2.597496    0.535803
     10          1           0       -0.196828   -1.101320    1.471050
     11          6           0        1.946979    0.665625   -0.337354
     12          6           0        1.946744   -0.666121   -0.337451
     13          1           0        2.352994    1.251566    0.482755
     14          1           0        1.537758    1.231995   -1.172866
     15          1           0        1.537759   -1.232182   -1.173033
     16          1           0        2.352549   -1.252246    0.482631
 ---------------------------------------------------------------------
                    Distance matrix (angstroms):
                    1          2          3          4          5
     1  C    0.000000
     2  C    1.341396   0.000000
     3  H    1.084586   2.124261   0.000000
     4  H    1.087658   2.121785   1.849263   0.000000
     5  H    2.096337   1.088199   3.076533   2.434173   0.000000
     6  C    2.492897   1.458892   2.779584   3.475799   2.160654
     7  C    3.026402   2.492900   2.800497   4.111656   3.409187
     8  H    3.409189   2.160662   3.837433   4.281686   2.388298
     9  H    4.111657   3.475805   3.855327   5.195185   4.281687
    10  H    2.800478   2.779576   2.202742   3.855307   3.837429
    11  C    2.952892   3.271103   2.838129   3.430526   3.894577
    12  C    3.570688   3.555636   3.314908   4.322845   4.283412
    13  H    3.083996   3.792815   2.738526   3.382752   4.483711
    14  H    2.890297   3.035597   3.164667   3.165121   3.366233
    15  H    3.976548   3.579297   3.929970   4.777170   4.149484
    16  H    4.133769   4.247032   3.607591   4.944716   5.107067
                    6          7          8          9         10
     6  C    0.000000
     7  C    1.341400   0.000000
     8  H    1.088195   2.096329   0.000000
     9  H    2.121793   1.087658   2.434169   0.000000
    10  H    2.124270   1.084605   3.076538   1.849286   0.000000
    11  C    3.555686   3.570694   4.283483   4.322860   3.314865
    12  C    3.271023   2.952847   3.894471   3.430492   2.838129
    13  H    4.247119   4.133783   5.107168   4.944714   3.607547
    14  H    3.579114   3.976428   4.149357   4.777131   3.929814
    15  H    3.035892   2.890660   3.366523   3.165540   3.164979
    16  H    3.792660   3.083843   4.483518   3.382582   2.738444
                   11         12         13         14         15
    11  C    0.000000
    12  C    1.331746   0.000000
    13  H    1.086625   2.124924   0.000000
    14  H    1.089182   2.113772   1.845555   0.000000
    15  H    2.113644   1.088986   3.094389   2.464177   0.000000
    16  H    2.124874   1.086625   2.503812   3.094512   1.845402
                   16
    16  H    0.000000
 Symmetry turned off by external request.
 Stoichiometry    C6H10
 Framework group  C1[X(C6H10)]
 Deg. of freedom    42
 Full point group                 C1      NOp   1
 Rotational constants (GHZ):           3.9979522           2.6079082           1.8418440
 Leave Link  202 at Sun Apr 28 19:49:14 2024, MaxMem=   104857600 cpu:               0.0 elap:               0.5
 (Enter /mlatom/software/Gaussian/g16-avx2/l301.exe)
 Standard basis: STO-3G (5D, 7F)
 Ernie: Thresh=  0.10000D-02 Tol=  0.10000D-05 Strict=F.
    40 basis functions,   120 primitive gaussians,    40 cartesian basis functions
    23 alpha electrons       23 beta electrons
       nuclear repulsion energy       212.6578010371 Hartrees.
 IExCor=    0 DFT=F Ex=HF Corr=None ExCW=0 ScaHFX=  1.000000
 ScaDFX=  1.000000  1.000000  1.000000  1.000000 ScalE2=  1.000000  1.000000
 IRadAn=      5 IRanWt=     -1 IRanGd=            0 ICorTp=0 IEmpDi=  4
 NAtoms=   16 NActive=   16 NUniq=   16 SFac= 1.00D+00 NAtFMM=   60 NAOKFM=F Big=F
 Integral buffers will be    131072 words long.
 Raffenetti 1 integral format.
 Two-electron integral symmetry is turned off.
 Leave Link  301 at Sun Apr 28 19:49:14 2024, MaxMem=   104857600 cpu:               0.0 elap:               0.4
 (Enter /mlatom/software/Gaussian/g16-avx2/l402.exe)
 External calculation of energy and first derivatives.
 Running external command "/mlatom/software/miniconda3/bin/python /mlatom/software/mlatom/mlatom/interfaces/gaussian_interface.py model_predict_kwargs R"
         input file       "/mlatom/home/qhzhang/git/ts-analysis/calculations/_other/irc/da/ani/irc_1/Gau-43310.EIn"
         output file      "/mlatom/home/qhzhang/git/ts-analysis/calculations/_other/irc/da/ani/irc_1/Gau-43310.EOu"
         message file     "/mlatom/home/qhzhang/git/ts-analysis/calculations/_other/irc/da/ani/irc_1/Gau-43310.EMs"
         fchk file        "/mlatom/home/qhzhang/git/ts-analysis/calculations/_other/irc/da/ani/irc_1/Gau-43310.EFC"
         mat. el file     "/mlatom/home/qhzhang/git/ts-analysis/calculations/_other/irc/da/ani/irc_1/Gau-43310.EUF"
model loaded from /mlatom/home/qhzhang/git/ts-analysis/calculations/_other/irc/da/ani/irc/da_energy_iteration27.npz
 Recovered energy= -234.587430307     dipole=      0.000000000000      0.000000000000      0.000000000000
 Energy=    -234.587430     NIter=   0.
 Dipole moment=       0.000000       0.000000       0.000000
 Leave Link  402 at Sun Apr 28 19:49:20 2024, MaxMem=   104857600 cpu:               0.0 elap:               4.9
 (Enter /mlatom/software/Gaussian/g16-avx2/l716.exe)
 Dipole        = 0.00000000D+00 0.00000000D+00 0.00000000D+00
 -------------------------------------------------------------------
 Center     Atomic                   Forces (Hartrees/Bohr)
 Number     Number              X              Y              Z
 -------------------------------------------------------------------
      1        6          -0.004820590    0.001824455   -0.000770815
      2        6          -0.000418621    0.000842713    0.000053529
      3        1           0.001158031   -0.001042146    0.001685829
      4        1           0.000043960   -0.000561224    0.000044693
      5        1           0.000213821   -0.000000149    0.000322237
      6        6          -0.000416891   -0.000847055    0.000061047
      7        6          -0.004814764   -0.001814514   -0.000765019
      8        1           0.000213188    0.000000502    0.000318302
      9        1           0.000045127    0.000562634    0.000044580
     10        1           0.001151806    0.001035206    0.001675800
     11        6           0.002243051   -0.002347087   -0.003225694
     12        6           0.002318402    0.002415361   -0.003126893
     13        1           0.000066889    0.000192503    0.000014918
     14        1           0.001508477   -0.001171222    0.001873473
     15        1           0.001435278    0.001103108    0.001779037
     16        1           0.000072836   -0.000193081    0.000014977
 -------------------------------------------------------------------
 Cartesian Forces:  Max     0.004820590 RMS     0.001600980
 Z-matrix is all fixed cartesians, so copy forces.
 Leave Link  716 at Sun Apr 28 19:49:21 2024, MaxMem=   104857600 cpu:               0.0 elap:               0.4
 (Enter /mlatom/software/Gaussian/g16-avx2/l123.exe)
 IRC-IRC-IRC-IRC-IRC-IRC-IRC-IRC-IRC-IRC-IRC-IRC-IRC-IRC-IRC-IRC-IRC-IRC
 Reaction path inflection point has been passed.
   Previous lowest Hessian eigenvalue=   -0.0000837646
   Current lowest Hessian eigenvalue =    0.0001150498
 Pt 61 Step number   1 out of a maximum of  20
 Point Number:  17          Path Number:   2
                    CURRENT STRUCTURE
                Cartesian Coordinates (Ang):                
 ---------------------------------------------------------------------
 Center     Atomic                     Coordinates (Angstroms)
 Number     Number                        X           Y           Z
 ---------------------------------------------------------------------
      1          6                   -0.717103    1.513295    0.613273
      2          6                   -1.323170    0.729606   -0.291082
      3          1                   -0.196575    1.101423    1.471025
      4          1                   -0.749934    2.597689    0.535741
      5          1                   -1.828059    1.194357   -1.135636
      6          6                   -1.323340   -0.729285   -0.291075
      7          6                   -0.717462   -1.513107    0.613298
      8          1                   -1.828339   -1.193941   -1.135610
      9          1                   -0.750568   -2.597496    0.535803
     10          1                   -0.196828   -1.101320    1.471050
     11          6                    1.946979    0.665625   -0.337354
     12          6                    1.946744   -0.666121   -0.337451
     13          1                    2.352994    1.251566    0.482755
     14          1                    1.537758    1.231995   -1.172866
     15          1                    1.537759   -1.232182   -1.173033
     16          1                    2.352549   -1.252246    0.482631
 ---------------------------------------------------------------------
   CHANGE IN THE REACTION COORDINATE =    0.28752
   NET REACTION COORDINATE UP TO THIS POINT =    4.92353
  # OF POINTS ALONG THE PATH =  61
  # OF STEPS =   1

 Calculating another point on the path.
 Point Number 18 in REVERSE path direction.
 Using LQA Reaction Path Following.
   LQA: T_Est iteration completed in    4 iterations.
 IRC-IRC-IRC-IRC-IRC-IRC-IRC-IRC-IRC-IRC-IRC-IRC-IRC-IRC-IRC-IRC-IRC-IRC
 Leave Link  123 at Sun Apr 28 19:49:23 2024, MaxMem=   104857600 cpu:               0.1 elap:               1.2
 (Enter /mlatom/software/Gaussian/g16-avx2/l202.exe)
                          Input orientation:                          
 ---------------------------------------------------------------------
 Center     Atomic      Atomic             Coordinates (Angstroms)
 Number     Number       Type             X           Y           Z
 ---------------------------------------------------------------------
      1          6           0       -0.734288    1.516156    0.619316
      2          6           0       -1.326366    0.730888   -0.290808
      3          1           0       -0.202599    1.099871    1.475041
      4          1           0       -0.770368    2.599600    0.547631
      5          1           0       -1.829449    1.194853   -1.136054
      6          6           0       -1.326539   -0.730579   -0.290789
      7          6           0       -0.734683   -1.515975    0.619362
      8          1           0       -1.829706   -1.194423   -1.136058
      9          1           0       -0.770991   -2.599408    0.547672
     10          1           0       -0.202899   -1.099806    1.475078
     11          6           0        1.965832    0.663306   -0.344416
     12          6           0        1.965683   -0.663763   -0.344520
     13          1           0        2.365300    1.250731    0.479471
     14          1           0        1.571606    1.229451   -1.176267
     15          1           0        1.570696   -1.229764   -1.176443
     16          1           0        2.364999   -1.251500    0.479226
 ---------------------------------------------------------------------
                    Distance matrix (angstroms):
                    1          2          3          4          5
     1  C    0.000000
     2  C    1.339973   0.000000
     3  H    1.090069   2.125376   0.000000
     4  H    1.086413   2.122310   1.852469   0.000000
     5  H    2.093786   1.087565   3.077902   2.435110   0.000000
     6  C    2.495370   1.461466   2.780637   3.478846   2.162100
     7  C    3.032130   2.495373   2.803203   4.116355   3.410071
     8  H    3.410061   2.162087   3.837851   4.283878   2.389275
     9  H    4.116351   3.478845   3.855872   5.199008   4.283886
    10  H    2.803205   2.780642   2.199677   3.855877   3.837855
    11  C    2.991117   3.293328   2.864106   3.468685   3.913233
    12  C    3.601510   3.575685   3.335064   4.351029   4.299303
    13  H    3.114074   3.806831   2.758265   3.414164   4.495438
    14  H    2.936573   3.070968   3.192808   3.214650   3.401469
    15  H    4.009710   3.608527   3.949954   4.808018   4.176288
    16  H    4.157538   4.260163   3.621208   4.966506   5.117339
                    6          7          8          9         10
     6  C    0.000000
     7  C    1.339969   0.000000
     8  H    1.087569   2.093793   0.000000
     9  H    2.122304   1.086410   2.435119   0.000000
    10  H    2.125367   1.090064   3.077902   1.852462   0.000000
    11  C    3.575682   3.601516   4.299299   4.351015   3.335045
    12  C    3.293339   2.991206   3.913198   3.468734   2.864231
    13  H    4.260114   4.157418   5.117303   4.966341   3.621037
    14  H    3.609021   4.010064   4.176806   4.808315   3.950182
    15  H    3.070430   2.936257   3.400826   3.214342   3.192663
    16  H    3.806801   3.114099   4.495325   3.414085   2.758412
                   11         12         13         14         15
    11  C    0.000000
    12  C    1.327070   0.000000
    13  H    1.087856   2.122249   0.000000
    14  H    1.080699   2.105080   1.836265   0.000000
    15  H    2.105259   1.080957   3.086470   2.459215   0.000000
    16  H    2.122311   1.087862   2.502231   3.086300   1.836472
                   16
    16  H    0.000000
 Symmetry turned off by external request.
 Stoichiometry    C6H10
 Framework group  C1[X(C6H10)]
 Deg. of freedom    42
 Full point group                 C1      NOp   1
 Rotational constants (GHZ):           3.9869311           2.5637994           1.8196896
 Leave Link  202 at Sun Apr 28 19:49:26 2024, MaxMem=   104857600 cpu:               0.0 elap:               0.7
 (Enter /mlatom/software/Gaussian/g16-avx2/l301.exe)
 Standard basis: STO-3G (5D, 7F)
 Ernie: Thresh=  0.10000D-02 Tol=  0.10000D-05 Strict=F.
    40 basis functions,   120 primitive gaussians,    40 cartesian basis functions
    23 alpha electrons       23 beta electrons
       nuclear repulsion energy       212.0981116139 Hartrees.
 IExCor=    0 DFT=F Ex=HF Corr=None ExCW=0 ScaHFX=  1.000000
 ScaDFX=  1.000000  1.000000  1.000000  1.000000 ScalE2=  1.000000  1.000000
 IRadAn=      5 IRanWt=     -1 IRanGd=            0 ICorTp=0 IEmpDi=  4
 NAtoms=   16 NActive=   16 NUniq=   16 SFac= 1.00D+00 NAtFMM=   60 NAOKFM=F Big=F
 Integral buffers will be    131072 words long.
 Raffenetti 1 integral format.
 Two-electron integral symmetry is turned off.
 Leave Link  301 at Sun Apr 28 19:49:27 2024, MaxMem=   104857600 cpu:               0.0 elap:               0.4
 (Enter /mlatom/software/Gaussian/g16-avx2/l402.exe)
 External calculation of energy and first derivatives.
 Running external command "/mlatom/software/miniconda3/bin/python /mlatom/software/mlatom/mlatom/interfaces/gaussian_interface.py model_predict_kwargs R"
         input file       "/mlatom/home/qhzhang/git/ts-analysis/calculations/_other/irc/da/ani/irc_1/Gau-43310.EIn"
         output file      "/mlatom/home/qhzhang/git/ts-analysis/calculations/_other/irc/da/ani/irc_1/Gau-43310.EOu"
         message file     "/mlatom/home/qhzhang/git/ts-analysis/calculations/_other/irc/da/ani/irc_1/Gau-43310.EMs"
         fchk file        "/mlatom/home/qhzhang/git/ts-analysis/calculations/_other/irc/da/ani/irc_1/Gau-43310.EFC"
         mat. el file     "/mlatom/home/qhzhang/git/ts-analysis/calculations/_other/irc/da/ani/irc_1/Gau-43310.EUF"
model loaded from /mlatom/home/qhzhang/git/ts-analysis/calculations/_other/irc/da/ani/irc/da_energy_iteration27.npz
 Recovered energy= -234.587948078     dipole=      0.000000000000      0.000000000000      0.000000000000
 Energy=    -234.587948     NIter=   0.
 Dipole moment=       0.000000       0.000000       0.000000
 Leave Link  402 at Sun Apr 28 19:49:33 2024, MaxMem=   104857600 cpu:               0.0 elap:               5.3
 (Enter /mlatom/software/Gaussian/g16-avx2/l716.exe)
 Dipole        = 0.00000000D+00 0.00000000D+00 0.00000000D+00
 -------------------------------------------------------------------
 Center     Atomic                   Forces (Hartrees/Bohr)
 Number     Number              X              Y              Z
 -------------------------------------------------------------------
      1        6          -0.001417067   -0.000216917    0.002277788
      2        6          -0.000685500   -0.000654003   -0.000500561
      3        1          -0.000849874    0.000678047   -0.000694748
      4        1          -0.000064674    0.000116426    0.000091703
      5        1          -0.000139235    0.000056475   -0.000120238
      6        6          -0.000688294    0.000658306   -0.000512297
      7        6          -0.001414743    0.000215283    0.002278599
      8        1          -0.000138790   -0.000056610   -0.000115645
      9        1          -0.000066666   -0.000119217    0.000092430
     10        1          -0.000848964   -0.000676333   -0.000690899
     11        6           0.004954594    0.000961780    0.002159146
     12        6           0.004853508   -0.001059091    0.002034835
     13        1          -0.000232814   -0.000685772   -0.000363858
     14        1          -0.001557401    0.001731715   -0.002848322
     15        1          -0.001463768   -0.001639508   -0.002719921
     16        1          -0.000240314    0.000689417   -0.000368013
 -------------------------------------------------------------------
 Cartesian Forces:  Max     0.004954594 RMS     0.001488094
 Z-matrix is all fixed cartesians, so copy forces.
 Leave Link  716 at Sun Apr 28 19:49:34 2024, MaxMem=   104857600 cpu:               0.0 elap:               0.5
 (Enter /mlatom/software/Gaussian/g16-avx2/l123.exe)
 IRC-IRC-IRC-IRC-IRC-IRC-IRC-IRC-IRC-IRC-IRC-IRC-IRC-IRC-IRC-IRC-IRC-IRC
 Pt 62 Step number   1 out of a maximum of  20
 Point Number:  18          Path Number:   2
                    CURRENT STRUCTURE
                Cartesian Coordinates (Ang):                
 ---------------------------------------------------------------------
 Center     Atomic                     Coordinates (Angstroms)
 Number     Number                        X           Y           Z
 ---------------------------------------------------------------------
      1          6                   -0.734288    1.516156    0.619316
      2          6                   -1.326366    0.730888   -0.290808
      3          1                   -0.202599    1.099871    1.475041
      4          1                   -0.770368    2.599600    0.547631
      5          1                   -1.829449    1.194853   -1.136054
      6          6                   -1.326539   -0.730579   -0.290789
      7          6                   -0.734683   -1.515975    0.619362
      8          1                   -1.829706   -1.194423   -1.136058
      9          1                   -0.770991   -2.599408    0.547672
     10          1                   -0.202899   -1.099806    1.475078
     11          6                    1.965832    0.663306   -0.344416
     12          6                    1.965683   -0.663763   -0.344520
     13          1                    2.365300    1.250731    0.479471
     14          1                    1.571606    1.229451   -1.176267
     15          1                    1.570696   -1.229764   -1.176443
     16          1                    2.364999   -1.251500    0.479226
 ---------------------------------------------------------------------
   CHANGE IN THE REACTION COORDINATE =    0.28175
   NET REACTION COORDINATE UP TO THIS POINT =    5.20529
  # OF POINTS ALONG THE PATH =  62
  # OF STEPS =   1

 Calculating another point on the path.
 Point Number 19 in REVERSE path direction.
 Using LQA Reaction Path Following.
   LQA: T_Est iteration completed in    5 iterations.
 IRC-IRC-IRC-IRC-IRC-IRC-IRC-IRC-IRC-IRC-IRC-IRC-IRC-IRC-IRC-IRC-IRC-IRC
 Leave Link  123 at Sun Apr 28 19:49:36 2024, MaxMem=   104857600 cpu:               0.1 elap:               1.2
 (Enter /mlatom/software/Gaussian/g16-avx2/l202.exe)
                          Input orientation:                          
 ---------------------------------------------------------------------
 Center     Atomic      Atomic             Coordinates (Angstroms)
 Number     Number       Type             X           Y           Z
 ---------------------------------------------------------------------
      1          6           0       -0.749986    1.517389    0.626699
      2          6           0       -1.329927    0.730995   -0.292298
      3          1           0       -0.222261    1.104216    1.483161
      4          1           0       -0.791655    2.600960    0.560003
      5          1           0       -1.831619    1.195200   -1.138444
      6          6           0       -1.330085   -0.730672   -0.292304
      7          6           0       -0.750295   -1.517172    0.626704
      8          1           0       -1.831874   -1.194785   -1.138436
      9          1           0       -0.792242   -2.600737    0.560040
     10          1           0       -0.222573   -1.104131    1.483208
     11          6           0        1.986342    0.664533   -0.350718
     12          6           0        1.986033   -0.665065   -0.350788
     13          1           0        2.388661    1.246993    0.472949
     14          1           0        1.576371    1.234942   -1.182905
     15          1           0        1.576519   -1.235096   -1.183009
     16          1           0        2.388184   -1.247657    0.472850
 ---------------------------------------------------------------------
                    Distance matrix (angstroms):
                    1          2          3          4          5
     1  C    0.000000
     2  C    1.341381   0.000000
     3  H    1.087536   2.125671   0.000000
     4  H    1.086420   2.124364   1.848424   0.000000
     5  H    2.095105   1.087724   3.077519   2.437705   0.000000
     6  C    2.496970   1.461666   2.783229   3.480819   2.162514
     7  C    3.034561   2.496956   2.807849   4.118879   3.412033
     8  H    3.412047   2.162527   3.840447   4.286540   2.389984
     9  H    4.118883   3.480808   3.860533   5.201697   4.286524
    10  H    2.807872   2.783225   2.208347   3.860552   3.840444
    11  C    3.028234   3.317449   2.904197   3.506626   3.934329
    12  C    3.633784   3.598332   3.371985   4.383150   4.319196
    13  H    3.154023   3.831417   2.803182   3.457631   4.517747
    14  H    2.960807   3.081187   3.218707   3.242110   3.408512
    15  H    4.032846   3.620264   3.976991   4.833391   4.186135
    16  H    4.185364   4.280756   3.656017   4.993078   5.135227
                    6          7          8          9         10
     6  C    0.000000
     7  C    1.341385   0.000000
     8  H    1.087719   2.095104   0.000000
     9  H    2.124361   1.086424   2.437695   0.000000
    10  H    2.125676   1.087517   3.077513   1.848403   0.000000
    11  C    3.598430   3.633782   4.319298   4.383150   3.372056
    12  C    3.317283   3.028047   3.934133   3.506458   2.904180
    13  H    4.280870   4.185367   5.135344   4.993072   3.656085
    14  H    3.619986   4.032640   4.185891   4.833283   3.976886
    15  H    3.081583   2.961197   3.408923   3.242564   3.219099
    16  H    3.831222   3.153785   4.517514   3.457389   2.803119
                   11         12         13         14         15
    11  C    0.000000
    12  C    1.329598   0.000000
    13  H    1.086070   2.120523   0.000000
    14  H    1.089026   2.114301   1.844400   0.000000
    15  H    2.114061   1.088682   3.092336   2.470038   0.000000
    16  H    2.120428   1.086057   2.494651   3.092550   1.844133
                   16
    16  H    0.000000
 Symmetry turned off by external request.
 Stoichiometry    C6H10
 Framework group  C1[X(C6H10)]
 Deg. of freedom    42
 Full point group                 C1      NOp   1
 Rotational constants (GHZ):           3.9725066           2.5186881           1.7975504
 Leave Link  202 at Sun Apr 28 19:49:40 2024, MaxMem=   104857600 cpu:               0.0 elap:               0.5
 (Enter /mlatom/software/Gaussian/g16-avx2/l301.exe)
 Standard basis: STO-3G (5D, 7F)
 Ernie: Thresh=  0.10000D-02 Tol=  0.10000D-05 Strict=F.
    40 basis functions,   120 primitive gaussians,    40 cartesian basis functions
    23 alpha electrons       23 beta electrons
       nuclear repulsion energy       211.3571329873 Hartrees.
 IExCor=    0 DFT=F Ex=HF Corr=None ExCW=0 ScaHFX=  1.000000
 ScaDFX=  1.000000  1.000000  1.000000  1.000000 ScalE2=  1.000000  1.000000
 IRadAn=      5 IRanWt=     -1 IRanGd=            0 ICorTp=0 IEmpDi=  4
 NAtoms=   16 NActive=   16 NUniq=   16 SFac= 1.00D+00 NAtFMM=   60 NAOKFM=F Big=F
 Integral buffers will be    131072 words long.
 Raffenetti 1 integral format.
 Two-electron integral symmetry is turned off.
 Leave Link  301 at Sun Apr 28 19:49:41 2024, MaxMem=   104857600 cpu:               0.1 elap:               0.4
 (Enter /mlatom/software/Gaussian/g16-avx2/l402.exe)
 External calculation of energy and first derivatives.
 Running external command "/mlatom/software/miniconda3/bin/python /mlatom/software/mlatom/mlatom/interfaces/gaussian_interface.py model_predict_kwargs R"
         input file       "/mlatom/home/qhzhang/git/ts-analysis/calculations/_other/irc/da/ani/irc_1/Gau-43310.EIn"
         output file      "/mlatom/home/qhzhang/git/ts-analysis/calculations/_other/irc/da/ani/irc_1/Gau-43310.EOu"
         message file     "/mlatom/home/qhzhang/git/ts-analysis/calculations/_other/irc/da/ani/irc_1/Gau-43310.EMs"
         fchk file        "/mlatom/home/qhzhang/git/ts-analysis/calculations/_other/irc/da/ani/irc_1/Gau-43310.EFC"
         mat. el file     "/mlatom/home/qhzhang/git/ts-analysis/calculations/_other/irc/da/ani/irc_1/Gau-43310.EUF"
model loaded from /mlatom/home/qhzhang/git/ts-analysis/calculations/_other/irc/da/ani/irc/da_energy_iteration27.npz
 Recovered energy= -234.588419349     dipole=      0.000000000000      0.000000000000      0.000000000000
 Energy=    -234.588419     NIter=   0.
 Dipole moment=       0.000000       0.000000       0.000000
 Leave Link  402 at Sun Apr 28 19:49:46 2024, MaxMem=   104857600 cpu:               0.0 elap:               5.2
 (Enter /mlatom/software/Gaussian/g16-avx2/l716.exe)
 Dipole        = 0.00000000D+00 0.00000000D+00 0.00000000D+00
 -------------------------------------------------------------------
 Center     Atomic                   Forces (Hartrees/Bohr)
 Number     Number              X              Y              Z
 -------------------------------------------------------------------
      1        6          -0.002766218    0.000097288   -0.000266225
      2        6          -0.000123702    0.000609101    0.000831823
      3        1           0.000136888   -0.000414782    0.000604684
      4        1          -0.000059261   -0.000011422   -0.000100562
      5        1           0.000066868    0.000015518   -0.000111798
      6        6          -0.000118526   -0.000608061    0.000844721
      7        6          -0.002781723   -0.000107849   -0.000276104
      8        1           0.000066889   -0.000015651   -0.000116429
      9        1          -0.000056207    0.000013139   -0.000102582
     10        1           0.000146179    0.000422926    0.000610454
     11        6           0.001431858   -0.000036788   -0.002629906
     12        6           0.001566259    0.000165598   -0.002471254
     13        1           0.000279838    0.000333357    0.000220746
     14        1           0.001021915   -0.000932110    0.001449583
     15        1           0.000902033    0.000811298    0.001283585
     16        1           0.000286913   -0.000341564    0.000229263
 -------------------------------------------------------------------
 Cartesian Forces:  Max     0.002781723 RMS     0.000958573
 Z-matrix is all fixed cartesians, so copy forces.
 Leave Link  716 at Sun Apr 28 19:49:47 2024, MaxMem=   104857600 cpu:               0.0 elap:               0.4
 (Enter /mlatom/software/Gaussian/g16-avx2/l123.exe)
 IRC-IRC-IRC-IRC-IRC-IRC-IRC-IRC-IRC-IRC-IRC-IRC-IRC-IRC-IRC-IRC-IRC-IRC
 Pt 63 Step number   1 out of a maximum of  20
 Point Number:  19          Path Number:   2
                    CURRENT STRUCTURE
                Cartesian Coordinates (Ang):                
 ---------------------------------------------------------------------
 Center     Atomic                     Coordinates (Angstroms)
 Number     Number                        X           Y           Z
 ---------------------------------------------------------------------
      1          6                   -0.749986    1.517389    0.626699
      2          6                   -1.329927    0.730995   -0.292298
      3          1                   -0.222261    1.104216    1.483161
      4          1                   -0.791655    2.600960    0.560003
      5          1                   -1.831619    1.195200   -1.138444
      6          6                   -1.330085   -0.730672   -0.292304
      7          6                   -0.750295   -1.517172    0.626704
      8          1                   -1.831874   -1.194785   -1.138436
      9          1                   -0.792242   -2.600737    0.560040
     10          1                   -0.222573   -1.104131    1.483208
     11          6                    1.986342    0.664533   -0.350718
     12          6                    1.986033   -0.665065   -0.350788
     13          1                    2.388661    1.246993    0.472949
     14          1                    1.576371    1.234942   -1.182905
     15          1                    1.576519   -1.235096   -1.183009
     16          1                    2.388184   -1.247657    0.472850
 ---------------------------------------------------------------------
   CHANGE IN THE REACTION COORDINATE =    0.28146
   NET REACTION COORDINATE UP TO THIS POINT =    5.48675
  # OF POINTS ALONG THE PATH =  63
  # OF STEPS =   1

 Calculating another point on the path.
 Point Number 20 in REVERSE path direction.
 Using LQA Reaction Path Following.
   LQA: T_Est iteration completed in    4 iterations.
 IRC-IRC-IRC-IRC-IRC-IRC-IRC-IRC-IRC-IRC-IRC-IRC-IRC-IRC-IRC-IRC-IRC-IRC
 Leave Link  123 at Sun Apr 28 19:49:49 2024, MaxMem=   104857600 cpu:               0.1 elap:               1.2
 (Enter /mlatom/software/Gaussian/g16-avx2/l202.exe)
                          Input orientation:                          
 ---------------------------------------------------------------------
 Center     Atomic      Atomic             Coordinates (Angstroms)
 Number     Number       Type             X           Y           Z
 ---------------------------------------------------------------------
      1          6           0       -0.766517    1.518881    0.632227
      2          6           0       -1.334245    0.731856   -0.290995
      3          1           0       -0.241228    1.106689    1.491580
      4          1           0       -0.811410    2.601919    0.567509
      5          1           0       -1.829469    1.193911   -1.143214
      6          6           0       -1.334432   -0.731566   -0.290943
      7          6           0       -0.767049   -1.518762    0.632361
      8          1           0       -1.829744   -1.193503   -1.143179
      9          1           0       -0.812113   -2.601789    0.567610
     10          1           0       -0.241437   -1.106588    1.491618
     11          6           0        2.006525    0.664254   -0.357719
     12          6           0        2.006457   -0.664613   -0.357909
     13          1           0        2.407816    1.246000    0.468170
     14          1           0        1.602729    1.234771   -1.187443
     15          1           0        1.600765   -1.235044   -1.187660
     16          1           0        2.407597   -1.246955    0.467668
 ---------------------------------------------------------------------
                    Distance matrix (angstroms):
                    1          2          3          4          5
     1  C    0.000000
     2  C    1.339427   0.000000
     3  H    1.088264   2.124326   0.000000
     4  H    1.085899   2.123093   1.847899   0.000000
     5  H    2.094675   1.088585   3.077703   2.438340   0.000000
     6  C    2.497855   1.463422   2.784181   3.481755   2.163074
     7  C    3.037643   2.497915   2.812070   4.121431   3.411744
     8  H    3.411678   2.163041   3.841383   4.285871   2.387415
     9  H    4.121428   3.481812   3.864251   5.203708   4.285939
    10  H    2.812001   2.784209   2.213277   3.864179   3.841417
    11  C    3.065964   3.342120   2.944155   3.542788   3.951251
    12  C    3.665706   3.621449   3.407376   4.412143   4.334183
    13  H    3.190261   3.852752   2.843275   3.494539   4.533636
    14  H    3.000873   3.111648   3.254803   3.282836   3.432726
    15  H    4.062033   3.645132   4.006867   4.860195   4.203368
    16  H    4.213304   4.300308   3.688402   5.018547   5.148349
                    6          7          8          9         10
     6  C    0.000000
     7  C    1.339437   0.000000
     8  H    1.088589   2.094673   0.000000
     9  H    2.123126   1.085896   2.438368   0.000000
    10  H    2.124336   1.088338   3.077731   1.847995   0.000000
    11  C    3.621431   3.665860   4.334186   4.412254   3.407236
    12  C    3.342231   3.066356   3.951305   3.543102   2.944337
    13  H    4.300168   4.213151   5.148256   5.018298   3.687907
    14  H    3.646520   4.063186   4.204800   4.861158   4.007527
    15  H    3.110141   2.999919   3.431048   3.281911   3.254034
    16  H    3.852779   3.190515   4.533514   3.494581   2.843512
                   11         12         13         14         15
    11  C    0.000000
    12  C    1.328867   0.000000
    13  H    1.086994   2.119891   0.000000
    14  H    1.084889   2.111583   1.841017   0.000000
    15  H    2.112055   1.085571   3.090095   2.469816   0.000000
    16  H    2.120104   1.087020   2.492955   3.089687   1.841530
                   16
    16  H    0.000000
 Symmetry turned off by external request.
 Stoichiometry    C6H10
 Framework group  C1[X(C6H10)]
 Deg. of freedom    42
 Full point group                 C1      NOp   1
 Rotational constants (GHZ):           3.9627764           2.4741100           1.7749064
 Leave Link  202 at Sun Apr 28 19:49:53 2024, MaxMem=   104857600 cpu:               0.0 elap:               0.5
 (Enter /mlatom/software/Gaussian/g16-avx2/l301.exe)
 Standard basis: STO-3G (5D, 7F)
 Ernie: Thresh=  0.10000D-02 Tol=  0.10000D-05 Strict=F.
    40 basis functions,   120 primitive gaussians,    40 cartesian basis functions
    23 alpha electrons       23 beta electrons
       nuclear repulsion energy       210.7522905274 Hartrees.
 IExCor=    0 DFT=F Ex=HF Corr=None ExCW=0 ScaHFX=  1.000000
 ScaDFX=  1.000000  1.000000  1.000000  1.000000 ScalE2=  1.000000  1.000000
 IRadAn=      5 IRanWt=     -1 IRanGd=            0 ICorTp=0 IEmpDi=  4
 NAtoms=   16 NActive=   16 NUniq=   16 SFac= 1.00D+00 NAtFMM=   60 NAOKFM=F Big=F
 Integral buffers will be    131072 words long.
 Raffenetti 1 integral format.
 Two-electron integral symmetry is turned off.
 Leave Link  301 at Sun Apr 28 19:49:54 2024, MaxMem=   104857600 cpu:               0.0 elap:               0.4
 (Enter /mlatom/software/Gaussian/g16-avx2/l402.exe)
 External calculation of energy and first derivatives.
 Running external command "/mlatom/software/miniconda3/bin/python /mlatom/software/mlatom/mlatom/interfaces/gaussian_interface.py model_predict_kwargs R"
         input file       "/mlatom/home/qhzhang/git/ts-analysis/calculations/_other/irc/da/ani/irc_1/Gau-43310.EIn"
         output file      "/mlatom/home/qhzhang/git/ts-analysis/calculations/_other/irc/da/ani/irc_1/Gau-43310.EOu"
         message file     "/mlatom/home/qhzhang/git/ts-analysis/calculations/_other/irc/da/ani/irc_1/Gau-43310.EMs"
         fchk file        "/mlatom/home/qhzhang/git/ts-analysis/calculations/_other/irc/da/ani/irc_1/Gau-43310.EFC"
         mat. el file     "/mlatom/home/qhzhang/git/ts-analysis/calculations/_other/irc/da/ani/irc_1/Gau-43310.EUF"
model loaded from /mlatom/home/qhzhang/git/ts-analysis/calculations/_other/irc/da/ani/irc/da_energy_iteration27.npz
 Recovered energy= -234.588790425     dipole=      0.000000000000      0.000000000000      0.000000000000
 Energy=    -234.588790     NIter=   0.
 Dipole moment=       0.000000       0.000000       0.000000
 Leave Link  402 at Sun Apr 28 19:50:00 2024, MaxMem=   104857600 cpu:               0.0 elap:               5.1
 (Enter /mlatom/software/Gaussian/g16-avx2/l716.exe)
 Dipole        = 0.00000000D+00 0.00000000D+00 0.00000000D+00
 -------------------------------------------------------------------
 Center     Atomic                   Forces (Hartrees/Bohr)
 Number     Number              X              Y              Z
 -------------------------------------------------------------------
      1        6          -0.001440817    0.000876749    0.001160513
      2        6          -0.000767757   -0.000910888   -0.001225876
      3        1          -0.000100497   -0.000300502    0.000417772
      4        1           0.000093147    0.000219111   -0.000099630
      5        1           0.000180152   -0.000068893    0.000479095
      6        6          -0.000774561    0.000894610   -0.001241516
      7        6          -0.001396164   -0.000828557    0.001181276
      8        1           0.000178354    0.000069241    0.000485296
      9        1           0.000084251   -0.000219417   -0.000092946
     10        1          -0.000132315    0.000272574    0.000390058
     11        6           0.002542654    0.000042475    0.000183875
     12        6           0.002259674   -0.000301398   -0.000128224
     13        1          -0.000003688   -0.000202462   -0.000174309
     14        1          -0.000476191    0.000555308   -0.000734136
     15        1          -0.000222357   -0.000319374   -0.000415812
     16        1          -0.000023884    0.000221422   -0.000185439
 -------------------------------------------------------------------
 Cartesian Forces:  Max     0.002542654 RMS     0.000771124
 Z-matrix is all fixed cartesians, so copy forces.
 Leave Link  716 at Sun Apr 28 19:50:01 2024, MaxMem=   104857600 cpu:               0.0 elap:               0.4
 (Enter /mlatom/software/Gaussian/g16-avx2/l123.exe)
 IRC-IRC-IRC-IRC-IRC-IRC-IRC-IRC-IRC-IRC-IRC-IRC-IRC-IRC-IRC-IRC-IRC-IRC
 Pt 64 Step number   1 out of a maximum of  20
 Point Number:  20          Path Number:   2
                    CURRENT STRUCTURE
                Cartesian Coordinates (Ang):                
 ---------------------------------------------------------------------
 Center     Atomic                     Coordinates (Angstroms)
 Number     Number                        X           Y           Z
 ---------------------------------------------------------------------
      1          6                   -0.766517    1.518881    0.632227
      2          6                   -1.334245    0.731856   -0.290995
      3          1                   -0.241228    1.106689    1.491580
      4          1                   -0.811410    2.601919    0.567509
      5          1                   -1.829469    1.193911   -1.143214
      6          6                   -1.334432   -0.731566   -0.290943
      7          6                   -0.767049   -1.518762    0.632361
      8          1                   -1.829744   -1.193503   -1.143179
      9          1                   -0.812113   -2.601789    0.567610
     10          1                   -0.241437   -1.106588    1.491618
     11          6                    2.006525    0.664254   -0.357719
     12          6                    2.006457   -0.664613   -0.357909
     13          1                    2.407816    1.246000    0.468170
     14          1                    1.602729    1.234771   -1.187443
     15          1                    1.600765   -1.235044   -1.187660
     16          1                    2.407597   -1.246955    0.467668
 ---------------------------------------------------------------------
   CHANGE IN THE REACTION COORDINATE =    0.28683
   NET REACTION COORDINATE UP TO THIS POINT =    5.77358
  # OF POINTS ALONG THE PATH =  64
  # OF STEPS =   1

 Calculating another point on the path.
 Point Number 21 in REVERSE path direction.
 Using LQA Reaction Path Following.
   LQA: T_Est iteration completed in    4 iterations.
 IRC-IRC-IRC-IRC-IRC-IRC-IRC-IRC-IRC-IRC-IRC-IRC-IRC-IRC-IRC-IRC-IRC-IRC
 Leave Link  123 at Sun Apr 28 19:50:02 2024, MaxMem=   104857600 cpu:               0.1 elap:               1.2
 (Enter /mlatom/software/Gaussian/g16-avx2/l202.exe)
                          Input orientation:                          
 ---------------------------------------------------------------------
 Center     Atomic      Atomic             Coordinates (Angstroms)
 Number     Number       Type             X           Y           Z
 ---------------------------------------------------------------------
      1          6           0       -0.784101    1.521221    0.641544
      2          6           0       -1.336295    0.731812   -0.293344
      3          1           0       -0.262535    1.106074    1.502953
      4          1           0       -0.827069    2.603785    0.577749
      5          1           0       -1.828858    1.195713   -1.144289
      6          6           0       -1.336371   -0.731413   -0.293520
      7          6           0       -0.783910   -1.520742    0.641159
      8          1           0       -1.828983   -1.195204   -1.144501
      9          1           0       -0.827326   -2.603313    0.577558
     10          1           0       -0.263033   -1.105897    1.502854
     11          6           0        2.026031    0.664233   -0.365213
     12          6           0        2.025455   -0.665161   -0.364884
     13          1           0        2.430840    1.243577    0.459666
     14          1           0        1.613035    1.237873   -1.192644
     15          1           0        1.616884   -1.238419   -1.192322
     16          1           0        2.429705   -1.243593    0.460875
 ---------------------------------------------------------------------
                    Distance matrix (angstroms):
                    1          2          3          4          5
     1  C    0.000000
     2  C    1.342423   0.000000
     3  H    1.089222   2.125962   0.000000
     4  H    1.085293   2.126592   1.848740   0.000000
     5  H    2.094438   1.087167   3.077222   2.439603   0.000000
     6  C    2.500741   1.463225   2.785103   3.484543   2.163370
     7  C    3.041963   2.500485   2.813305   4.125240   3.414509
     8  H    3.414777   2.163470   3.841700   4.289790   2.390918
     9  H    4.125256   3.484333   3.864569   5.207098   4.289572
    10  H    2.813382   2.784851   2.211971   3.864673   3.841431
    11  C    3.105612   3.363772   2.987106   3.576481   3.968576
    12  C    3.699563   3.641155   3.443978   4.439759   4.350409
    13  H    3.232029   3.875594   2.891647   3.532433   4.551922
    14  H    3.031631   3.124641   3.286544   3.309700   3.442491
    15  H    4.091870   3.662136   4.036505   4.885549   4.219058
    16  H    4.243275   4.319007   3.722233   5.042078   5.163538
                    6          7          8          9         10
     6  C    0.000000
     7  C    1.342341   0.000000
     8  H    1.087170   2.094454   0.000000
     9  H    2.126479   1.085306   2.439585   0.000000
    10  H    2.125854   1.089003   3.077120   1.848473   0.000000
    11  C    3.641251   3.699009   4.350394   4.439293   3.444249
    12  C    3.363236   3.104299   3.968053   3.575330   2.986615
    13  H    4.319693   4.243703   5.164020   5.042629   3.723603
    14  H    3.658620   4.088781   4.215409   4.883000   4.034674
    15  H    3.128357   3.034003   3.446470   3.312035   3.288712
    16  H    3.874889   3.230578   4.551483   3.531388   2.890591
                   11         12         13         14         15
    11  C    0.000000
    12  C    1.329395   0.000000
    13  H    1.086248   2.118372   0.000000
    14  H    1.088241   2.115849   1.843629   0.000000
    15  H    2.114615   1.086374   3.090613   2.476295   0.000000
    16  H    2.117824   1.086222   2.487170   3.091723   1.842217
                   16
    16  H    0.000000
 Symmetry turned off by external request.
 Stoichiometry    C6H10
 Framework group  C1[X(C6H10)]
 Deg. of freedom    42
 Full point group                 C1      NOp   1
 Rotational constants (GHZ):           3.9466444           2.4318617           1.7539485
 Leave Link  202 at Sun Apr 28 19:50:06 2024, MaxMem=   104857600 cpu:               0.0 elap:               0.5
 (Enter /mlatom/software/Gaussian/g16-avx2/l301.exe)
 Standard basis: STO-3G (5D, 7F)
 Ernie: Thresh=  0.10000D-02 Tol=  0.10000D-05 Strict=F.
    40 basis functions,   120 primitive gaussians,    40 cartesian basis functions
    23 alpha electrons       23 beta electrons
       nuclear repulsion energy       210.0476505676 Hartrees.
 IExCor=    0 DFT=F Ex=HF Corr=None ExCW=0 ScaHFX=  1.000000
 ScaDFX=  1.000000  1.000000  1.000000  1.000000 ScalE2=  1.000000  1.000000
 IRadAn=      5 IRanWt=     -1 IRanGd=            0 ICorTp=0 IEmpDi=  4
 NAtoms=   16 NActive=   16 NUniq=   16 SFac= 1.00D+00 NAtFMM=   60 NAOKFM=F Big=F
 Integral buffers will be    131072 words long.
 Raffenetti 1 integral format.
 Two-electron integral symmetry is turned off.
 Leave Link  301 at Sun Apr 28 19:50:07 2024, MaxMem=   104857600 cpu:               0.1 elap:               0.4
 (Enter /mlatom/software/Gaussian/g16-avx2/l402.exe)
 External calculation of energy and first derivatives.
 Running external command "/mlatom/software/miniconda3/bin/python /mlatom/software/mlatom/mlatom/interfaces/gaussian_interface.py model_predict_kwargs R"
         input file       "/mlatom/home/qhzhang/git/ts-analysis/calculations/_other/irc/da/ani/irc_1/Gau-43310.EIn"
         output file      "/mlatom/home/qhzhang/git/ts-analysis/calculations/_other/irc/da/ani/irc_1/Gau-43310.EOu"
         message file     "/mlatom/home/qhzhang/git/ts-analysis/calculations/_other/irc/da/ani/irc_1/Gau-43310.EMs"
         fchk file        "/mlatom/home/qhzhang/git/ts-analysis/calculations/_other/irc/da/ani/irc_1/Gau-43310.EFC"
         mat. el file     "/mlatom/home/qhzhang/git/ts-analysis/calculations/_other/irc/da/ani/irc_1/Gau-43310.EUF"
model loaded from /mlatom/home/qhzhang/git/ts-analysis/calculations/_other/irc/da/ani/irc/da_energy_iteration27.npz
 Recovered energy= -234.589050652     dipole=      0.000000000000      0.000000000000      0.000000000000
 Energy=    -234.589051     NIter=   0.
 Dipole moment=       0.000000       0.000000       0.000000
 Leave Link  402 at Sun Apr 28 19:50:13 2024, MaxMem=   104857600 cpu:               0.0 elap:               4.8
 (Enter /mlatom/software/Gaussian/g16-avx2/l716.exe)
 Dipole        = 0.00000000D+00 0.00000000D+00 0.00000000D+00
 -------------------------------------------------------------------
 Center     Atomic                   Forces (Hartrees/Bohr)
 Number     Number              X              Y              Z
 -------------------------------------------------------------------
      1        6          -0.001196826   -0.002091487   -0.000967048
      2        6           0.000467131    0.001158799    0.002117392
      3        1          -0.000578864    0.000115556    0.000036219
      4        1          -0.000055994    0.000321651   -0.000125613
      5        1           0.000008200    0.000034618   -0.000498219
      6        6           0.000467490   -0.001073508    0.002119177
      7        6          -0.001318507    0.001913281   -0.000984390
      8        1           0.000013369   -0.000032698   -0.000505627
      9        1          -0.000030072   -0.000320486   -0.000144969
     10        1          -0.000482957   -0.000037636    0.000121320
     11        6           0.000856018    0.000575023   -0.001720259
     12        6           0.001622084    0.000106650   -0.000833819
     13        1          -0.000036539    0.000193794    0.000181134
     14        1           0.000464822   -0.000556313    0.000940048
     15        1          -0.000225673   -0.000075385    0.000079299
     16        1           0.000026321   -0.000231862    0.000185356
 -------------------------------------------------------------------
 Cartesian Forces:  Max     0.002119177 RMS     0.000858316
 Z-matrix is all fixed cartesians, so copy forces.
 Leave Link  716 at Sun Apr 28 19:50:14 2024, MaxMem=   104857600 cpu:               0.0 elap:               0.4
 (Enter /mlatom/software/Gaussian/g16-avx2/l123.exe)
 IRC-IRC-IRC-IRC-IRC-IRC-IRC-IRC-IRC-IRC-IRC-IRC-IRC-IRC-IRC-IRC-IRC-IRC
 Pt 65 Step number   1 out of a maximum of  20
 Point Number:  21          Path Number:   2
                    CURRENT STRUCTURE
                Cartesian Coordinates (Ang):                
 ---------------------------------------------------------------------
 Center     Atomic                     Coordinates (Angstroms)
 Number     Number                        X           Y           Z
 ---------------------------------------------------------------------
      1          6                   -0.784101    1.521221    0.641544
      2          6                   -1.336295    0.731812   -0.293344
      3          1                   -0.262535    1.106074    1.502953
      4          1                   -0.827069    2.603785    0.577749
      5          1                   -1.828858    1.195713   -1.144289
      6          6                   -1.336371   -0.731413   -0.293520
      7          6                   -0.783910   -1.520742    0.641159
      8          1                   -1.828983   -1.195204   -1.144501
      9          1                   -0.827326   -2.603313    0.577558
     10          1                   -0.263033   -1.105897    1.502854
     11          6                    2.026031    0.664233   -0.365213
     12          6                    2.025455   -0.665161   -0.364884
     13          1                    2.430840    1.243577    0.459666
     14          1                    1.613035    1.237873   -1.192644
     15          1                    1.616884   -1.238419   -1.192322
     16          1                    2.429705   -1.243593    0.460875
 ---------------------------------------------------------------------
   CHANGE IN THE REACTION COORDINATE =    0.28719
   NET REACTION COORDINATE UP TO THIS POINT =    6.06077
  # OF POINTS ALONG THE PATH =  65
  # OF STEPS =   1

 Calculating another point on the path.
 Point Number 22 in REVERSE path direction.
 Using LQA Reaction Path Following.
   LQA: T_Est iteration completed in    3 iterations.
 IRC-IRC-IRC-IRC-IRC-IRC-IRC-IRC-IRC-IRC-IRC-IRC-IRC-IRC-IRC-IRC-IRC-IRC
 Leave Link  123 at Sun Apr 28 19:50:15 2024, MaxMem=   104857600 cpu:               0.1 elap:               1.1
 (Enter /mlatom/software/Gaussian/g16-avx2/l202.exe)
                          Input orientation:                          
 ---------------------------------------------------------------------
 Center     Atomic      Atomic             Coordinates (Angstroms)
 Number     Number       Type             X           Y           Z
 ---------------------------------------------------------------------
      1          6           0       -0.796597    1.517331    0.644259
      2          6           0       -1.341997    0.732474   -0.290397
      3          1           0       -0.296812    1.106818    1.516996
      4          1           0       -0.841090    2.600472    0.581119
      5          1           0       -1.819155    1.193535   -1.154617
      6          6           0       -1.342469   -0.732237   -0.289945
      7          6           0       -0.798963   -1.518189    0.645503
      8          1           0       -1.819881   -1.193071   -1.154112
      9          1           0       -0.843159   -2.601247    0.581535
     10          1           0       -0.296689   -1.107393    1.517466
     11          6           0        2.044853    0.665219   -0.371328
     12          6           0        2.046078   -0.664356   -0.372270
     13          1           0        2.449243    1.241597    0.456816
     14          1           0        1.639932    1.240584   -1.195436
     15          1           0        1.627857   -1.240605   -1.196359
     16          1           0        2.451273   -1.243554    0.453546
 ---------------------------------------------------------------------
                    Distance matrix (angstroms):
                    1          2          3          4          5
     1  C    0.000000
     2  C    1.336804   0.000000
     3  H    1.086267   2.121135   0.000000
     4  H    1.085892   2.121289   1.844751   0.000000
     5  H    2.094379   1.089556   3.076128   2.439029   0.000000
     6  C    2.496251   1.464711   2.782186   3.480961   2.164137
     7  C    3.035521   2.497254   2.811106   4.119380   3.410964
     8  H    3.409916   2.163815   3.839797   4.284860   2.386606
     9  H    4.119319   3.481781   3.863072   5.201719   4.285693
    10  H    2.810974   2.783190   2.214211   3.862820   3.840859
    11  C    3.135499   3.388484   3.040423   3.602920   3.977842
    12  C    3.724768   3.665636   3.492207   4.461367   4.359341
    13  H    3.262919   3.897567   2.946686   3.562061   4.562702
    14  H    3.065574   3.157399   3.335589   3.340795   3.459648
    15  H    4.107562   3.678836   4.071491   4.899898   4.220032
    16  H    4.267027   4.341317   3.769236   5.062851   5.173215
                    6          7          8          9         10
     6  C    0.000000
     7  C    1.337229   0.000000
     8  H    1.089529   2.094419   0.000000
     9  H    2.121788   1.085845   2.439143   0.000000
    10  H    2.121587   1.086900   3.076488   1.845588   0.000000
    11  C    3.665168   3.726729   4.359147   4.462999   3.491778
    12  C    3.390226   3.139928   3.979504   3.606797   3.042357
    13  H    4.339441   4.266481   5.171858   5.061908   3.766015
    14  H    3.688720   4.116807   4.230212   4.907447   4.077172
    15  H    3.146880   3.059242   3.448324   3.334393   3.329634
    16  H    3.899577   3.267462   4.563976   3.565529   2.949874
                   11         12         13         14         15
    11  C    0.000000
    12  C    1.329576   0.000000
    13  H    1.086999   2.117211   0.000000
    14  H    1.083587   2.114558   1.839816   0.000000
    15  H    2.118189   1.089080   3.093379   2.481219   0.000000
    16  H    2.118728   1.087026   2.485154   3.090042   1.843966
                   16
    16  H    0.000000
 Symmetry turned off by external request.
 Stoichiometry    C6H10
 Framework group  C1[X(C6H10)]
 Deg. of freedom    42
 Full point group                 C1      NOp   1
 Rotational constants (GHZ):           3.9501091           2.3915693           1.7349891
 Leave Link  202 at Sun Apr 28 19:50:19 2024, MaxMem=   104857600 cpu:               0.0 elap:               0.5
 (Enter /mlatom/software/Gaussian/g16-avx2/l301.exe)
 Standard basis: STO-3G (5D, 7F)
 Ernie: Thresh=  0.10000D-02 Tol=  0.10000D-05 Strict=F.
    40 basis functions,   120 primitive gaussians,    40 cartesian basis functions
    23 alpha electrons       23 beta electrons
       nuclear repulsion energy       209.6284648575 Hartrees.
 IExCor=    0 DFT=F Ex=HF Corr=None ExCW=0 ScaHFX=  1.000000
 ScaDFX=  1.000000  1.000000  1.000000  1.000000 ScalE2=  1.000000  1.000000
 IRadAn=      5 IRanWt=     -1 IRanGd=            0 ICorTp=0 IEmpDi=  4
 NAtoms=   16 NActive=   16 NUniq=   16 SFac= 1.00D+00 NAtFMM=   60 NAOKFM=F Big=F
 Integral buffers will be    131072 words long.
 Raffenetti 1 integral format.
 Two-electron integral symmetry is turned off.
 Leave Link  301 at Sun Apr 28 19:50:20 2024, MaxMem=   104857600 cpu:               0.0 elap:               0.4
 (Enter /mlatom/software/Gaussian/g16-avx2/l402.exe)
 External calculation of energy and first derivatives.
 Running external command "/mlatom/software/miniconda3/bin/python /mlatom/software/mlatom/mlatom/interfaces/gaussian_interface.py model_predict_kwargs R"
         input file       "/mlatom/home/qhzhang/git/ts-analysis/calculations/_other/irc/da/ani/irc_1/Gau-43310.EIn"
         output file      "/mlatom/home/qhzhang/git/ts-analysis/calculations/_other/irc/da/ani/irc_1/Gau-43310.EOu"
         message file     "/mlatom/home/qhzhang/git/ts-analysis/calculations/_other/irc/da/ani/irc_1/Gau-43310.EMs"
         fchk file        "/mlatom/home/qhzhang/git/ts-analysis/calculations/_other/irc/da/ani/irc_1/Gau-43310.EFC"
         mat. el file     "/mlatom/home/qhzhang/git/ts-analysis/calculations/_other/irc/da/ani/irc_1/Gau-43310.EUF"
model loaded from /mlatom/home/qhzhang/git/ts-analysis/calculations/_other/irc/da/ani/irc/da_energy_iteration27.npz
 Recovered energy= -234.589195037     dipole=      0.000000000000      0.000000000000      0.000000000000
 Energy=    -234.589195     NIter=   0.
 Dipole moment=       0.000000       0.000000       0.000000
 Leave Link  402 at Sun Apr 28 19:50:26 2024, MaxMem=   104857600 cpu:               0.0 elap:               4.8
 (Enter /mlatom/software/Gaussian/g16-avx2/l716.exe)
 Dipole        = 0.00000000D+00 0.00000000D+00 0.00000000D+00
 -------------------------------------------------------------------
 Center     Atomic                   Forces (Hartrees/Bohr)
 Number     Number              X              Y              Z
 -------------------------------------------------------------------
      1        6          -0.000934707    0.003405137    0.002130611
      2        6          -0.001235229   -0.002669889   -0.003771368
      3        1           0.000606591   -0.000850861    0.001323624
      4        1           0.000455564    0.000056973   -0.000279716
      5        1           0.000396708   -0.000178022    0.001135877
      6        6          -0.001191755    0.002276876   -0.003642151
      7        6          -0.000622745   -0.002731074    0.002027749
      8        1           0.000379391    0.000160985    0.001149539
      9        1           0.000366959   -0.000052496   -0.000222670
     10        1           0.000320504    0.000618470    0.001059472
     11        6           0.002386918   -0.000599075    0.001076431
     12        6           0.000092451   -0.001407419   -0.001550933
     13        1          -0.000152440   -0.000053930   -0.000147215
     14        1          -0.001286155    0.000934705   -0.001347426
     15        1           0.000711625    0.000938443    0.001203214
     16        1          -0.000293680    0.000151177   -0.000145044
 -------------------------------------------------------------------
 Cartesian Forces:  Max     0.003771368 RMS     0.001433074
 Z-matrix is all fixed cartesians, so copy forces.
 Leave Link  716 at Sun Apr 28 19:50:26 2024, MaxMem=   104857600 cpu:               0.0 elap:               0.4
 (Enter /mlatom/software/Gaussian/g16-avx2/l123.exe)
 IRC-IRC-IRC-IRC-IRC-IRC-IRC-IRC-IRC-IRC-IRC-IRC-IRC-IRC-IRC-IRC-IRC-IRC
 Pt 66 Step number   1 out of a maximum of  20
 Point Number:  22          Path Number:   2
                    CURRENT STRUCTURE
                Cartesian Coordinates (Ang):                
 ---------------------------------------------------------------------
 Center     Atomic                     Coordinates (Angstroms)
 Number     Number                        X           Y           Z
 ---------------------------------------------------------------------
      1          6                   -0.796597    1.517331    0.644259
      2          6                   -1.341997    0.732474   -0.290397
      3          1                   -0.296812    1.106818    1.516996
      4          1                   -0.841090    2.600472    0.581119
      5          1                   -1.819155    1.193535   -1.154617
      6          6                   -1.342469   -0.732237   -0.289945
      7          6                   -0.798963   -1.518189    0.645503
      8          1                   -1.819881   -1.193071   -1.154112
      9          1                   -0.843159   -2.601247    0.581535
     10          1                   -0.296689   -1.107393    1.517466
     11          6                    2.044853    0.665219   -0.371328
     12          6                    2.046078   -0.664356   -0.372270
     13          1                    2.449243    1.241597    0.456816
     14          1                    1.639932    1.240584   -1.195436
     15          1                    1.627857   -1.240605   -1.196359
     16          1                    2.451273   -1.243554    0.453546
 ---------------------------------------------------------------------
   CHANGE IN THE REACTION COORDINATE =    0.28119
   NET REACTION COORDINATE UP TO THIS POINT =    6.34195
  # OF POINTS ALONG THE PATH =  66
  # OF STEPS =   1

 Calculating another point on the path.
 Point Number 23 in REVERSE path direction.
 Using LQA Reaction Path Following.
   LQA: T_Est iteration completed in    5 iterations.
 IRC-IRC-IRC-IRC-IRC-IRC-IRC-IRC-IRC-IRC-IRC-IRC-IRC-IRC-IRC-IRC-IRC-IRC
 Leave Link  123 at Sun Apr 28 19:50:28 2024, MaxMem=   104857600 cpu:               0.1 elap:               1.2
 (Enter /mlatom/software/Gaussian/g16-avx2/l202.exe)
                          Input orientation:                          
 ---------------------------------------------------------------------
 Center     Atomic      Atomic             Coordinates (Angstroms)
 Number     Number       Type             X           Y           Z
 ---------------------------------------------------------------------
      1          6           0       -0.813809    1.522618    0.658139
      2          6           0       -1.338608    0.731049   -0.295787
      3          1           0       -0.328764    1.108718    1.540947
      4          1           0       -0.846340    2.603594    0.585936
      5          1           0       -1.804944    1.195083   -1.161943
      6          6           0       -1.338868   -0.731219   -0.295729
      7          6           0       -0.811453   -1.520834    0.656919
      8          1           0       -1.805850   -1.195786   -1.161092
      9          1           0       -0.846511   -2.602134    0.586906
     10          1           0       -0.330188   -1.107926    1.540911
     11          6           0        2.058578    0.663784   -0.379205
     12          6           0        2.054715   -0.665837   -0.379403
     13          1           0        2.468372    1.242473    0.444444
     14          1           0        1.633994    1.242207   -1.201413
     15          1           0        1.651286   -1.238459   -1.202436
     16          1           0        2.464633   -1.242547    0.445257
 ---------------------------------------------------------------------
                    Distance matrix (angstroms):
                    1          2          3          4          5
     1  C    0.000000
     2  C    1.346093   0.000000
     3  H    1.089005   2.129791   0.000000
     4  H    1.083873   2.127484   1.847860   0.000000
     5  H    2.098172   1.087669   3.080938   2.440882   0.000000
     6  C    2.503064   1.462268   2.789096   3.484378   2.162913
     7  C    3.043453   2.501304   2.815855   4.125187   3.416356
     8  H    3.418108   2.163276   3.846236   4.290461   2.390869
     9  H    4.125497   3.483019   3.866353   5.205729   4.289047
    10  H    2.816547   2.787867   2.216645   3.867011   3.845020
    11  C    3.172426   3.398876   3.095861   3.623936   3.977658
    12  C    3.754232   3.670548   3.538045   4.476291   4.355727
    13  H    3.301039   3.911853   3.007354   3.586082   4.565518
    14  H    3.086795   3.149254   3.375022   3.346647   3.439487
    15  H    4.142701   3.693296   4.117764   4.919123   4.227208
    16  H    4.294140   4.348433   3.812092   5.076921   5.172468
                    6          7          8          9         10
     6  C    0.000000
     7  C    1.345064   0.000000
     8  H    1.087542   2.097533   0.000000
     9  H    2.126449   1.084131   2.440009   0.000000
    10  H    2.128988   1.087912   3.079954   1.846450   0.000000
    11  C    3.673641   3.752758   4.359260   4.476509   3.540057
    12  C    3.395244   3.165423   3.974398   3.619407   3.093672
    13  H    4.351826   4.293980   5.176082   5.078361   3.815567
    14  H    3.681383   4.131345   4.216392   4.912225   4.111141
    15  H    3.165506   3.098713   3.457646   3.361598   3.386625
    16  H    3.908598   3.294691   4.562846   3.582208   3.004930
                   11         12         13         14         15
    11  C    0.000000
    12  C    1.329627   0.000000
    13  H    1.086836   2.119312   0.000000
    14  H    1.091271   2.119750   1.845274   0.000000
    15  H    2.112374   1.080756   3.087858   2.480727   0.000000
    16  H    2.116297   1.086596   2.485023   3.094429   1.837510
                   16
    16  H    0.000000
 Symmetry turned off by external request.
 Stoichiometry    C6H10
 Framework group  C1[X(C6H10)]
 Deg. of freedom    42
 Full point group                 C1      NOp   1
 Rotational constants (GHZ):           3.9240953           2.3643518           1.7222829
 Leave Link  202 at Sun Apr 28 19:50:32 2024, MaxMem=   104857600 cpu:               0.0 elap:               0.5
 (Enter /mlatom/software/Gaussian/g16-avx2/l301.exe)
 Standard basis: STO-3G (5D, 7F)
 Ernie: Thresh=  0.10000D-02 Tol=  0.10000D-05 Strict=F.
    40 basis functions,   120 primitive gaussians,    40 cartesian basis functions
    23 alpha electrons       23 beta electrons
       nuclear repulsion energy       208.9883369325 Hartrees.
 IExCor=    0 DFT=F Ex=HF Corr=None ExCW=0 ScaHFX=  1.000000
 ScaDFX=  1.000000  1.000000  1.000000  1.000000 ScalE2=  1.000000  1.000000
 IRadAn=      5 IRanWt=     -1 IRanGd=            0 ICorTp=0 IEmpDi=  4
 NAtoms=   16 NActive=   16 NUniq=   16 SFac= 1.00D+00 NAtFMM=   60 NAOKFM=F Big=F
 Integral buffers will be    131072 words long.
 Raffenetti 1 integral format.
 Two-electron integral symmetry is turned off.
 Leave Link  301 at Sun Apr 28 19:50:33 2024, MaxMem=   104857600 cpu:               0.0 elap:               0.4
 (Enter /mlatom/software/Gaussian/g16-avx2/l402.exe)
 External calculation of energy and first derivatives.
 Running external command "/mlatom/software/miniconda3/bin/python /mlatom/software/mlatom/mlatom/interfaces/gaussian_interface.py model_predict_kwargs R"
         input file       "/mlatom/home/qhzhang/git/ts-analysis/calculations/_other/irc/da/ani/irc_1/Gau-43310.EIn"
         output file      "/mlatom/home/qhzhang/git/ts-analysis/calculations/_other/irc/da/ani/irc_1/Gau-43310.EOu"
         message file     "/mlatom/home/qhzhang/git/ts-analysis/calculations/_other/irc/da/ani/irc_1/Gau-43310.EMs"
         fchk file        "/mlatom/home/qhzhang/git/ts-analysis/calculations/_other/irc/da/ani/irc_1/Gau-43310.EFC"
         mat. el file     "/mlatom/home/qhzhang/git/ts-analysis/calculations/_other/irc/da/ani/irc_1/Gau-43310.EUF"
model loaded from /mlatom/home/qhzhang/git/ts-analysis/calculations/_other/irc/da/ani/irc/da_energy_iteration27.npz
 Recovered energy= -234.589276516     dipole=      0.000000000000      0.000000000000      0.000000000000
 Energy=    -234.589277     NIter=   0.
 Dipole moment=       0.000000       0.000000       0.000000
 Leave Link  402 at Sun Apr 28 19:50:38 2024, MaxMem=   104857600 cpu:               0.0 elap:               4.8
 (Enter /mlatom/software/Gaussian/g16-avx2/l716.exe)
 Dipole        = 0.00000000D+00 0.00000000D+00 0.00000000D+00
 -------------------------------------------------------------------
 Center     Atomic                   Forces (Hartrees/Bohr)
 Number     Number              X              Y              Z
 -------------------------------------------------------------------
      1        6          -0.002470618   -0.005038574   -0.004053089
      2        6           0.002388867    0.004185605    0.004672790
      3        1          -0.000459757    0.000211658   -0.000271027
      4        1          -0.000081269    0.001053677   -0.000104698
      5        1           0.000275799    0.000139857   -0.000064083
      6        6           0.002319669   -0.003243430    0.004238638
      7        6          -0.002962563    0.003530225   -0.003580886
      8        1           0.000276913   -0.000141363   -0.000215075
      9        1           0.000110281   -0.000940434   -0.000193546
     10        1           0.000054107    0.000209164    0.000171105
     11        6          -0.000979122    0.002163631   -0.002742230
     12        6           0.003376999    0.001795234    0.002097871
     13        1          -0.000413733   -0.000119324    0.000036609
     14        1           0.001263993   -0.001671797    0.002380664
     15        1          -0.002409151   -0.001998789   -0.002557375
     16        1          -0.000290414   -0.000135342    0.000184332
 -------------------------------------------------------------------
 Cartesian Forces:  Max     0.005038574 RMS     0.002153143
 Z-matrix is all fixed cartesians, so copy forces.
 Leave Link  716 at Sun Apr 28 19:50:39 2024, MaxMem=   104857600 cpu:               0.0 elap:               0.4
 (Enter /mlatom/software/Gaussian/g16-avx2/l123.exe)
 IRC-IRC-IRC-IRC-IRC-IRC-IRC-IRC-IRC-IRC-IRC-IRC-IRC-IRC-IRC-IRC-IRC-IRC
 Pt 67 Step number   1 out of a maximum of  20
 Point Number:  23          Path Number:   2
                    CURRENT STRUCTURE
                Cartesian Coordinates (Ang):                
 ---------------------------------------------------------------------
 Center     Atomic                     Coordinates (Angstroms)
 Number     Number                        X           Y           Z
 ---------------------------------------------------------------------
      1          6                   -0.813809    1.522618    0.658139
      2          6                   -1.338608    0.731049   -0.295787
      3          1                   -0.328764    1.108718    1.540947
      4          1                   -0.846340    2.603594    0.585936
      5          1                   -1.804944    1.195083   -1.161943
      6          6                   -1.338868   -0.731219   -0.295729
      7          6                   -0.811453   -1.520834    0.656919
      8          1                   -1.805850   -1.195786   -1.161092
      9          1                   -0.846511   -2.602134    0.586906
     10          1                   -0.330188   -1.107926    1.540911
     11          6                    2.058578    0.663784   -0.379205
     12          6                    2.054715   -0.665837   -0.379403
     13          1                    2.468372    1.242473    0.444444
     14          1                    1.633994    1.242207   -1.201413
     15          1                    1.651286   -1.238459   -1.202436
     16          1                    2.464633   -1.242547    0.445257
 ---------------------------------------------------------------------
   CHANGE IN THE REACTION COORDINATE =    0.27202
   NET REACTION COORDINATE UP TO THIS POINT =    6.61397
  # OF POINTS ALONG THE PATH =  67
  # OF STEPS =   1

 Calculating another point on the path.
 Point Number 24 in REVERSE path direction.
 Using LQA Reaction Path Following.
   LQA: T_Est iteration completed in    5 iterations.
 IRC-IRC-IRC-IRC-IRC-IRC-IRC-IRC-IRC-IRC-IRC-IRC-IRC-IRC-IRC-IRC-IRC-IRC
 Leave Link  123 at Sun Apr 28 19:50:41 2024, MaxMem=   104857600 cpu:               0.1 elap:               1.2
 (Enter /mlatom/software/Gaussian/g16-avx2/l202.exe)
                          Input orientation:                          
 ---------------------------------------------------------------------
 Center     Atomic      Atomic             Coordinates (Angstroms)
 Number     Number       Type             X           Y           Z
 ---------------------------------------------------------------------
      1          6           0       -0.822138    1.518050    0.659122
      2          6           0       -1.336998    0.733519   -0.291401
      3          1           0       -0.379700    1.111547    1.566577
      4          1           0       -0.852747    2.601916    0.586863
      5          1           0       -1.775863    1.198186   -1.174073
      6          6           0       -1.336975   -0.732442   -0.292330
      7          6           0       -0.826725   -1.519926    0.660747
      8          1           0       -1.774897   -1.196190   -1.176812
      9          1           0       -0.853769   -2.602920    0.587249
     10          1           0       -0.379000   -1.110187    1.565718
     11          6           0        2.063862    0.665421   -0.385077
     12          6           0        2.070341   -0.664020   -0.385180
     13          1           0        2.489234    1.243671    0.429377
     14          1           0        1.649446    1.234659   -1.204848
     15          1           0        1.635913   -1.242536   -1.206630
     16          1           0        2.487406   -1.245298    0.432833
 ---------------------------------------------------------------------
                    Distance matrix (angstroms):
                    1          2          3          4          5
     1  C    0.000000
     2  C    1.335688   0.000000
     3  H    1.088334   2.124008   0.000000
     4  H    1.086703   2.120555   1.845213   0.000000
     5  H    2.091054   1.089783   3.077002   2.433823   0.000000
     6  C    2.497005   1.465962   2.787869   3.482155   2.167353
     7  C    3.037979   2.498995   2.818690   4.122586   3.414024
     8  H    3.412551   2.167830   3.846871   4.287950   2.394378
     9  H    4.121718   3.483871   3.870542   5.204836   4.289629
    10  H    2.815300   2.786737   2.221734   3.868113   3.845291
    11  C    3.185329   3.402832   3.158952   3.633358   3.955988
    12  C    3.770733   3.684002   3.600652   4.489504   4.345509
    13  H    3.330653   3.926810   3.088926   3.610882   4.556773
    14  H    3.108604   3.162969   3.437061   3.367579   3.425641
    15  H    4.140516   3.685192   4.158736   4.918318   4.195045
    16  H    4.317450   4.366497   3.880772   5.097195   5.169934
                    6          7          8          9         10
     6  C    0.000000
     7  C    1.337476   0.000000
     8  H    1.090479   2.092955   0.000000
     9  H    2.122695   1.085822   2.437063   0.000000
    10  H    2.124324   1.089640   3.078538   1.846905   0.000000
    11  C    3.678086   3.771602   4.339183   4.487765   3.595269
    12  C    3.409268   3.196800   3.961785   3.640792   3.162964
    13  H    4.366437   4.322798   5.168712   5.098711   3.880553
    14  H    3.690648   4.147240   4.199516   4.919827   4.157996
    15  H    3.151857   3.103003   3.411255   3.356659   3.429768
    16  H    3.926165   3.333291   4.556380   3.609769   3.085120
                   11         12         13         14         15
    11  C    0.000000
    12  C    1.329456   0.000000
    13  H    1.085657   2.116190   0.000000
    14  H    1.080647   2.110448   1.837395   0.000000
    15  H    2.120940   1.094618   3.096111   2.477232   0.000000
    16  H    2.121134   1.086725   2.488972   3.087776   1.847400
                   16
    16  H    0.000000
 Symmetry turned off by external request.
 Stoichiometry    C6H10
 Framework group  C1[X(C6H10)]
 Deg. of freedom    42
 Full point group                 C1      NOp   1
 Rotational constants (GHZ):           3.9249002           2.3442862           1.7128663
 Leave Link  202 at Sun Apr 28 19:50:45 2024, MaxMem=   104857600 cpu:               0.0 elap:               0.5
 (Enter /mlatom/software/Gaussian/g16-avx2/l301.exe)
 Standard basis: STO-3G (5D, 7F)
 Ernie: Thresh=  0.10000D-02 Tol=  0.10000D-05 Strict=F.
    40 basis functions,   120 primitive gaussians,    40 cartesian basis functions
    23 alpha electrons       23 beta electrons
       nuclear repulsion energy       208.8406925152 Hartrees.
 IExCor=    0 DFT=F Ex=HF Corr=None ExCW=0 ScaHFX=  1.000000
 ScaDFX=  1.000000  1.000000  1.000000  1.000000 ScalE2=  1.000000  1.000000
 IRadAn=      5 IRanWt=     -1 IRanGd=            0 ICorTp=0 IEmpDi=  4
 NAtoms=   16 NActive=   16 NUniq=   16 SFac= 1.00D+00 NAtFMM=   60 NAOKFM=F Big=F
 Integral buffers will be    131072 words long.
 Raffenetti 1 integral format.
 Two-electron integral symmetry is turned off.
 Leave Link  301 at Sun Apr 28 19:50:46 2024, MaxMem=   104857600 cpu:               0.0 elap:               0.4
 (Enter /mlatom/software/Gaussian/g16-avx2/l402.exe)
 External calculation of energy and first derivatives.
 Running external command "/mlatom/software/miniconda3/bin/python /mlatom/software/mlatom/mlatom/interfaces/gaussian_interface.py model_predict_kwargs R"
         input file       "/mlatom/home/qhzhang/git/ts-analysis/calculations/_other/irc/da/ani/irc_1/Gau-43310.EIn"
         output file      "/mlatom/home/qhzhang/git/ts-analysis/calculations/_other/irc/da/ani/irc_1/Gau-43310.EOu"
         message file     "/mlatom/home/qhzhang/git/ts-analysis/calculations/_other/irc/da/ani/irc_1/Gau-43310.EMs"
         fchk file        "/mlatom/home/qhzhang/git/ts-analysis/calculations/_other/irc/da/ani/irc_1/Gau-43310.EFC"
         mat. el file     "/mlatom/home/qhzhang/git/ts-analysis/calculations/_other/irc/da/ani/irc_1/Gau-43310.EUF"
model loaded from /mlatom/home/qhzhang/git/ts-analysis/calculations/_other/irc/da/ani/irc/da_energy_iteration27.npz
 Recovered energy= -234.589285062     dipole=      0.000000000000      0.000000000000      0.000000000000
 Energy=    -234.589285     NIter=   0.
 Dipole moment=       0.000000       0.000000       0.000000
 Leave Link  402 at Sun Apr 28 19:50:52 2024, MaxMem=   104857600 cpu:               0.0 elap:               5.2
 (Enter /mlatom/software/Gaussian/g16-avx2/l716.exe)
 Dipole        = 0.00000000D+00 0.00000000D+00 0.00000000D+00
 -------------------------------------------------------------------
 Center     Atomic                   Forces (Hartrees/Bohr)
 Number     Number              X              Y              Z
 -------------------------------------------------------------------
      1        6          -0.001014941    0.004446488    0.005007512
      2        6          -0.000581610   -0.003346156   -0.004972597
      3        1           0.000827459   -0.000483325   -0.000406503
      4        1           0.000575721   -0.000572177   -0.000394103
      5        1           0.000366499   -0.000618213    0.000993608
      6        6          -0.000384488    0.001568169   -0.004023586
      7        6          -0.000475912   -0.001725263    0.003916419
      8        1           0.000441196    0.000792263    0.001465491
      9        1           0.000270485    0.000102789   -0.000342417
     10        1           0.000190213   -0.000139942   -0.000916757
     11        6           0.003251986   -0.002199229    0.001452059
     12        6          -0.002570349   -0.003522203   -0.004351293
     13        1          -0.000303772    0.000602556    0.000886921
     14        1          -0.002439925    0.002174406   -0.002529448
     15        1           0.002043308    0.002768712    0.004120521
     16        1          -0.000195870    0.000151126    0.000094175
 -------------------------------------------------------------------
 Cartesian Forces:  Max     0.005007512 RMS     0.002187190
 Z-matrix is all fixed cartesians, so copy forces.
 Leave Link  716 at Sun Apr 28 19:50:53 2024, MaxMem=   104857600 cpu:               0.0 elap:               0.5
 (Enter /mlatom/software/Gaussian/g16-avx2/l123.exe)
 IRC-IRC-IRC-IRC-IRC-IRC-IRC-IRC-IRC-IRC-IRC-IRC-IRC-IRC-IRC-IRC-IRC-IRC
 Pt 68 Step number   1 out of a maximum of  20
 Point Number:  24          Path Number:   2
                    CURRENT STRUCTURE
                Cartesian Coordinates (Ang):                
 ---------------------------------------------------------------------
 Center     Atomic                     Coordinates (Angstroms)
 Number     Number                        X           Y           Z
 ---------------------------------------------------------------------
      1          6                   -0.822138    1.518050    0.659122
      2          6                   -1.336998    0.733519   -0.291401
      3          1                   -0.379700    1.111547    1.566577
      4          1                   -0.852747    2.601916    0.586863
      5          1                   -1.775863    1.198186   -1.174073
      6          6                   -1.336975   -0.732442   -0.292330
      7          6                   -0.826725   -1.519926    0.660747
      8          1                   -1.774897   -1.196190   -1.176812
      9          1                   -0.853769   -2.602920    0.587249
     10          1                   -0.379000   -1.110187    1.565718
     11          6                    2.063862    0.665421   -0.385077
     12          6                    2.070341   -0.664020   -0.385180
     13          1                    2.489234    1.243671    0.429377
     14          1                    1.649446    1.234659   -1.204848
     15          1                    1.635913   -1.242536   -1.206630
     16          1                    2.487406   -1.245298    0.432833
 ---------------------------------------------------------------------
   CHANGE IN THE REACTION COORDINATE =    0.26278
   NET REACTION COORDINATE UP TO THIS POINT =    6.87675
  # OF POINTS ALONG THE PATH =  68
  # OF STEPS =   1

 Calculating another point on the path.
 Point Number 25 in REVERSE path direction.
 Using LQA Reaction Path Following.
   LQA: T_Est iteration completed in    5 iterations.
 IRC-IRC-IRC-IRC-IRC-IRC-IRC-IRC-IRC-IRC-IRC-IRC-IRC-IRC-IRC-IRC-IRC-IRC
 Leave Link  123 at Sun Apr 28 19:50:55 2024, MaxMem=   104857600 cpu:               0.1 elap:               1.4
 (Enter /mlatom/software/Gaussian/g16-avx2/l202.exe)
                          Input orientation:                          
 ---------------------------------------------------------------------
 Center     Atomic      Atomic             Coordinates (Angstroms)
 Number     Number       Type             X           Y           Z
 ---------------------------------------------------------------------
      1          6           0       -0.838887    1.525111    0.672694
      2          6           0       -1.327822    0.732186   -0.297024
      3          1           0       -0.405737    1.113688    1.583064
      4          1           0       -0.855324    2.606287    0.587170
      5          1           0       -1.747558    1.194262   -1.190485
      6          6           0       -1.328031   -0.732282   -0.295829
      7          6           0       -0.834019   -1.522304    0.670316
      8          1           0       -1.749439   -1.194601   -1.187311
      9          1           0       -0.852589   -2.604145    0.585011
     10          1           0       -0.404803   -1.113900    1.582948
     11          6           0        2.072901    0.663099   -0.391972
     12          6           0        2.067572   -0.666135   -0.391393
     13          1           0        2.491607    1.246612    0.425180
     14          1           0        1.632171    1.239612   -1.206089
     15          1           0        1.639890   -1.238016   -1.206455
     16          1           0        2.493676   -1.245915    0.422369
 ---------------------------------------------------------------------
                    Distance matrix (angstroms):
                    1          2          3          4          5
     1  C    0.000000
     2  C    1.344671   0.000000
     3  H    1.088880   2.128501   0.000000
     4  H    1.084678   2.125396   1.849806   0.000000
     5  H    2.099185   1.089937   3.082133   2.439252   0.000000
     6  C    2.504620   1.464469   2.790783   3.485568   2.165175
     7  C    3.047420   2.502462   2.822231   4.129483   3.417142
     8  H    3.418414   2.163996   3.848209   4.288936   2.388865
     9  H    4.130209   3.483524   3.875315   5.210433   4.287335
    10  H    2.825132   2.791827   2.227588   3.877413   3.850004
    11  C    3.217932   3.402750   3.201162   3.648178   3.938993
    12  C    3.792274   3.673269   3.630909   4.495514   4.319125
    13  H    3.351271   3.921002   3.122974   3.616201   4.536919
    14  H    3.117284   3.137744   3.456631   3.357262   3.380069
    15  H    4.160577   3.676422   4.182883   4.921570   4.170256
    16  H    4.341339   4.362827   3.914273   5.107095   5.152070
                    6          7          8          9         10
     6  C    0.000000
     7  C    1.342244   0.000000
     8  H    1.089065   2.096703   0.000000
     9  H    2.122685   1.085357   2.435627   0.000000
    10  H    2.127860   1.088080   3.080405   1.848572   0.000000
    11  C    3.677319   3.788750   4.323644   4.493091   3.632775
    12  C    3.397592   3.206163   3.934760   3.638212   3.195490
    13  H    4.361825   4.334372   5.152293   5.102697   3.911731
    14  H    3.671476   4.151045   4.166657   4.914930   4.179356
    15  H    3.145403   3.118223   3.389661   3.359778   3.460772
    16  H    3.922381   3.348347   4.538472   3.615070   3.124988
                   11         12         13         14         15
    11  C    0.000000
    12  C    1.329244   0.000000
    13  H    1.087906   2.122545   0.000000
    14  H    1.090596   2.117823   1.843833   0.000000
    15  H    2.113083   1.083645   3.092092   2.477641   0.000000
    16  H    2.117673   1.086241   2.492530   3.093851   1.839043
                   16
    16  H    0.000000
 Symmetry turned off by external request.
 Stoichiometry    C6H10
 Framework group  C1[X(C6H10)]
 Deg. of freedom    42
 Full point group                 C1      NOp   1
 Rotational constants (GHZ):           3.8998335           2.3358539           1.7090503
 Leave Link  202 at Sun Apr 28 19:50:59 2024, MaxMem=   104857600 cpu:               0.0 elap:               0.5
 (Enter /mlatom/software/Gaussian/g16-avx2/l301.exe)
 Standard basis: STO-3G (5D, 7F)
 Ernie: Thresh=  0.10000D-02 Tol=  0.10000D-05 Strict=F.
    40 basis functions,   120 primitive gaussians,    40 cartesian basis functions
    23 alpha electrons       23 beta electrons
       nuclear repulsion energy       208.5002063903 Hartrees.
 IExCor=    0 DFT=F Ex=HF Corr=None ExCW=0 ScaHFX=  1.000000
 ScaDFX=  1.000000  1.000000  1.000000  1.000000 ScalE2=  1.000000  1.000000
 IRadAn=      5 IRanWt=     -1 IRanGd=            0 ICorTp=0 IEmpDi=  4
 NAtoms=   16 NActive=   16 NUniq=   16 SFac= 1.00D+00 NAtFMM=   60 NAOKFM=F Big=F
 Integral buffers will be    131072 words long.
 Raffenetti 1 integral format.
 Two-electron integral symmetry is turned off.
 Leave Link  301 at Sun Apr 28 19:51:00 2024, MaxMem=   104857600 cpu:               0.0 elap:               0.4
 (Enter /mlatom/software/Gaussian/g16-avx2/l402.exe)
 External calculation of energy and first derivatives.
 Running external command "/mlatom/software/miniconda3/bin/python /mlatom/software/mlatom/mlatom/interfaces/gaussian_interface.py model_predict_kwargs R"
         input file       "/mlatom/home/qhzhang/git/ts-analysis/calculations/_other/irc/da/ani/irc_1/Gau-43310.EIn"
         output file      "/mlatom/home/qhzhang/git/ts-analysis/calculations/_other/irc/da/ani/irc_1/Gau-43310.EOu"
         message file     "/mlatom/home/qhzhang/git/ts-analysis/calculations/_other/irc/da/ani/irc_1/Gau-43310.EMs"
         fchk file        "/mlatom/home/qhzhang/git/ts-analysis/calculations/_other/irc/da/ani/irc_1/Gau-43310.EFC"
         mat. el file     "/mlatom/home/qhzhang/git/ts-analysis/calculations/_other/irc/da/ani/irc_1/Gau-43310.EUF"
model loaded from /mlatom/home/qhzhang/git/ts-analysis/calculations/_other/irc/da/ani/irc/da_energy_iteration27.npz
 Recovered energy= -234.589452529     dipole=      0.000000000000      0.000000000000      0.000000000000
 Energy=    -234.589453     NIter=   0.
 Dipole moment=       0.000000       0.000000       0.000000
 Leave Link  402 at Sun Apr 28 19:51:05 2024, MaxMem=   104857600 cpu:               0.0 elap:               5.1
 (Enter /mlatom/software/Gaussian/g16-avx2/l716.exe)
 Dipole        = 0.00000000D+00 0.00000000D+00 0.00000000D+00
 -------------------------------------------------------------------
 Center     Atomic                   Forces (Hartrees/Bohr)
 Number     Number              X              Y              Z
 -------------------------------------------------------------------
      1        6          -0.002400434   -0.003707418   -0.003269499
      2        6           0.002331904    0.003167412    0.002223186
      3        1           0.000013940    0.000401095   -0.000486197
      4        1          -0.000110487    0.000438770    0.000192016
      5        1           0.000424872   -0.000306159    0.001430042
      6        6           0.001940585   -0.000889306    0.000631322
      7        6          -0.002495845    0.000886170   -0.001428868
      8        1           0.000329692    0.000029542    0.000857002
      9        1           0.000106714   -0.000123048    0.000209236
     10        1           0.000484286    0.000065875   -0.000177601
     11        6          -0.001849906    0.002839594   -0.001617058
     12        6           0.001681998    0.000669965    0.000741146
     13        1          -0.000202384   -0.000723281   -0.000514142
     14        1           0.001173385   -0.001517412    0.001959325
     15        1          -0.001253476   -0.000916728   -0.001216895
     16        1          -0.000174843   -0.000315072    0.000466988
 -------------------------------------------------------------------
 Cartesian Forces:  Max     0.003707418 RMS     0.001438161
 Z-matrix is all fixed cartesians, so copy forces.
 Leave Link  716 at Sun Apr 28 19:51:06 2024, MaxMem=   104857600 cpu:               0.0 elap:               0.4
 (Enter /mlatom/software/Gaussian/g16-avx2/l123.exe)
 IRC-IRC-IRC-IRC-IRC-IRC-IRC-IRC-IRC-IRC-IRC-IRC-IRC-IRC-IRC-IRC-IRC-IRC
 Pt 69 Step number   1 out of a maximum of  20
 Point Number:  25          Path Number:   2
                    CURRENT STRUCTURE
                Cartesian Coordinates (Ang):                
 ---------------------------------------------------------------------
 Center     Atomic                     Coordinates (Angstroms)
 Number     Number                        X           Y           Z
 ---------------------------------------------------------------------
      1          6                   -0.838887    1.525111    0.672694
      2          6                   -1.327822    0.732186   -0.297024
      3          1                   -0.405737    1.113688    1.583064
      4          1                   -0.855324    2.606287    0.587170
      5          1                   -1.747558    1.194262   -1.190485
      6          6                   -1.328031   -0.732282   -0.295829
      7          6                   -0.834019   -1.522304    0.670316
      8          1                   -1.749439   -1.194601   -1.187311
      9          1                   -0.852589   -2.604145    0.585011
     10          1                   -0.404803   -1.113900    1.582948
     11          6                    2.072901    0.663099   -0.391972
     12          6                    2.067572   -0.666135   -0.391393
     13          1                    2.491607    1.246612    0.425180
     14          1                    1.632171    1.239612   -1.206089
     15          1                    1.639890   -1.238016   -1.206455
     16          1                    2.493676   -1.245915    0.422369
 ---------------------------------------------------------------------
   CHANGE IN THE REACTION COORDINATE =    0.24719
   NET REACTION COORDINATE UP TO THIS POINT =    7.12394
  # OF POINTS ALONG THE PATH =  69
  # OF STEPS =   1

 Calculating another point on the path.
 Point Number 26 in REVERSE path direction.
 Using LQA Reaction Path Following.
   LQA: T_Est iteration completed in    6 iterations.
 IRC-IRC-IRC-IRC-IRC-IRC-IRC-IRC-IRC-IRC-IRC-IRC-IRC-IRC-IRC-IRC-IRC-IRC
 Leave Link  123 at Sun Apr 28 19:51:08 2024, MaxMem=   104857600 cpu:               0.1 elap:               1.2
 (Enter /mlatom/software/Gaussian/g16-avx2/l202.exe)
                          Input orientation:                          
 ---------------------------------------------------------------------
 Center     Atomic      Atomic             Coordinates (Angstroms)
 Number     Number       Type             X           Y           Z
 ---------------------------------------------------------------------
      1          6           0       -0.844456    1.522353    0.675759
      2          6           0       -1.315936    0.733810   -0.296656
      3          1           0       -0.440818    1.116158    1.602094
      4          1           0       -0.858627    2.605321    0.591385
      5          1           0       -1.714538    1.196417   -1.196045
      6          6           0       -1.315796   -0.731427   -0.298296
      7          6           0       -0.852589   -1.526796    0.680462
      8          1           0       -1.713770   -1.194175   -1.198993
      9          1           0       -0.864661   -2.609017    0.593647
     10          1           0       -0.440325   -1.117713    1.603311
     11          6           0        2.067386    0.666111   -0.397134
     12          6           0        2.074611   -0.663655   -0.397979
     13          1           0        2.501966    1.246829    0.410676
     14          1           0        1.624607    1.236070   -1.206095
     15          1           0        1.625065   -1.236254   -1.208396
     16          1           0        2.505054   -1.248358    0.411394
 ---------------------------------------------------------------------
                    Distance matrix (angstroms):
                    1          2          3          4          5
     1  C    0.000000
     2  C    1.337791   0.000000
     3  H    1.089042   2.125387   0.000000
     4  H    1.086342   2.121391   1.847621   0.000000
     5  H    2.089720   1.087101   3.075449   2.431563   0.000000
     6  C    2.500094   1.465238   2.791171   3.483449   2.163684
     7  C    3.049164   2.505951   2.829164   4.133082   3.417620
     8  H    3.413199   2.165551   3.847614   4.286361   2.390594
     9  H    4.132236   3.488665   3.882466   5.214342   4.290294
    10  H    2.827299   2.793690   2.233871   3.880715   3.849052
    11  C    3.219173   3.385491   3.238911   3.646815   3.901594
    12  C    3.801644   3.668649   3.673611   4.502103   4.295862
    13  H    3.368192   3.916616   3.177504   3.629289   4.512538
    14  H    3.117628   3.118675   3.488020   3.357415   3.339396
    15  H    4.154333   3.655394   4.207205   4.915855   4.131705
    16  H    4.354991   4.362372   3.960665   5.118358   5.134758
                    6          7          8          9         10
     6  C    0.000000
     7  C    1.343555   0.000000
     8  H    1.088014   2.093948   0.000000
     9  H    2.127071   1.085765   2.436457   0.000000
    10  H    2.128796   1.090395   3.079028   1.850263   0.000000
    11  C    3.661803   3.807402   4.289613   4.506108   3.670480
    12  C    3.392549   3.236750   3.908312   3.661567   3.245957
    13  H    4.357917   4.361057   5.130493   5.122031   3.958600
    14  H    3.652548   4.162814   4.129273   4.921404   4.206779
    15  H    3.119582   3.129052   3.339113   3.366091   3.490785
    16  H    3.920430   3.379895   4.516055   3.638624   3.180093
                   11         12         13         14         15
    11  C    0.000000
    12  C    1.329786   0.000000
    13  H    1.085656   2.118137   0.000000
    14  H    1.084124   2.112938   1.839516   0.000000
    15  H    2.114897   1.089375   3.091286   2.472325   0.000000
    16  H    2.123785   1.087311   2.495190   3.092546   1.843434
                   16
    16  H    0.000000
 Symmetry turned off by external request.
 Stoichiometry    C6H10
 Framework group  C1[X(C6H10)]
 Deg. of freedom    42
 Full point group                 C1      NOp   1
 Rotational constants (GHZ):           3.8895245           2.3338195           1.7085829
 Leave Link  202 at Sun Apr 28 19:51:11 2024, MaxMem=   104857600 cpu:               0.0 elap:               0.5
 (Enter /mlatom/software/Gaussian/g16-avx2/l301.exe)
 Standard basis: STO-3G (5D, 7F)
 Ernie: Thresh=  0.10000D-02 Tol=  0.10000D-05 Strict=F.
    40 basis functions,   120 primitive gaussians,    40 cartesian basis functions
    23 alpha electrons       23 beta electrons
       nuclear repulsion energy       208.4880400633 Hartrees.
 IExCor=    0 DFT=F Ex=HF Corr=None ExCW=0 ScaHFX=  1.000000
 ScaDFX=  1.000000  1.000000  1.000000  1.000000 ScalE2=  1.000000  1.000000
 IRadAn=      5 IRanWt=     -1 IRanGd=            0 ICorTp=0 IEmpDi=  4
 NAtoms=   16 NActive=   16 NUniq=   16 SFac= 1.00D+00 NAtFMM=   60 NAOKFM=F Big=F
 Integral buffers will be    131072 words long.
 Raffenetti 1 integral format.
 Two-electron integral symmetry is turned off.
 Leave Link  301 at Sun Apr 28 19:51:12 2024, MaxMem=   104857600 cpu:               0.0 elap:               0.4
 (Enter /mlatom/software/Gaussian/g16-avx2/l402.exe)
 External calculation of energy and first derivatives.
 Running external command "/mlatom/software/miniconda3/bin/python /mlatom/software/mlatom/mlatom/interfaces/gaussian_interface.py model_predict_kwargs R"
         input file       "/mlatom/home/qhzhang/git/ts-analysis/calculations/_other/irc/da/ani/irc_1/Gau-43310.EIn"
         output file      "/mlatom/home/qhzhang/git/ts-analysis/calculations/_other/irc/da/ani/irc_1/Gau-43310.EOu"
         message file     "/mlatom/home/qhzhang/git/ts-analysis/calculations/_other/irc/da/ani/irc_1/Gau-43310.EMs"
         fchk file        "/mlatom/home/qhzhang/git/ts-analysis/calculations/_other/irc/da/ani/irc_1/Gau-43310.EFC"
         mat. el file     "/mlatom/home/qhzhang/git/ts-analysis/calculations/_other/irc/da/ani/irc_1/Gau-43310.EUF"
model loaded from /mlatom/home/qhzhang/git/ts-analysis/calculations/_other/irc/da/ani/irc/da_energy_iteration27.npz
 Recovered energy= -234.589492278     dipole=      0.000000000000      0.000000000000      0.000000000000
 Energy=    -234.589492     NIter=   0.
 Dipole moment=       0.000000       0.000000       0.000000
 Leave Link  402 at Sun Apr 28 19:51:18 2024, MaxMem=   104857600 cpu:               0.0 elap:               5.1
 (Enter /mlatom/software/Gaussian/g16-avx2/l716.exe)
 Dipole        = 0.00000000D+00 0.00000000D+00 0.00000000D+00
 -------------------------------------------------------------------
 Center     Atomic                   Forces (Hartrees/Bohr)
 Number     Number              X              Y              Z
 -------------------------------------------------------------------
      1        6          -0.000775694    0.002380863    0.003323984
      2        6           0.000909366   -0.002279965   -0.002010612
      3        1           0.000672527   -0.000012501   -0.000723338
      4        1           0.000057808   -0.000510362   -0.000068896
      5        1          -0.000253276    0.000120125   -0.000385015
      6        6           0.002047631   -0.002750935    0.002464986
      7        6          -0.001153206    0.003203189   -0.001338098
      8        1          -0.000114284    0.000213337    0.000201390
      9        1          -0.000303317    0.000398235   -0.000053540
     10        1          -0.000174153   -0.000722428   -0.001321901
     11        6           0.000964497   -0.001531249    0.000603841
     12        6          -0.001969408   -0.001339434   -0.001614009
     13        1          -0.000054410    0.000663807    0.000704612
     14        1          -0.000710108    0.000734327   -0.001037254
     15        1           0.001011987    0.000915597    0.001506483
     16        1          -0.000155959    0.000517394   -0.000252630
 -------------------------------------------------------------------
 Cartesian Forces:  Max     0.003323984 RMS     0.001308562
 Z-matrix is all fixed cartesians, so copy forces.
 Leave Link  716 at Sun Apr 28 19:51:19 2024, MaxMem=   104857600 cpu:               0.0 elap:               0.4
 (Enter /mlatom/software/Gaussian/g16-avx2/l123.exe)
 IRC-IRC-IRC-IRC-IRC-IRC-IRC-IRC-IRC-IRC-IRC-IRC-IRC-IRC-IRC-IRC-IRC-IRC
 Pt 70 Step number   1 out of a maximum of  20
 Point Number:  26          Path Number:   2
                    CURRENT STRUCTURE
                Cartesian Coordinates (Ang):                
 ---------------------------------------------------------------------
 Center     Atomic                     Coordinates (Angstroms)
 Number     Number                        X           Y           Z
 ---------------------------------------------------------------------
      1          6                   -0.844456    1.522353    0.675759
      2          6                   -1.315936    0.733810   -0.296656
      3          1                   -0.440818    1.116158    1.602094
      4          1                   -0.858627    2.605321    0.591385
      5          1                   -1.714538    1.196417   -1.196045
      6          6                   -1.315796   -0.731427   -0.298296
      7          6                   -0.852589   -1.526796    0.680462
      8          1                   -1.713770   -1.194175   -1.198993
      9          1                   -0.864661   -2.609017    0.593647
     10          1                   -0.440325   -1.117713    1.603311
     11          6                    2.067386    0.666111   -0.397134
     12          6                    2.074611   -0.663655   -0.397979
     13          1                    2.501966    1.246829    0.410676
     14          1                    1.624607    1.236070   -1.206095
     15          1                    1.625065   -1.236254   -1.208396
     16          1                    2.505054   -1.248358    0.411394
 ---------------------------------------------------------------------
   CHANGE IN THE REACTION COORDINATE =    0.25913
   NET REACTION COORDINATE UP TO THIS POINT =    7.38308
  # OF POINTS ALONG THE PATH =  70
  # OF STEPS =   1

 Calculating another point on the path.
 Point Number 27 in REVERSE path direction.
 Using LQA Reaction Path Following.
   LQA: T_Est iteration completed in    5 iterations.
 IRC-IRC-IRC-IRC-IRC-IRC-IRC-IRC-IRC-IRC-IRC-IRC-IRC-IRC-IRC-IRC-IRC-IRC
 Leave Link  123 at Sun Apr 28 19:51:21 2024, MaxMem=   104857600 cpu:               0.1 elap:               1.2
 (Enter /mlatom/software/Gaussian/g16-avx2/l202.exe)
                          Input orientation:                          
 ---------------------------------------------------------------------
 Center     Atomic      Atomic             Coordinates (Angstroms)
 Number     Number       Type             X           Y           Z
 ---------------------------------------------------------------------
      1          6           0       -0.862677    1.528632    0.688605
      2          6           0       -1.302242    0.731122   -0.301145
      3          1           0       -0.466241    1.121381    1.618292
      4          1           0       -0.876641    2.610687    0.600167
      5          1           0       -1.676073    1.192510   -1.214993
      6          6           0       -1.305219   -0.734109   -0.296419
      7          6           0       -0.851634   -1.520109    0.680448
      8          1           0       -1.680920   -1.195912   -1.208347
      9          1           0       -0.869053   -2.603057    0.596689
     10          1           0       -0.464675   -1.116655    1.613775
     11          6           0        2.070135    0.661819   -0.401807
     12          6           0        2.065989   -0.667366   -0.402622
     13          1           0        2.509062    1.247336    0.401857
     14          1           0        1.610943    1.231521   -1.206531
     15          1           0        1.615645   -1.236549   -1.208498
     16          1           0        2.508433   -1.251134    0.399793
 ---------------------------------------------------------------------
                    Distance matrix (angstroms):
                    1          2          3          4          5
     1  C    0.000000
     2  C    1.344934   0.000000
     3  H    1.089648   2.129657   0.000000
     4  H    1.085752   2.127501   1.850145   0.000000
     5  H    2.097208   1.089838   3.081600   2.438262   0.000000
     6  C    2.507213   1.465241   2.795147   3.489298   2.166372
     7  C    3.048772   2.496920   2.829407   4.131651   3.410380
     8  H    3.419224   2.163301   3.851646   4.290429   2.388436
     9  H    4.132717   3.480016   3.882959   5.213750   4.282500
    10  H    2.830528   2.789752   2.238041   3.884610   3.847292
    11  C    3.246806   3.374590   3.274935   3.672264   3.870010
    12  C    3.819721   3.648431   3.700797   4.517775   4.257008
    13  H    3.395582   3.909825   3.216832   3.655276   4.486933
    14  H    3.130274   3.091403   3.508056   3.369619   3.287259
    15  H    4.169809   3.634430   4.229045   4.927878   4.090938
    16  H    4.378915   4.352229   3.995279   5.139313   5.107742
                    6          7          8          9         10
     6  C    0.000000
     7  C    1.333343   0.000000
     8  H    1.089048   2.088148   0.000000
     9  H    2.116802   1.086322   2.428444   0.000000
    10  H    2.121721   1.087939   3.074070   1.845908   0.000000
    11  C    3.654139   3.803789   4.262872   4.505023   3.694699
    12  C    3.373541   3.226876   3.868834   3.655132   3.266799
    13  H    4.354591   4.362412   5.110594   5.125929   3.987520
    14  H    3.632631   4.146859   4.090085   4.909784   4.216189
    15  H    3.100933   3.120254   3.296815   3.361513   3.508181
    16  H    3.911007   3.382479   4.487744   3.643333   3.214220
                   11         12         13         14         15
    11  C    0.000000
    12  C    1.329192   0.000000
    13  H    1.086906   2.123579   0.000000
    14  H    1.087657   2.111660   1.842222   0.000000
    15  H    2.112134   1.084534   3.092106   2.468075   0.000000
    16  H    2.119919   1.086468   2.498471   3.090201   1.839534
                   16
    16  H    0.000000
 Symmetry turned off by external request.
 Stoichiometry    C6H10
 Framework group  C1[X(C6H10)]
 Deg. of freedom    42
 Full point group                 C1      NOp   1
 Rotational constants (GHZ):           3.8833499           2.3382387           1.7124517
 Leave Link  202 at Sun Apr 28 19:51:24 2024, MaxMem=   104857600 cpu:               0.0 elap:               0.5
 (Enter /mlatom/software/Gaussian/g16-avx2/l301.exe)
 Standard basis: STO-3G (5D, 7F)
 Ernie: Thresh=  0.10000D-02 Tol=  0.10000D-05 Strict=F.
    40 basis functions,   120 primitive gaussians,    40 cartesian basis functions
    23 alpha electrons       23 beta electrons
       nuclear repulsion energy       208.5810595649 Hartrees.
 IExCor=    0 DFT=F Ex=HF Corr=None ExCW=0 ScaHFX=  1.000000
 ScaDFX=  1.000000  1.000000  1.000000  1.000000 ScalE2=  1.000000  1.000000
 IRadAn=      5 IRanWt=     -1 IRanGd=            0 ICorTp=0 IEmpDi=  4
 NAtoms=   16 NActive=   16 NUniq=   16 SFac= 1.00D+00 NAtFMM=   60 NAOKFM=F Big=F
 Integral buffers will be    131072 words long.
 Raffenetti 1 integral format.
 Two-electron integral symmetry is turned off.
 Leave Link  301 at Sun Apr 28 19:51:25 2024, MaxMem=   104857600 cpu:               0.1 elap:               0.4
 (Enter /mlatom/software/Gaussian/g16-avx2/l402.exe)
 External calculation of energy and first derivatives.
 Running external command "/mlatom/software/miniconda3/bin/python /mlatom/software/mlatom/mlatom/interfaces/gaussian_interface.py model_predict_kwargs R"
         input file       "/mlatom/home/qhzhang/git/ts-analysis/calculations/_other/irc/da/ani/irc_1/Gau-43310.EIn"
         output file      "/mlatom/home/qhzhang/git/ts-analysis/calculations/_other/irc/da/ani/irc_1/Gau-43310.EOu"
         message file     "/mlatom/home/qhzhang/git/ts-analysis/calculations/_other/irc/da/ani/irc_1/Gau-43310.EMs"
         fchk file        "/mlatom/home/qhzhang/git/ts-analysis/calculations/_other/irc/da/ani/irc_1/Gau-43310.EFC"
         mat. el file     "/mlatom/home/qhzhang/git/ts-analysis/calculations/_other/irc/da/ani/irc_1/Gau-43310.EUF"
model loaded from /mlatom/home/qhzhang/git/ts-analysis/calculations/_other/irc/da/ani/irc/da_energy_iteration27.npz
 Recovered energy= -234.589428217     dipole=      0.000000000000      0.000000000000      0.000000000000
 Energy=    -234.589428     NIter=   0.
 Dipole moment=       0.000000       0.000000       0.000000
 Leave Link  402 at Sun Apr 28 19:51:30 2024, MaxMem=   104857600 cpu:               0.0 elap:               4.8
 (Enter /mlatom/software/Gaussian/g16-avx2/l716.exe)
 Dipole        = 0.00000000D+00 0.00000000D+00 0.00000000D+00
 -------------------------------------------------------------------
 Center     Atomic                   Forces (Hartrees/Bohr)
 Number     Number              X              Y              Z
 -------------------------------------------------------------------
      1        6          -0.001706984   -0.003980204   -0.003335959
      2        6           0.002021201    0.004570238    0.002852641
      3        1          -0.000101414    0.000554721   -0.000949550
      4        1          -0.000189334   -0.000414544   -0.000068984
      5        1           0.000076430   -0.000600677    0.001565679
      6        6          -0.000236513    0.004724902   -0.007354995
      7        6           0.000028607   -0.005944415    0.006615498
      8        1          -0.000153675    0.000294837    0.000909380
      9        1           0.000288253    0.000366784   -0.000090420
     10        1           0.001096971    0.000384631   -0.000097484
     11        6          -0.001804510    0.000966887   -0.001037160
     12        6           0.000665482    0.000415473    0.000808711
     13        1          -0.000220654   -0.000292634   -0.000006476
     14        1           0.000894381   -0.000233597    0.000700041
     15        1          -0.000387796   -0.000547012   -0.000846656
     16        1          -0.000270443   -0.000265388    0.000335735
 -------------------------------------------------------------------
 Cartesian Forces:  Max     0.007354995 RMS     0.002211640
 Z-matrix is all fixed cartesians, so copy forces.
 Leave Link  716 at Sun Apr 28 19:51:31 2024, MaxMem=   104857600 cpu:               0.0 elap:               0.4
 (Enter /mlatom/software/Gaussian/g16-avx2/l123.exe)
 IRC-IRC-IRC-IRC-IRC-IRC-IRC-IRC-IRC-IRC-IRC-IRC-IRC-IRC-IRC-IRC-IRC-IRC
 Pt 71 Step number   1 out of a maximum of  20
 Point Number:  27          Path Number:   2
                    CURRENT STRUCTURE
                Cartesian Coordinates (Ang):                
 ---------------------------------------------------------------------
 Center     Atomic                     Coordinates (Angstroms)
 Number     Number                        X           Y           Z
 ---------------------------------------------------------------------
      1          6                   -0.862677    1.528632    0.688605
      2          6                   -1.302242    0.731122   -0.301145
      3          1                   -0.466241    1.121381    1.618292
      4          1                   -0.876641    2.610687    0.600167
      5          1                   -1.676073    1.192510   -1.214993
      6          6                   -1.305219   -0.734109   -0.296419
      7          6                   -0.851634   -1.520109    0.680448
      8          1                   -1.680920   -1.195912   -1.208347
      9          1                   -0.869053   -2.603057    0.596689
     10          1                   -0.464675   -1.116655    1.613775
     11          6                    2.070135    0.661819   -0.401807
     12          6                    2.065989   -0.667366   -0.402622
     13          1                    2.509062    1.247336    0.401857
     14          1                    1.610943    1.231521   -1.206531
     15          1                    1.615645   -1.236549   -1.208498
     16          1                    2.508433   -1.251134    0.399793
 ---------------------------------------------------------------------
   CHANGE IN THE REACTION COORDINATE =    0.25845
   NET REACTION COORDINATE UP TO THIS POINT =    7.64153
  # OF POINTS ALONG THE PATH =  71
  # OF STEPS =   1

 Calculating another point on the path.
 Point Number 28 in REVERSE path direction.
 Using LQA Reaction Path Following.
   Warning:  LQA convergence difficult!  Criteria decreased to 1.d-3.
   LQA: T_Est iteration completed in   51 iterations.
 IRC-IRC-IRC-IRC-IRC-IRC-IRC-IRC-IRC-IRC-IRC-IRC-IRC-IRC-IRC-IRC-IRC-IRC
 Leave Link  123 at Sun Apr 28 19:51:33 2024, MaxMem=   104857600 cpu:               0.4 elap:               1.5
 (Enter /mlatom/software/Gaussian/g16-avx2/l202.exe)
                          Input orientation:                          
 ---------------------------------------------------------------------
 Center     Atomic      Atomic             Coordinates (Angstroms)
 Number     Number       Type             X           Y           Z
 ---------------------------------------------------------------------
      1          6           0       -0.864341    1.525372    0.690012
      2          6           0       -1.293169    0.734919   -0.299754
      3          1           0       -0.484660    1.124087    1.626744
      4          1           0       -0.892094    2.608739    0.607306
      5          1           0       -1.647188    1.193750   -1.221665
      6          6           0       -1.287486   -0.729310   -0.307182
      7          6           0       -0.864059   -1.528031    0.696872
      8          1           0       -1.646946   -1.192535   -1.223578
      9          1           0       -0.875177   -2.608066    0.606390
     10          1           0       -0.475126   -1.118090    1.627482
     11          6           0        2.061794    0.663055   -0.405650
     12          6           0        2.063092   -0.666071   -0.407485
     13          1           0        2.500984    1.247577    0.398555
     14          1           0        1.605656    1.234201   -1.205963
     15          1           0        1.601090   -1.234329   -1.211179
     16          1           0        2.506337   -1.254560    0.391055
 ---------------------------------------------------------------------
                    Distance matrix (angstroms):
                    1          2          3          4          5
     1  C    0.000000
     2  C    1.337291   0.000000
     3  H    1.087499   2.125214   0.000000
     4  H    1.086874   2.120099   1.846470   0.000000
     5  H    2.092208   1.088933   3.077298   2.432590   0.000000
     6  C    2.501407   1.464259   2.796369   3.483561   2.159589
     7  C    3.053410   2.509650   2.835902   4.137835   3.420843
     8  H    3.414867   2.166492   3.852530   4.286213   2.386286
     9  H    4.134298   3.488749   3.888778   5.216833   4.288542
    10  H    2.831648   2.795904   2.242198   3.886371   3.851750
    11  C    3.241347   3.357403   3.290533   3.679296   3.834588
    12  C    3.817955   3.638525   3.719380   4.526290   4.229420
    13  H    3.389325   3.891793   3.230753   3.661874   4.453688
    14  H    3.127361   3.077935   3.522183   3.378765   3.253133
    15  H    4.160387   3.617370   4.238666   4.928694   4.055488
    16  H    4.379368   4.344133   4.016336   5.149872   5.083980
                    6          7          8          9         10
     6  C    0.000000
     7  C    1.351063   0.000000
     8  H    1.087920   2.100857   0.000000
     9  H    2.129398   1.083876   2.438881   0.000000
    10  H    2.134011   1.088740   3.083383   1.850054   0.000000
    11  C    3.628506   3.817988   4.226934   4.511126   3.707030
    12  C    3.352675   3.245118   3.835043   3.665066   3.284503
    13  H    4.331126   4.372243   5.078463   5.129097   3.995482
    14  H    3.610188   4.165357   4.058174   4.919571   4.229816
    15  H    3.068571   3.131115   3.248328   3.364908   3.518832
    16  H    3.893137   3.395274   4.456529   3.648696   3.230557
                   11         12         13         14         15
    11  C    0.000000
    12  C    1.329128   0.000000
    13  H    1.086876   2.122145   0.000000
    14  H    1.083868   2.111362   1.837462   0.000000
    15  H    2.112153   1.087330   3.092072   2.468540   0.000000
    16  H    2.123583   1.086486   2.502154   3.091217   1.840390
                   16
    16  H    0.000000
 Symmetry turned off by external request.
 Stoichiometry    C6H10
 Framework group  C1[X(C6H10)]
 Deg. of freedom    42
 Full point group                 C1      NOp   1
 Rotational constants (GHZ):           3.8668721           2.3466310           1.7180489
 Leave Link  202 at Sun Apr 28 19:51:37 2024, MaxMem=   104857600 cpu:               0.0 elap:               0.5
 (Enter /mlatom/software/Gaussian/g16-avx2/l301.exe)
 Standard basis: STO-3G (5D, 7F)
 Ernie: Thresh=  0.10000D-02 Tol=  0.10000D-05 Strict=F.
    40 basis functions,   120 primitive gaussians,    40 cartesian basis functions
    23 alpha electrons       23 beta electrons
       nuclear repulsion energy       208.5551914726 Hartrees.
 IExCor=    0 DFT=F Ex=HF Corr=None ExCW=0 ScaHFX=  1.000000
 ScaDFX=  1.000000  1.000000  1.000000  1.000000 ScalE2=  1.000000  1.000000
 IRadAn=      5 IRanWt=     -1 IRanGd=            0 ICorTp=0 IEmpDi=  4
 NAtoms=   16 NActive=   16 NUniq=   16 SFac= 1.00D+00 NAtFMM=   60 NAOKFM=F Big=F
 Integral buffers will be    131072 words long.
 Raffenetti 1 integral format.
 Two-electron integral symmetry is turned off.
 Leave Link  301 at Sun Apr 28 19:51:38 2024, MaxMem=   104857600 cpu:               0.0 elap:               0.4
 (Enter /mlatom/software/Gaussian/g16-avx2/l402.exe)
 External calculation of energy and first derivatives.
 Running external command "/mlatom/software/miniconda3/bin/python /mlatom/software/mlatom/mlatom/interfaces/gaussian_interface.py model_predict_kwargs R"
         input file       "/mlatom/home/qhzhang/git/ts-analysis/calculations/_other/irc/da/ani/irc_1/Gau-43310.EIn"
         output file      "/mlatom/home/qhzhang/git/ts-analysis/calculations/_other/irc/da/ani/irc_1/Gau-43310.EOu"
         message file     "/mlatom/home/qhzhang/git/ts-analysis/calculations/_other/irc/da/ani/irc_1/Gau-43310.EMs"
         fchk file        "/mlatom/home/qhzhang/git/ts-analysis/calculations/_other/irc/da/ani/irc_1/Gau-43310.EFC"
         mat. el file     "/mlatom/home/qhzhang/git/ts-analysis/calculations/_other/irc/da/ani/irc_1/Gau-43310.EUF"
model loaded from /mlatom/home/qhzhang/git/ts-analysis/calculations/_other/irc/da/ani/irc/da_energy_iteration27.npz
 Recovered energy= -234.589385198     dipole=      0.000000000000      0.000000000000      0.000000000000
 Energy=    -234.589385     NIter=   0.
 Dipole moment=       0.000000       0.000000       0.000000
 Leave Link  402 at Sun Apr 28 19:51:43 2024, MaxMem=   104857600 cpu:               0.0 elap:               4.9
 (Enter /mlatom/software/Gaussian/g16-avx2/l716.exe)
 Dipole        = 0.00000000D+00 0.00000000D+00 0.00000000D+00
 -------------------------------------------------------------------
 Center     Atomic                   Forces (Hartrees/Bohr)
 Number     Number              X              Y              Z
 -------------------------------------------------------------------
      1        6          -0.001242907    0.003683100    0.002744799
      2        6           0.001362934   -0.001965727   -0.004837753
      3        1           0.000832611   -0.000497815    0.000121349
      4        1           0.000474887   -0.000890867   -0.000191769
      5        1          -0.000450588    0.000126923    0.001370350
      6        6           0.004164459   -0.008232419    0.009992146
      7        6          -0.003204620    0.008668869   -0.009336821
      8        1          -0.000073216    0.000266677    0.000648806
      9        1          -0.000330417   -0.000762837    0.000065860
     10        1          -0.000237843   -0.000483869   -0.000551018
     11        6          -0.000155718   -0.000273504    0.001431777
     12        6          -0.001601758   -0.000637446   -0.001055728
     13        1          -0.000085595   -0.000163270    0.000110923
     14        1          -0.000216217    0.000686832   -0.001298129
     15        1           0.000957255    0.000321758    0.000428353
     16        1          -0.000193271    0.000153593    0.000356859
 -------------------------------------------------------------------
 Cartesian Forces:  Max     0.009992146 RMS     0.002975931
 Z-matrix is all fixed cartesians, so copy forces.
 Leave Link  716 at Sun Apr 28 19:51:44 2024, MaxMem=   104857600 cpu:               0.0 elap:               0.4
 (Enter /mlatom/software/Gaussian/g16-avx2/l123.exe)
 IRC-IRC-IRC-IRC-IRC-IRC-IRC-IRC-IRC-IRC-IRC-IRC-IRC-IRC-IRC-IRC-IRC-IRC
 Pt 72 Step number   1 out of a maximum of  20
 Point Number:  28          Path Number:   2
                    CURRENT STRUCTURE
                Cartesian Coordinates (Ang):                
 ---------------------------------------------------------------------
 Center     Atomic                     Coordinates (Angstroms)
 Number     Number                        X           Y           Z
 ---------------------------------------------------------------------
      1          6                   -0.864341    1.525372    0.690012
      2          6                   -1.293169    0.734919   -0.299754
      3          1                   -0.484660    1.124087    1.626744
      4          1                   -0.892094    2.608739    0.607306
      5          1                   -1.647188    1.193750   -1.221665
      6          6                   -1.287486   -0.729310   -0.307182
      7          6                   -0.864059   -1.528031    0.696872
      8          1                   -1.646946   -1.192535   -1.223578
      9          1                   -0.875177   -2.608066    0.606390
     10          1                   -0.475126   -1.118090    1.627482
     11          6                    2.061794    0.663055   -0.405650
     12          6                    2.063092   -0.666071   -0.407485
     13          1                    2.500984    1.247577    0.398555
     14          1                    1.605656    1.234201   -1.205963
     15          1                    1.601090   -1.234329   -1.211179
     16          1                    2.506337   -1.254560    0.391055
 ---------------------------------------------------------------------
   CHANGE IN THE REACTION COORDINATE =    0.25347
   NET REACTION COORDINATE UP TO THIS POINT =    7.89500
  # OF POINTS ALONG THE PATH =  72
  # OF STEPS =   1

 Calculating another point on the path.
 Point Number 29 in REVERSE path direction.
 Using LQA Reaction Path Following.
   Warning:  LQA convergence difficult!  Criteria decreased to 1.d-3.
   LQA: T_Est iteration completed in   51 iterations.
 IRC-IRC-IRC-IRC-IRC-IRC-IRC-IRC-IRC-IRC-IRC-IRC-IRC-IRC-IRC-IRC-IRC-IRC
 Leave Link  123 at Sun Apr 28 19:51:47 2024, MaxMem=   104857600 cpu:               0.4 elap:               1.5
 (Enter /mlatom/software/Gaussian/g16-avx2/l202.exe)
                          Input orientation:                          
 ---------------------------------------------------------------------
 Center     Atomic      Atomic             Coordinates (Angstroms)
 Number     Number       Type             X           Y           Z
 ---------------------------------------------------------------------
      1          6           0       -0.874653    1.528868    0.697010
      2          6           0       -1.277117    0.732369   -0.305512
      3          1           0       -0.512769    1.127228    1.642353
      4          1           0       -0.908839    2.609413    0.615360
      5          1           0       -1.615416    1.197807   -1.222515
      6          6           0       -1.278743   -0.734394   -0.297416
      7          6           0       -0.864767   -1.520623    0.692918
      8          1           0       -1.593706   -1.192499   -1.239875
      9          1           0       -0.896635   -2.606988    0.621656
     10          1           0       -0.503392   -1.120054    1.639697
     11          6           0        2.057473    0.661556   -0.407784
     12          6           0        2.056808   -0.668092   -0.413954
     13          1           0        2.493962    1.243560    0.398198
     14          1           0        1.598606    1.237958   -1.206378
     15          1           0        1.597576   -1.230528   -1.218161
     16          1           0        2.495747   -1.262150    0.383286
 ---------------------------------------------------------------------
                    Distance matrix (angstroms):
                    1          2          3          4          5
     1  C    0.000000
     2  C    1.342177   0.000000
     3  H    1.089012   2.129395   0.000000
     4  H    1.084165   2.122953   1.846202   0.000000
     5  H    2.083965   1.082577   3.070551   2.422740   0.000000
     6  C    2.504900   1.466786   2.795543   3.485833   2.168537
     7  C    3.049509   2.498573   2.834862   4.130999   3.409137
     8  H    3.416782   2.162956   3.854452   4.285496   2.390467
     9  H    4.136600   3.486504   3.890186   5.216419   4.288832
    10  H    2.836068   2.795347   2.247304   3.888777   3.847251
    11  C    3.251179   3.336910   3.320551   3.693235   3.800194
    12  C    3.828098   3.617749   3.748907   4.538347   4.197688
    13  H    3.393856   3.870085   3.256054   3.673114   4.417668
    14  H    3.134410   3.055644   3.547596   3.389233   3.214313
    15  H    4.170619   3.598577   4.265573   4.938529   4.027425
    16  H    4.387231   4.322853   4.042963   5.160820   5.052885
                    6          7          8          9         10
     6  C    0.000000
     7  C    1.330524   0.000000
     8  H    1.094207   2.091580   0.000000
     9  H    2.120686   1.089166   2.439669   0.000000
    10  H    2.121865   1.089696   3.079930   1.844456   0.000000
    11  C    3.618176   3.809586   4.178637   4.524366   3.731534
    12  C    3.338244   3.238453   3.779339   3.681662   3.313061
    13  H    4.316188   4.359889   5.032563   5.135446   4.013991
    14  H    3.604930   4.157560   4.012368   4.934729   4.251913
    15  H    3.060577   3.130418   3.191583   3.391262   3.548750
    16  H    3.871519   3.384633   4.400356   3.657002   3.254780
                   11         12         13         14         15
    11  C    0.000000
    12  C    1.329663   0.000000
    13  H    1.085752   2.122524   0.000000
    14  H    1.086532   2.114453   1.837487   0.000000
    15  H    2.109076   1.083503   3.088242   2.468515   0.000000
    16  H    2.125681   1.086814   2.505755   3.095551   1.836395
                   16
    16  H    0.000000
 Symmetry turned off by external request.
 Stoichiometry    C6H10
 Framework group  C1[X(C6H10)]
 Deg. of freedom    42
 Full point group                 C1      NOp   1
 Rotational constants (GHZ):           3.8682230           2.3581475           1.7247001
 Leave Link  202 at Sun Apr 28 19:51:50 2024, MaxMem=   104857600 cpu:               0.0 elap:               0.5
 (Enter /mlatom/software/Gaussian/g16-avx2/l301.exe)
 Standard basis: STO-3G (5D, 7F)
 Ernie: Thresh=  0.10000D-02 Tol=  0.10000D-05 Strict=F.
    40 basis functions,   120 primitive gaussians,    40 cartesian basis functions
    23 alpha electrons       23 beta electrons
       nuclear repulsion energy       208.8589023569 Hartrees.
 IExCor=    0 DFT=F Ex=HF Corr=None ExCW=0 ScaHFX=  1.000000
 ScaDFX=  1.000000  1.000000  1.000000  1.000000 ScalE2=  1.000000  1.000000
 IRadAn=      5 IRanWt=     -1 IRanGd=            0 ICorTp=0 IEmpDi=  4
 NAtoms=   16 NActive=   16 NUniq=   16 SFac= 1.00D+00 NAtFMM=   60 NAOKFM=F Big=F
 Integral buffers will be    131072 words long.
 Raffenetti 1 integral format.
 Two-electron integral symmetry is turned off.
 Leave Link  301 at Sun Apr 28 19:51:51 2024, MaxMem=   104857600 cpu:               0.1 elap:               0.4
 (Enter /mlatom/software/Gaussian/g16-avx2/l402.exe)
 External calculation of energy and first derivatives.
 Running external command "/mlatom/software/miniconda3/bin/python /mlatom/software/mlatom/mlatom/interfaces/gaussian_interface.py model_predict_kwargs R"
         input file       "/mlatom/home/qhzhang/git/ts-analysis/calculations/_other/irc/da/ani/irc_1/Gau-43310.EIn"
         output file      "/mlatom/home/qhzhang/git/ts-analysis/calculations/_other/irc/da/ani/irc_1/Gau-43310.EOu"
         message file     "/mlatom/home/qhzhang/git/ts-analysis/calculations/_other/irc/da/ani/irc_1/Gau-43310.EMs"
         fchk file        "/mlatom/home/qhzhang/git/ts-analysis/calculations/_other/irc/da/ani/irc_1/Gau-43310.EFC"
         mat. el file     "/mlatom/home/qhzhang/git/ts-analysis/calculations/_other/irc/da/ani/irc_1/Gau-43310.EUF"
model loaded from /mlatom/home/qhzhang/git/ts-analysis/calculations/_other/irc/da/ani/irc/da_energy_iteration27.npz
 Recovered energy= -234.589226292     dipole=      0.000000000000      0.000000000000      0.000000000000
 Energy=    -234.589226     NIter=   0.
 Dipole moment=       0.000000       0.000000       0.000000
 Leave Link  402 at Sun Apr 28 19:51:57 2024, MaxMem=   104857600 cpu:               0.0 elap:               5.2
 (Enter /mlatom/software/Gaussian/g16-avx2/l716.exe)
 Dipole        = 0.00000000D+00 0.00000000D+00 0.00000000D+00
 -------------------------------------------------------------------
 Center     Atomic                   Forces (Hartrees/Bohr)
 Number     Number              X              Y              Z
 -------------------------------------------------------------------
      1        6          -0.002443412   -0.002622599   -0.000112384
      2        6           0.002830148    0.000998128    0.005919071
      3        1           0.000708449    0.000126742   -0.000857042
      4        1           0.000647161    0.000850959   -0.000550486
      5        1          -0.001321677   -0.000001142   -0.002851380
      6        6           0.000095177    0.005915044   -0.014918566
      7        6           0.000490326   -0.009144768    0.010565558
      8        1          -0.000714801    0.001197422    0.004778680
      9        1           0.000875367    0.002322344   -0.000954660
     10        1           0.000407760    0.000397482   -0.001011792
     11        6          -0.001719072   -0.000393685   -0.000097701
     12        6          -0.000968841    0.001221218    0.000719857
     13        1           0.000268204    0.000221876    0.000715619
     14        1           0.000779888   -0.000520461   -0.000087846
     15        1           0.000216056   -0.001038127   -0.001565184
     16        1          -0.000150735    0.000469568    0.000308256
 -------------------------------------------------------------------
 Cartesian Forces:  Max     0.014918566 RMS     0.003437649
 Z-matrix is all fixed cartesians, so copy forces.
 Leave Link  716 at Sun Apr 28 19:51:57 2024, MaxMem=   104857600 cpu:               0.0 elap:               0.4
 (Enter /mlatom/software/Gaussian/g16-avx2/l123.exe)
 IRC-IRC-IRC-IRC-IRC-IRC-IRC-IRC-IRC-IRC-IRC-IRC-IRC-IRC-IRC-IRC-IRC-IRC
 Pt 73 Step number   1 out of a maximum of  20
 Point Number:  29          Path Number:   2
                    CURRENT STRUCTURE
                Cartesian Coordinates (Ang):                
 ---------------------------------------------------------------------
 Center     Atomic                     Coordinates (Angstroms)
 Number     Number                        X           Y           Z
 ---------------------------------------------------------------------
      1          6                   -0.874653    1.528868    0.697010
      2          6                   -1.277117    0.732369   -0.305512
      3          1                   -0.512769    1.127228    1.642353
      4          1                   -0.908839    2.609413    0.615360
      5          1                   -1.615416    1.197807   -1.222515
      6          6                   -1.278743   -0.734394   -0.297416
      7          6                   -0.864767   -1.520623    0.692918
      8          1                   -1.593706   -1.192499   -1.239875
      9          1                   -0.896635   -2.606988    0.621656
     10          1                   -0.503392   -1.120054    1.639697
     11          6                    2.057473    0.661556   -0.407784
     12          6                    2.056808   -0.668092   -0.413954
     13          1                    2.493962    1.243560    0.398198
     14          1                    1.598606    1.237958   -1.206378
     15          1                    1.597576   -1.230528   -1.218161
     16          1                    2.495747   -1.262150    0.383286
 ---------------------------------------------------------------------
   CHANGE IN THE REACTION COORDINATE =    0.25205
   NET REACTION COORDINATE UP TO THIS POINT =    8.14705
  # OF POINTS ALONG THE PATH =  73
  # OF STEPS =   1

 Calculating another point on the path.
 Point Number 30 in REVERSE path direction.
 Using LQA Reaction Path Following.
   Warning:  LQA convergence difficult!  Criteria decreased to 1.d-3.
   LQA: T_Est iteration completed in   51 iterations.
 IRC-IRC-IRC-IRC-IRC-IRC-IRC-IRC-IRC-IRC-IRC-IRC-IRC-IRC-IRC-IRC-IRC-IRC
 Leave Link  123 at Sun Apr 28 19:52:00 2024, MaxMem=   104857600 cpu:               0.4 elap:               1.5
 (Enter /mlatom/software/Gaussian/g16-avx2/l202.exe)
                          Input orientation:                          
 ---------------------------------------------------------------------
 Center     Atomic      Atomic             Coordinates (Angstroms)
 Number     Number       Type             X           Y           Z
 ---------------------------------------------------------------------
      1          6           0       -0.881134    1.530056    0.702844
      2          6           0       -1.267782    0.733316   -0.305327
      3          1           0       -0.531801    1.131038    1.653354
      4          1           0       -0.913865    2.611368    0.616306
      5          1           0       -1.578911    1.190312   -1.248667
      6          6           0       -1.261518   -0.731491   -0.307549
      7          6           0       -0.872563   -1.526069    0.705577
      8          1           0       -1.592008   -1.196978   -1.219196
      9          1           0       -0.898704   -2.606627    0.625217
     10          1           0       -0.519734   -1.118331    1.650232
     11          6           0        2.052804    0.661669   -0.409859
     12          6           0        2.050738   -0.667012   -0.421066
     13          1           0        2.485490    1.237556    0.403719
     14          1           0        1.607350    1.238468   -1.209602
     15          1           0        1.597686   -1.230097   -1.229835
     16          1           0        2.481233   -1.262297    0.379733
 ---------------------------------------------------------------------
                    Distance matrix (angstroms):
                    1          2          3          4          5
     1  C    0.000000
     2  C    1.341901   0.000000
     3  H    1.088448   2.129855   0.000000
     4  H    1.085262   2.121730   1.847381   0.000000
     5  H    2.100170   1.093406   3.085722   2.437173   0.000000
     6  C    2.506029   1.464822   2.801186   3.485552   2.163277
     7  C    3.056139   2.506581   2.841587   4.138606   3.420047
     8  H    3.411202   2.160166   3.846459   4.281640   2.387508
     9  H    4.137449   3.486739   3.893819   5.218024   4.288457
    10  H    2.835862   2.795064   2.249404   3.890372   3.854258
    11  C    3.255795   3.323003   3.340261   3.695331   3.764628
    12  C    3.832252   3.603732   3.769047   4.540131   4.160400
    13  H    3.392519   3.852797   3.267565   3.672624   4.387706
    14  H    3.151988   3.056023   3.575477   3.402253   3.186865
    15  H    4.183090   3.594525   4.292139   4.947017   3.993682
    16  H    4.382596   4.301963   4.053214   5.156349   5.015152
                    6          7          8          9         10
     6  C    0.000000
     7  C    1.345015   0.000000
     8  H    1.075641   2.081022   0.000000
     9  H    2.125516   1.083857   2.422733   0.000000
    10  H    2.129036   1.087710   3.064241   1.846429   0.000000
    11  C    3.596679   3.819446   4.170642   4.523775   3.745708
    12  C    3.314828   3.248536   3.766625   3.681850   3.331859
    13  H    4.292216   4.359502   5.018645   5.126360   4.016885
    14  H    3.595114   4.178582   4.020868   4.942836   4.272896
    15  H    3.045368   3.152070   3.189883   3.401179   3.576415
    16  H    3.842173   3.379895   4.376314   3.645745   3.262007
                   11         12         13         14         15
    11  C    0.000000
    12  C    1.328730   0.000000
    13  H    1.086633   2.120533   0.000000
    14  H    1.081996   2.109321   1.836827   0.000000
    15  H    2.111462   1.084632   3.089661   2.468667   0.000000
    16  H    2.123359   1.086724   2.499972   3.089253   1.836410
                   16
    16  H    0.000000
 Symmetry turned off by external request.
 Stoichiometry    C6H10
 Framework group  C1[X(C6H10)]
 Deg. of freedom    42
 Full point group                 C1      NOp   1
 Rotational constants (GHZ):           3.8521570           2.3647363           1.7292601
 Leave Link  202 at Sun Apr 28 19:52:04 2024, MaxMem=   104857600 cpu:               0.0 elap:               0.5
 (Enter /mlatom/software/Gaussian/g16-avx2/l301.exe)
 Standard basis: STO-3G (5D, 7F)
 Ernie: Thresh=  0.10000D-02 Tol=  0.10000D-05 Strict=F.
    40 basis functions,   120 primitive gaussians,    40 cartesian basis functions
    23 alpha electrons       23 beta electrons
       nuclear repulsion energy       208.8110681587 Hartrees.
 IExCor=    0 DFT=F Ex=HF Corr=None ExCW=0 ScaHFX=  1.000000
 ScaDFX=  1.000000  1.000000  1.000000  1.000000 ScalE2=  1.000000  1.000000
 IRadAn=      5 IRanWt=     -1 IRanGd=            0 ICorTp=0 IEmpDi=  4
 NAtoms=   16 NActive=   16 NUniq=   16 SFac= 1.00D+00 NAtFMM=   60 NAOKFM=F Big=F
 Integral buffers will be    131072 words long.
 Raffenetti 1 integral format.
 Two-electron integral symmetry is turned off.
 Leave Link  301 at Sun Apr 28 19:52:04 2024, MaxMem=   104857600 cpu:               0.1 elap:               0.4
 (Enter /mlatom/software/Gaussian/g16-avx2/l402.exe)
 External calculation of energy and first derivatives.
 Running external command "/mlatom/software/miniconda3/bin/python /mlatom/software/mlatom/mlatom/interfaces/gaussian_interface.py model_predict_kwargs R"
         input file       "/mlatom/home/qhzhang/git/ts-analysis/calculations/_other/irc/da/ani/irc_1/Gau-43310.EIn"
         output file      "/mlatom/home/qhzhang/git/ts-analysis/calculations/_other/irc/da/ani/irc_1/Gau-43310.EOu"
         message file     "/mlatom/home/qhzhang/git/ts-analysis/calculations/_other/irc/da/ani/irc_1/Gau-43310.EMs"
         fchk file        "/mlatom/home/qhzhang/git/ts-analysis/calculations/_other/irc/da/ani/irc_1/Gau-43310.EFC"
         mat. el file     "/mlatom/home/qhzhang/git/ts-analysis/calculations/_other/irc/da/ani/irc_1/Gau-43310.EUF"
model loaded from /mlatom/home/qhzhang/git/ts-analysis/calculations/_other/irc/da/ani/irc/da_energy_iteration27.npz
 Recovered energy= -234.589394384     dipole=      0.000000000000      0.000000000000      0.000000000000
 Energy=    -234.589394     NIter=   0.
 Dipole moment=       0.000000       0.000000       0.000000
 Leave Link  402 at Sun Apr 28 19:52:12 2024, MaxMem=   104857600 cpu:               0.0 elap:               6.9
 (Enter /mlatom/software/Gaussian/g16-avx2/l716.exe)
 Dipole        = 0.00000000D+00 0.00000000D+00 0.00000000D+00
 -------------------------------------------------------------------
 Center     Atomic                   Forces (Hartrees/Bohr)
 Number     Number              X              Y              Z
 -------------------------------------------------------------------
      1        6          -0.002403219   -0.001110153   -0.001413231
      2        6           0.002676997    0.001883883   -0.003305533
      3        1           0.000419573   -0.000140578   -0.000657076
      4        1           0.000703788    0.000124771   -0.000216761
      5        1           0.000000864   -0.001081104    0.004427292
      6        6           0.004077526   -0.001252874    0.011704717
      7        6          -0.002555200    0.004595100   -0.003262340
      8        1          -0.002155637   -0.002209930   -0.006890516
      9        1           0.000339933   -0.000888341   -0.000501541
     10        1           0.000874765   -0.000056749   -0.000074604
     11        6          -0.000118049   -0.001098218    0.002161788
     12        6          -0.001221761   -0.000327949    0.000498353
     13        1          -0.000223313    0.000157223    0.000156101
     14        1          -0.000415944    0.001424739   -0.002005803
     15        1           0.000208727   -0.000345446   -0.000985155
     16        1          -0.000209047    0.000325627    0.000364308
 -------------------------------------------------------------------
 Cartesian Forces:  Max     0.011704717 RMS     0.002584039
 Z-matrix is all fixed cartesians, so copy forces.
 Leave Link  716 at Sun Apr 28 19:52:13 2024, MaxMem=   104857600 cpu:               0.0 elap:               0.5
 (Enter /mlatom/software/Gaussian/g16-avx2/l123.exe)
 IRC-IRC-IRC-IRC-IRC-IRC-IRC-IRC-IRC-IRC-IRC-IRC-IRC-IRC-IRC-IRC-IRC-IRC
 Pt 74 Step number   1 out of a maximum of  20
 Point Number:  30          Path Number:   2
                    CURRENT STRUCTURE
                Cartesian Coordinates (Ang):                
 ---------------------------------------------------------------------
 Center     Atomic                     Coordinates (Angstroms)
 Number     Number                        X           Y           Z
 ---------------------------------------------------------------------
      1          6                   -0.881134    1.530056    0.702844
      2          6                   -1.267782    0.733316   -0.305327
      3          1                   -0.531801    1.131038    1.653354
      4          1                   -0.913865    2.611368    0.616306
      5          1                   -1.578911    1.190312   -1.248667
      6          6                   -1.261518   -0.731491   -0.307549
      7          6                   -0.872563   -1.526069    0.705577
      8          1                   -1.592008   -1.196978   -1.219196
      9          1                   -0.898704   -2.606627    0.625217
     10          1                   -0.519734   -1.118331    1.650232
     11          6                    2.052804    0.661669   -0.409859
     12          6                    2.050738   -0.667012   -0.421066
     13          1                    2.485490    1.237556    0.403719
     14          1                    1.607350    1.238468   -1.209602
     15          1                    1.597686   -1.230097   -1.229835
     16          1                    2.481233   -1.262297    0.379733
 ---------------------------------------------------------------------
   CHANGE IN THE REACTION COORDINATE =    0.23398
   NET REACTION COORDINATE UP TO THIS POINT =    8.38103
  # OF POINTS ALONG THE PATH =  74
  # OF STEPS =   1

 Calculating another point on the path.
 Point Number 31 in REVERSE path direction.
 Using LQA Reaction Path Following.
   LQA: T_Est iteration completed in    5 iterations.
 IRC-IRC-IRC-IRC-IRC-IRC-IRC-IRC-IRC-IRC-IRC-IRC-IRC-IRC-IRC-IRC-IRC-IRC
 Leave Link  123 at Sun Apr 28 19:52:15 2024, MaxMem=   104857600 cpu:               0.1 elap:               1.2
 (Enter /mlatom/software/Gaussian/g16-avx2/l202.exe)
                          Input orientation:                          
 ---------------------------------------------------------------------
 Center     Atomic      Atomic             Coordinates (Angstroms)
 Number     Number       Type             X           Y           Z
 ---------------------------------------------------------------------
      1          6           0       -0.885450    1.531331    0.703831
      2          6           0       -1.251882    0.732430   -0.308695
      3          1           0       -0.552737    1.135989    1.660766
      4          1           0       -0.910695    2.612191    0.611861
      5          1           0       -1.548962    1.184539   -1.250895
      6          6           0       -1.252030   -0.733691   -0.301497
      7          6           0       -0.876123   -1.526539    0.711893
      8          1           0       -1.551122   -1.195551   -1.247633
      9          1           0       -0.894255   -2.606939    0.622591
     10          1           0       -0.537150   -1.123724    1.664269
     11          6           0        2.047062    0.662304   -0.408293
     12          6           0        2.039101   -0.665809   -0.430832
     13          1           0        2.460219    1.227486    0.423499
     14          1           0        1.621420    1.251743   -1.211112
     15          1           0        1.601893   -1.220985   -1.252010
     16          1           0        2.446545   -1.265066    0.378645
 ---------------------------------------------------------------------
                    Distance matrix (angstroms):
                    1          2          3          4          5
     1  C    0.000000
     2  C    1.340792   0.000000
     3  H    1.087529   2.128484   0.000000
     4  H    1.085060   2.120692   1.845944   0.000000
     5  H    2.093195   1.086462   3.077758   2.432167   0.000000
     6  C    2.505073   1.466139   2.799141   3.485063   2.160818
     7  C    3.057894   2.507137   2.844994   4.140083   3.413970
     8  H    3.418657   2.165239   3.858968   4.285646   2.380093
     9  H    4.139077   3.485194   3.899225   5.219167   4.279474
    10  H    2.844832   2.801560   2.259769   3.899251   3.853573
    11  C    3.254481   3.301192   3.356239   3.686610   3.730161
    12  C    3.829866   3.577787   3.786672   4.531422   4.119525
    13  H    3.371114   3.815873   3.258391   3.649102   4.344994
    14  H    3.166950   3.056127   3.603893   3.403771   3.171344
    15  H    4.193737   3.584649   4.322270   4.947762   3.964144
    16  H    4.362084   4.259201   4.050259   5.134060   4.961859
                    6          7          8          9         10
     6  C    0.000000
     7  C    1.340475   0.000000
     8  H    1.094506   2.098790   0.000000
     9  H    2.119198   1.084237   2.433357   0.000000
    10  H    2.127772   1.088202   3.084230   1.847308   0.000000
    11  C    3.583883   3.819798   4.135583   4.516859   3.763450
    12  C    3.294370   3.247338   3.719877   3.671820   3.352044
    13  H    4.260590   4.335782   4.975404   5.098525   4.006485
    14  H    3.609164   4.201728   4.006945   4.957874   4.309302
    15  H    3.047262   3.176608   3.153121   3.415516   3.617962
    16  H    3.797948   3.349559   4.316359   3.608473   3.251960
                   11         12         13         14         15
    11  C    0.000000
    12  C    1.328328   0.000000
    13  H    1.087201   2.119384   0.000000
    14  H    1.083110   2.111942   1.837423   0.000000
    15  H    2.111116   1.083375   3.088537   2.473143   0.000000
    16  H    2.119815   1.086450   2.492994   3.089092   1.836958
                   16
    16  H    0.000000
 Symmetry turned off by external request.
 Stoichiometry    C6H10
 Framework group  C1[X(C6H10)]
 Deg. of freedom    42
 Full point group                 C1      NOp   1
 Rotational constants (GHZ):           3.8451457           2.3813194           1.7385278
 Leave Link  202 at Sun Apr 28 19:52:19 2024, MaxMem=   104857600 cpu:               0.0 elap:               0.5
 (Enter /mlatom/software/Gaussian/g16-avx2/l301.exe)
 Standard basis: STO-3G (5D, 7F)
 Ernie: Thresh=  0.10000D-02 Tol=  0.10000D-05 Strict=F.
    40 basis functions,   120 primitive gaussians,    40 cartesian basis functions
    23 alpha electrons       23 beta electrons
       nuclear repulsion energy       209.0179143426 Hartrees.
 IExCor=    0 DFT=F Ex=HF Corr=None ExCW=0 ScaHFX=  1.000000
 ScaDFX=  1.000000  1.000000  1.000000  1.000000 ScalE2=  1.000000  1.000000
 IRadAn=      5 IRanWt=     -1 IRanGd=            0 ICorTp=0 IEmpDi=  4
 NAtoms=   16 NActive=   16 NUniq=   16 SFac= 1.00D+00 NAtFMM=   60 NAOKFM=F Big=F
 Integral buffers will be    131072 words long.
 Raffenetti 1 integral format.
 Two-electron integral symmetry is turned off.
 Leave Link  301 at Sun Apr 28 19:52:20 2024, MaxMem=   104857600 cpu:               0.0 elap:               0.6
 (Enter /mlatom/software/Gaussian/g16-avx2/l402.exe)
 External calculation of energy and first derivatives.
 Running external command "/mlatom/software/miniconda3/bin/python /mlatom/software/mlatom/mlatom/interfaces/gaussian_interface.py model_predict_kwargs R"
         input file       "/mlatom/home/qhzhang/git/ts-analysis/calculations/_other/irc/da/ani/irc_1/Gau-43310.EIn"
         output file      "/mlatom/home/qhzhang/git/ts-analysis/calculations/_other/irc/da/ani/irc_1/Gau-43310.EOu"
         message file     "/mlatom/home/qhzhang/git/ts-analysis/calculations/_other/irc/da/ani/irc_1/Gau-43310.EMs"
         fchk file        "/mlatom/home/qhzhang/git/ts-analysis/calculations/_other/irc/da/ani/irc_1/Gau-43310.EFC"
         mat. el file     "/mlatom/home/qhzhang/git/ts-analysis/calculations/_other/irc/da/ani/irc_1/Gau-43310.EUF"
model loaded from /mlatom/home/qhzhang/git/ts-analysis/calculations/_other/irc/da/ani/irc/da_energy_iteration27.npz
 Recovered energy= -234.589585209     dipole=      0.000000000000      0.000000000000      0.000000000000
 Energy=    -234.589585     NIter=   0.
 Dipole moment=       0.000000       0.000000       0.000000
 Leave Link  402 at Sun Apr 28 19:52:25 2024, MaxMem=   104857600 cpu:               0.0 elap:               5.0
 (Enter /mlatom/software/Gaussian/g16-avx2/l716.exe)
 Dipole        = 0.00000000D+00 0.00000000D+00 0.00000000D+00
 -------------------------------------------------------------------
 Center     Atomic                   Forces (Hartrees/Bohr)
 Number     Number              X              Y              Z
 -------------------------------------------------------------------
      1        6          -0.001627006   -0.000235704   -0.001179710
      2        6           0.002224162   -0.000853415    0.001201100
      3        1           0.000575192   -0.000333287    0.000059620
      4        1           0.000453146    0.000294802   -0.000154017
      5        1          -0.000790432    0.000455661    0.000430710
      6        6           0.001697804   -0.001177616   -0.004812408
      7        6          -0.001264186    0.001103826   -0.000707276
      8        1           0.000321795    0.001651596    0.005042914
      9        1           0.000247629   -0.000908409    0.000078587
     10        1           0.000247946    0.000045615   -0.000271386
     11        6          -0.000691666   -0.000074086    0.002074770
     12        6          -0.001258235    0.000222222    0.001277313
     13        1          -0.000157365    0.000018763   -0.000206611
     14        1          -0.000163403    0.000801324   -0.001542744
     15        1           0.000185773   -0.000920025   -0.001542109
     16        1          -0.000001152   -0.000091265    0.000251248
 -------------------------------------------------------------------
 Cartesian Forces:  Max     0.005042914 RMS     0.001350379
 Z-matrix is all fixed cartesians, so copy forces.
 Leave Link  716 at Sun Apr 28 19:52:26 2024, MaxMem=   104857600 cpu:               0.0 elap:               0.4
 (Enter /mlatom/software/Gaussian/g16-avx2/l123.exe)
 IRC-IRC-IRC-IRC-IRC-IRC-IRC-IRC-IRC-IRC-IRC-IRC-IRC-IRC-IRC-IRC-IRC-IRC
 Pt 75 Step number   1 out of a maximum of  20
 Point Number:  31          Path Number:   2
                    CURRENT STRUCTURE
                Cartesian Coordinates (Ang):                
 ---------------------------------------------------------------------
 Center     Atomic                     Coordinates (Angstroms)
 Number     Number                        X           Y           Z
 ---------------------------------------------------------------------
      1          6                   -0.885450    1.531331    0.703831
      2          6                   -1.251882    0.732430   -0.308695
      3          1                   -0.552737    1.135989    1.660766
      4          1                   -0.910695    2.612191    0.611861
      5          1                   -1.548962    1.184539   -1.250895
      6          6                   -1.252030   -0.733691   -0.301497
      7          6                   -0.876123   -1.526539    0.711893
      8          1                   -1.551122   -1.195551   -1.247633
      9          1                   -0.894255   -2.606939    0.622591
     10          1                   -0.537150   -1.123724    1.664269
     11          6                    2.047062    0.662304   -0.408293
     12          6                    2.039101   -0.665809   -0.430832
     13          1                    2.460219    1.227486    0.423499
     14          1                    1.621420    1.251743   -1.211112
     15          1                    1.601893   -1.220985   -1.252010
     16          1                    2.446545   -1.265066    0.378645
 ---------------------------------------------------------------------
   CHANGE IN THE REACTION COORDINATE =    0.24463
   NET REACTION COORDINATE UP TO THIS POINT =    8.62566
  # OF POINTS ALONG THE PATH =  75
  # OF STEPS =   1

 Calculating another point on the path.
 Point Number 32 in REVERSE path direction.
 Using LQA Reaction Path Following.
   Warning:  LQA convergence difficult!  Criteria decreased to 1.d-3.
   LQA: T_Est iteration completed in   51 iterations.
 IRC-IRC-IRC-IRC-IRC-IRC-IRC-IRC-IRC-IRC-IRC-IRC-IRC-IRC-IRC-IRC-IRC-IRC
 Leave Link  123 at Sun Apr 28 19:52:28 2024, MaxMem=   104857600 cpu:               0.4 elap:               1.7
 (Enter /mlatom/software/Gaussian/g16-avx2/l202.exe)
                          Input orientation:                          
 ---------------------------------------------------------------------
 Center     Atomic      Atomic             Coordinates (Angstroms)
 Number     Number       Type             X           Y           Z
 ---------------------------------------------------------------------
      1          6           0       -0.889769    1.533429    0.704529
      2          6           0       -1.236584    0.729461   -0.311468
      3          1           0       -0.579284    1.142108    1.672216
      4          1           0       -0.909859    2.614439    0.607490
      5          1           0       -1.522713    1.181879   -1.253539
      6          6           0       -1.236950   -0.734881   -0.301875
      7          6           0       -0.875491   -1.524979    0.716682
      8          1           0       -1.546528   -1.200244   -1.227610
      9          1           0       -0.894678   -2.608542    0.636132
     10          1           0       -0.552267   -1.119235    1.674429
     11          6           0        2.039243    0.662473   -0.403081
     12          6           0        2.024314   -0.666029   -0.441161
     13          1           0        2.433155    1.215674    0.446997
     14          1           0        1.640323    1.266640   -1.211436
     15          1           0        1.608105   -1.209158   -1.283313
     16          1           0        2.410276   -1.277302    0.371722
 ---------------------------------------------------------------------
                    Distance matrix (angstroms):
                    1          2          3          4          5
     1  C    0.000000
     2  C    1.341230   0.000000
     3  H    1.089014   2.130099   0.000000
     4  H    1.085542   2.122351   1.846803   0.000000
     5  H    2.087639   1.083535   3.074359   2.427189   0.000000
     6  C    2.505716   1.464373   2.802257   3.485954   2.159003
     7  C    3.058466   2.503993   2.848532   4.141000   3.409948
     8  H    3.411373   2.158505   3.851125   4.280741   2.382383
     9  H    4.142539   3.486705   3.903884   5.223081   4.281656
    10  H    2.844510   2.798169   2.261505   3.899557   3.848361
    11  C    3.250305   3.277793   3.375440   3.678129   3.698728
    12  C    3.826500   3.549320   3.809782   4.524435   4.081191
    13  H    3.348001   3.778711   3.252900   3.627401   4.306025
    14  H    3.184881   3.061878   3.641100   3.410056   3.164451
    15  H    4.208643   3.577008   4.364432   4.953299   3.939538
    16  H    4.347559   4.218227   4.059839   5.120989   4.915022
                    6          7          8          9         10
     6  C    0.000000
     7  C    1.338793   0.000000
     8  H    1.081382   2.082310   0.000000
     9  H    2.123114   1.086722   2.425231   0.000000
    10  H    2.126569   1.089211   3.068704   1.847523   0.000000
    11  C    3.563185   3.812413   4.123993   4.515240   3.769145
    12  C    3.264963   3.238404   3.695240   3.668028   3.364503
    13  H    4.223167   4.304770   4.947610   5.072954   3.983858
    14  H    3.621062   4.223754   4.030111   4.985656   4.339132
    15  H    3.046719   3.204368   3.155137   3.450574   3.663813
    16  H    3.748361   3.313096   4.268501   3.572791   3.240168
                   11         12         13         14         15
    11  C    0.000000
    12  C    1.329131   0.000000
    13  H    1.088040   2.120562   0.000000
    14  H    1.085170   2.115652   1.838908   0.000000
    15  H    2.112745   1.085099   3.091034   2.477051   0.000000
    16  H    2.121488   1.087841   2.494217   3.093680   1.840452
                   16
    16  H    0.000000
 Symmetry turned off by external request.
 Stoichiometry    C6H10
 Framework group  C1[X(C6H10)]
 Deg. of freedom    42
 Full point group                 C1      NOp   1
 Rotational constants (GHZ):           3.8412410           2.4028237           1.7503405
 Leave Link  202 at Sun Apr 28 19:52:32 2024, MaxMem=   104857600 cpu:               0.0 elap:               0.5
 (Enter /mlatom/software/Gaussian/g16-avx2/l301.exe)
 Standard basis: STO-3G (5D, 7F)
 Ernie: Thresh=  0.10000D-02 Tol=  0.10000D-05 Strict=F.
    40 basis functions,   120 primitive gaussians,    40 cartesian basis functions
    23 alpha electrons       23 beta electrons
       nuclear repulsion energy       209.3202519968 Hartrees.
 IExCor=    0 DFT=F Ex=HF Corr=None ExCW=0 ScaHFX=  1.000000
 ScaDFX=  1.000000  1.000000  1.000000  1.000000 ScalE2=  1.000000  1.000000
 IRadAn=      5 IRanWt=     -1 IRanGd=            0 ICorTp=0 IEmpDi=  4
 NAtoms=   16 NActive=   16 NUniq=   16 SFac= 1.00D+00 NAtFMM=   60 NAOKFM=F Big=F
 Integral buffers will be    131072 words long.
 Raffenetti 1 integral format.
 Two-electron integral symmetry is turned off.
 Leave Link  301 at Sun Apr 28 19:52:33 2024, MaxMem=   104857600 cpu:               0.1 elap:               0.4
 (Enter /mlatom/software/Gaussian/g16-avx2/l402.exe)
 External calculation of energy and first derivatives.
 Running external command "/mlatom/software/miniconda3/bin/python /mlatom/software/mlatom/mlatom/interfaces/gaussian_interface.py model_predict_kwargs R"
         input file       "/mlatom/home/qhzhang/git/ts-analysis/calculations/_other/irc/da/ani/irc_1/Gau-43310.EIn"
         output file      "/mlatom/home/qhzhang/git/ts-analysis/calculations/_other/irc/da/ani/irc_1/Gau-43310.EOu"
         message file     "/mlatom/home/qhzhang/git/ts-analysis/calculations/_other/irc/da/ani/irc_1/Gau-43310.EMs"
         fchk file        "/mlatom/home/qhzhang/git/ts-analysis/calculations/_other/irc/da/ani/irc_1/Gau-43310.EFC"
         mat. el file     "/mlatom/home/qhzhang/git/ts-analysis/calculations/_other/irc/da/ani/irc_1/Gau-43310.EUF"
model loaded from /mlatom/home/qhzhang/git/ts-analysis/calculations/_other/irc/da/ani/irc/da_energy_iteration27.npz
 Recovered energy= -234.589721994     dipole=      0.000000000000      0.000000000000      0.000000000000
 Energy=    -234.589722     NIter=   0.
 Dipole moment=       0.000000       0.000000       0.000000
 Leave Link  402 at Sun Apr 28 19:52:38 2024, MaxMem=   104857600 cpu:               0.1 elap:               4.9
 (Enter /mlatom/software/Gaussian/g16-avx2/l716.exe)
 Dipole        = 0.00000000D+00 0.00000000D+00 0.00000000D+00
 -------------------------------------------------------------------
 Center     Atomic                   Forces (Hartrees/Bohr)
 Number     Number              X              Y              Z
 -------------------------------------------------------------------
      1        6          -0.001088136   -0.000999099   -0.000375256
      2        6           0.002052961   -0.000110697    0.003126975
      3        1           0.000549695   -0.000001816   -0.000910009
      4        1           0.000318587   -0.000118889   -0.000262057
      5        1          -0.000994206    0.000711937   -0.001651848
      6        6           0.001284853    0.001836568    0.001784538
      7        6          -0.000595752   -0.001097188    0.002411400
      8        1          -0.000653379   -0.000944528   -0.003250492
      9        1           0.000132920    0.000879716   -0.000326129
     10        1           0.000708314   -0.000128159   -0.000896337
     11        6          -0.000629609   -0.000124560    0.001633493
     12        6          -0.000828359    0.000576187    0.000669154
     13        1          -0.000315829   -0.000290609   -0.000552157
     14        1           0.000145671   -0.000127256   -0.000489592
     15        1           0.000308717   -0.000572990   -0.000478601
     16        1          -0.000396448    0.000511381   -0.000433082
 -------------------------------------------------------------------
 Cartesian Forces:  Max     0.003250492 RMS     0.001100416
 Z-matrix is all fixed cartesians, so copy forces.
 Leave Link  716 at Sun Apr 28 19:52:39 2024, MaxMem=   104857600 cpu:               0.0 elap:               0.4
 (Enter /mlatom/software/Gaussian/g16-avx2/l123.exe)
 IRC-IRC-IRC-IRC-IRC-IRC-IRC-IRC-IRC-IRC-IRC-IRC-IRC-IRC-IRC-IRC-IRC-IRC
 Pt 76 Step number   1 out of a maximum of  20
 Point Number:  32          Path Number:   2
                    CURRENT STRUCTURE
                Cartesian Coordinates (Ang):                
 ---------------------------------------------------------------------
 Center     Atomic                     Coordinates (Angstroms)
 Number     Number                        X           Y           Z
 ---------------------------------------------------------------------
      1          6                   -0.889769    1.533429    0.704529
      2          6                   -1.236584    0.729461   -0.311468
      3          1                   -0.579284    1.142108    1.672216
      4          1                   -0.909859    2.614439    0.607490
      5          1                   -1.522713    1.181879   -1.253539
      6          6                   -1.236950   -0.734881   -0.301875
      7          6                   -0.875491   -1.524979    0.716682
      8          1                   -1.546528   -1.200244   -1.227610
      9          1                   -0.894678   -2.608542    0.636132
     10          1                   -0.552267   -1.119235    1.674429
     11          6                    2.039243    0.662473   -0.403081
     12          6                    2.024314   -0.666029   -0.441161
     13          1                    2.433155    1.215674    0.446997
     14          1                    1.640323    1.266640   -1.211436
     15          1                    1.608105   -1.209158   -1.283313
     16          1                    2.410276   -1.277302    0.371722
 ---------------------------------------------------------------------
   CHANGE IN THE REACTION COORDINATE =    0.25790
   NET REACTION COORDINATE UP TO THIS POINT =    8.88355
  # OF POINTS ALONG THE PATH =  76
  # OF STEPS =   1

 Calculating another point on the path.
 Point Number 33 in REVERSE path direction.
 Using LQA Reaction Path Following.
   Warning:  LQA convergence difficult!  Criteria decreased to 1.d-3.
   LQA: T_Est iteration completed in   51 iterations.
 IRC-IRC-IRC-IRC-IRC-IRC-IRC-IRC-IRC-IRC-IRC-IRC-IRC-IRC-IRC-IRC-IRC-IRC
 Leave Link  123 at Sun Apr 28 19:52:41 2024, MaxMem=   104857600 cpu:               0.4 elap:               1.5
 (Enter /mlatom/software/Gaussian/g16-avx2/l202.exe)
                          Input orientation:                          
 ---------------------------------------------------------------------
 Center     Atomic      Atomic             Coordinates (Angstroms)
 Number     Number       Type             X           Y           Z
 ---------------------------------------------------------------------
      1          6           0       -0.885922    1.533226    0.703511
      2          6           0       -1.226342    0.728256   -0.310019
      3          1           0       -0.579811    1.144647    1.670509
      4          1           0       -0.895901    2.613333    0.597988
      5          1           0       -1.490207    1.177966   -1.272118
      6          6           0       -1.224715   -0.735604   -0.303046
      7          6           0       -0.873958   -1.525116    0.723052
      8          1           0       -1.514230   -1.200702   -1.247799
      9          1           0       -0.889917   -2.607583    0.644372
     10          1           0       -0.547226   -1.114307    1.673801
     11          6           0        2.025022    0.662883   -0.397975
     12          6           0        2.008729   -0.664347   -0.448145
     13          1           0        2.391504    1.206170    0.470509
     14          1           0        1.655389    1.273795   -1.216089
     15          1           0        1.622390   -1.201864   -1.309221
     16          1           0        2.357732   -1.283096    0.376486
 ---------------------------------------------------------------------
                    Distance matrix (angstroms):
                    1          2          3          4          5
     1  C    0.000000
     2  C    1.338322   0.000000
     3  H    1.086178   2.124588   0.000000
     4  H    1.085296   2.118297   1.845874   0.000000
     5  H    2.096301   1.094302   3.080419   2.431208   0.000000
     6  C    2.505100   1.463878   2.801100   3.483585   2.161328
     7  C    3.058428   2.503817   2.848128   4.140397   3.415716
     8  H    3.417125   2.164068   3.858798   4.282070   2.378914
     9  H    4.141233   3.485953   3.902353   5.221126   4.285285
    10  H    2.840002   2.791377   2.259192   3.895415   3.849957
    11  C    3.231774   3.253211   3.360934   3.650752   3.658726
    12  C    3.812432   3.524785   3.802853   4.502716   4.039258
    13  H    3.301935   3.731814   3.205073   3.578183   4.255024
    14  H    3.195376   3.069683   3.653114   3.405043   3.147555
    15  H    4.221781   3.583161   4.385726   4.953278   3.918320
    16  H    4.308121   4.166824   4.024624   5.081078   4.856064
                    6          7          8          9         10
     6  C    0.000000
     7  C    1.341356   0.000000
     8  H    1.092105   2.097486   0.000000
     9  H    2.124617   1.085440   2.439138   0.000000
    10  H    2.123754   1.086021   3.078686   1.845815   0.000000
    11  C    3.539148   3.801069   4.089187   4.503255   3.750617
    12  C    3.237483   3.228392   3.652172   3.656763   3.352317
    13  H    4.176830   4.264615   4.899017   5.034150   3.933022
    14  H    3.628544   4.241671   4.021272   5.000500   4.348105
    15  H    3.055453   3.235179   3.137221   3.479118   3.689624
    16  H    3.687199   3.259219   4.199664   3.517564   3.185954
                   11         12         13         14         15
    11  C    0.000000
    12  C    1.328277   0.000000
    13  H    1.087996   2.118791   0.000000
    14  H    1.085887   2.114469   1.841480   0.000000
    15  H    2.114181   1.086110   3.091537   2.477630   0.000000
    16  H    2.120689   1.088426   2.491270   3.093101   1.840906
                   16
    16  H    0.000000
 Symmetry turned off by external request.
 Stoichiometry    C6H10
 Framework group  C1[X(C6H10)]
 Deg. of freedom    42
 Full point group                 C1      NOp   1
 Rotational constants (GHZ):           3.8375573           2.4318839           1.7672600
 Leave Link  202 at Sun Apr 28 19:52:46 2024, MaxMem=   104857600 cpu:               0.0 elap:               0.5
 (Enter /mlatom/software/Gaussian/g16-avx2/l301.exe)
 Standard basis: STO-3G (5D, 7F)
 Ernie: Thresh=  0.10000D-02 Tol=  0.10000D-05 Strict=F.
    40 basis functions,   120 primitive gaussians,    40 cartesian basis functions
    23 alpha electrons       23 beta electrons
       nuclear repulsion energy       209.6751175036 Hartrees.
 IExCor=    0 DFT=F Ex=HF Corr=None ExCW=0 ScaHFX=  1.000000
 ScaDFX=  1.000000  1.000000  1.000000  1.000000 ScalE2=  1.000000  1.000000
 IRadAn=      5 IRanWt=     -1 IRanGd=            0 ICorTp=0 IEmpDi=  4
 NAtoms=   16 NActive=   16 NUniq=   16 SFac= 1.00D+00 NAtFMM=   60 NAOKFM=F Big=F
 Integral buffers will be    131072 words long.
 Raffenetti 1 integral format.
 Two-electron integral symmetry is turned off.
 Leave Link  301 at Sun Apr 28 19:52:47 2024, MaxMem=   104857600 cpu:               0.1 elap:               0.4
 (Enter /mlatom/software/Gaussian/g16-avx2/l402.exe)
 External calculation of energy and first derivatives.
 Running external command "/mlatom/software/miniconda3/bin/python /mlatom/software/mlatom/mlatom/interfaces/gaussian_interface.py model_predict_kwargs R"
         input file       "/mlatom/home/qhzhang/git/ts-analysis/calculations/_other/irc/da/ani/irc_1/Gau-43310.EIn"
         output file      "/mlatom/home/qhzhang/git/ts-analysis/calculations/_other/irc/da/ani/irc_1/Gau-43310.EOu"
         message file     "/mlatom/home/qhzhang/git/ts-analysis/calculations/_other/irc/da/ani/irc_1/Gau-43310.EMs"
         fchk file        "/mlatom/home/qhzhang/git/ts-analysis/calculations/_other/irc/da/ani/irc_1/Gau-43310.EFC"
         mat. el file     "/mlatom/home/qhzhang/git/ts-analysis/calculations/_other/irc/da/ani/irc_1/Gau-43310.EUF"
model loaded from /mlatom/home/qhzhang/git/ts-analysis/calculations/_other/irc/da/ani/irc/da_energy_iteration27.npz
 Recovered energy= -234.589718038     dipole=      0.000000000000      0.000000000000      0.000000000000
 Energy=    -234.589718     NIter=   0.
 Dipole moment=       0.000000       0.000000       0.000000
 Leave Link  402 at Sun Apr 28 19:52:52 2024, MaxMem=   104857600 cpu:               0.0 elap:               4.8
 (Enter /mlatom/software/Gaussian/g16-avx2/l716.exe)
 Dipole        = 0.00000000D+00 0.00000000D+00 0.00000000D+00
 -------------------------------------------------------------------
 Center     Atomic                   Forces (Hartrees/Bohr)
 Number     Number              X              Y              Z
 -------------------------------------------------------------------
      1        6          -0.000421645    0.001624825   -0.000099118
      2        6           0.000854157    0.000092569   -0.006881284
      3        1           0.000444442   -0.000571273    0.001134784
      4        1          -0.000053812    0.000202951    0.000183860
      5        1          -0.000205558   -0.001465389    0.004923779
      6        6           0.000566431   -0.002229449   -0.001727435
      7        6          -0.001124477    0.000447663   -0.002576850
      8        1           0.000334575    0.001429937    0.003538304
      9        1          -0.000225570   -0.000033553   -0.000218990
     10        1           0.000385023    0.000508749    0.001281606
     11        6          -0.000559022    0.000352108    0.001089609
     12        6          -0.001104087   -0.000841760    0.000686241
     13        1          -0.000138422   -0.000152214   -0.000672793
     14        1           0.000484478   -0.000088843    0.000056457
     15        1           0.000403584   -0.000136852    0.000093539
     16        1           0.000359903    0.000860531   -0.000811703
 -------------------------------------------------------------------
 Cartesian Forces:  Max     0.006881284 RMS     0.001574067
 Z-matrix is all fixed cartesians, so copy forces.
 Leave Link  716 at Sun Apr 28 19:52:53 2024, MaxMem=   104857600 cpu:               0.0 elap:               0.5
 (Enter /mlatom/software/Gaussian/g16-avx2/l123.exe)
 IRC-IRC-IRC-IRC-IRC-IRC-IRC-IRC-IRC-IRC-IRC-IRC-IRC-IRC-IRC-IRC-IRC-IRC
 Pt 77 Step number   1 out of a maximum of  20
 Point Number:  33          Path Number:   2
                    CURRENT STRUCTURE
                Cartesian Coordinates (Ang):                
 ---------------------------------------------------------------------
 Center     Atomic                     Coordinates (Angstroms)
 Number     Number                        X           Y           Z
 ---------------------------------------------------------------------
      1          6                   -0.885922    1.533226    0.703511
      2          6                   -1.226342    0.728256   -0.310019
      3          1                   -0.579811    1.144647    1.670509
      4          1                   -0.895901    2.613333    0.597988
      5          1                   -1.490207    1.177966   -1.272118
      6          6                   -1.224715   -0.735604   -0.303046
      7          6                   -0.873958   -1.525116    0.723052
      8          1                   -1.514230   -1.200702   -1.247799
      9          1                   -0.889917   -2.607583    0.644372
     10          1                   -0.547226   -1.114307    1.673801
     11          6                    2.025022    0.662883   -0.397975
     12          6                    2.008729   -0.664347   -0.448145
     13          1                    2.391504    1.206170    0.470509
     14          1                    1.655389    1.273795   -1.216089
     15          1                    1.622390   -1.201864   -1.309221
     16          1                    2.357732   -1.283096    0.376486
 ---------------------------------------------------------------------
   CHANGE IN THE REACTION COORDINATE =    0.26663
   NET REACTION COORDINATE UP TO THIS POINT =    9.15018
  # OF POINTS ALONG THE PATH =  77
  # OF STEPS =   1

 Calculating another point on the path.
 Point Number 34 in REVERSE path direction.
 Using LQA Reaction Path Following.
   Warning:  LQA convergence difficult!  Criteria decreased to 1.d-3.
   LQA: T_Est iteration completed in   51 iterations.
 IRC-IRC-IRC-IRC-IRC-IRC-IRC-IRC-IRC-IRC-IRC-IRC-IRC-IRC-IRC-IRC-IRC-IRC
 Leave Link  123 at Sun Apr 28 19:52:55 2024, MaxMem=   104857600 cpu:               0.4 elap:               1.5
 (Enter /mlatom/software/Gaussian/g16-avx2/l202.exe)
                          Input orientation:                          
 ---------------------------------------------------------------------
 Center     Atomic      Atomic             Coordinates (Angstroms)
 Number     Number       Type             X           Y           Z
 ---------------------------------------------------------------------
      1          6           0       -0.889192    1.536705    0.706108
      2          6           0       -1.211782    0.724975   -0.317596
      3          1           0       -0.590943    1.144356    1.676817
      4          1           0       -0.898742    2.617245    0.602510
      5          1           0       -1.499551    1.175408   -1.250368
      6          6           0       -1.210742   -0.736437   -0.304963
      7          6           0       -0.872908   -1.523949    0.729863
      8          1           0       -1.498212   -1.202042   -1.241630
      9          1           0       -0.892051   -2.606385    0.653288
     10          1           0       -0.558440   -1.111331    1.687207
     11          6           0        2.017303    0.662154   -0.393726
     12          6           0        1.994192   -0.664532   -0.456740
     13          1           0        2.357479    1.193052    0.495187
     14          1           0        1.686534    1.284802   -1.217560
     15          1           0        1.626921   -1.195385   -1.333026
     16          1           0        2.328432   -1.286825    0.368763
 ---------------------------------------------------------------------
                    Distance matrix (angstroms):
                    1          2          3          4          5
     1  C    0.000000
     2  C    1.345712   0.000000
     3  H    1.088653   2.130494   0.000000
     4  H    1.085536   2.127269   1.848858   0.000000
     5  H    2.081074   1.075064   3.065117   2.423431   0.000000
     6  C    2.508552   1.461467   2.801604   3.488271   2.152290
     7  C    3.060790   2.503930   2.845361   4.143232   3.405954
     8  H    3.415454   2.156218   3.853058   4.283360   2.377467
     9  H    4.143428   3.484653   3.899530   5.223881   4.277256
    10  H    2.843246   2.796089   2.255946   3.898032   3.839819
    11  C    3.228341   3.230593   3.364908   3.649408   3.655889
    12  C    3.809405   3.496907   3.808814   4.501237   4.027588
    13  H    3.271614   3.690438   3.176761   3.555673   4.233669
    14  H    3.224643   3.086029   3.685654   3.430992   3.188131
    15  H    4.237123   3.574509   4.410495   4.966026   3.924579
    16  H    4.294093   4.129351   4.018009   5.070606   4.830904
                    6          7          8          9         10
     6  C    0.000000
     7  C    1.343567   0.000000
     8  H    1.084792   2.093182   0.000000
     9  H    2.125209   1.085310   2.435225   0.000000
    10  H    2.129503   1.088876   3.077253   1.848099   0.000000
    11  C    3.519121   3.794051   4.068539   4.499325   3.756325
    12  C    3.209332   3.219766   3.619648   3.651487   3.363342
    13  H    4.134654   4.227596   4.859975   5.002016   3.903034
    14  H    3.648623   4.269928   4.040740   5.028967   4.383952
    15  H    3.052847   3.257701   3.126476   3.504509   3.728897
    16  H    3.644528   3.230357   4.152560   3.491949   3.178541
                   11         12         13         14         15
    11  C    0.000000
    12  C    1.328383   0.000000
    13  H    1.089834   2.118669   0.000000
    14  H    1.084344   2.115042   1.841762   0.000000
    15  H    2.117814   1.088380   3.095272   2.483589   0.000000
    16  H    2.115824   1.086472   2.483267   3.088967   1.842978
                   16
    16  H    0.000000
 Symmetry turned off by external request.
 Stoichiometry    C6H10
 Framework group  C1[X(C6H10)]
 Deg. of freedom    42
 Full point group                 C1      NOp   1
 Rotational constants (GHZ):           3.8306981           2.4512502           1.7785752
 Leave Link  202 at Sun Apr 28 19:52:59 2024, MaxMem=   104857600 cpu:               0.0 elap:               0.5
 (Enter /mlatom/software/Gaussian/g16-avx2/l301.exe)
 Standard basis: STO-3G (5D, 7F)
 Ernie: Thresh=  0.10000D-02 Tol=  0.10000D-05 Strict=F.
    40 basis functions,   120 primitive gaussians,    40 cartesian basis functions
    23 alpha electrons       23 beta electrons
       nuclear repulsion energy       209.8876574963 Hartrees.
 IExCor=    0 DFT=F Ex=HF Corr=None ExCW=0 ScaHFX=  1.000000
 ScaDFX=  1.000000  1.000000  1.000000  1.000000 ScalE2=  1.000000  1.000000
 IRadAn=      5 IRanWt=     -1 IRanGd=            0 ICorTp=0 IEmpDi=  4
 NAtoms=   16 NActive=   16 NUniq=   16 SFac= 1.00D+00 NAtFMM=   60 NAOKFM=F Big=F
 Integral buffers will be    131072 words long.
 Raffenetti 1 integral format.
 Two-electron integral symmetry is turned off.
 Leave Link  301 at Sun Apr 28 19:53:00 2024, MaxMem=   104857600 cpu:               0.0 elap:               0.4
 (Enter /mlatom/software/Gaussian/g16-avx2/l402.exe)
 External calculation of energy and first derivatives.
 Running external command "/mlatom/software/miniconda3/bin/python /mlatom/software/mlatom/mlatom/interfaces/gaussian_interface.py model_predict_kwargs R"
         input file       "/mlatom/home/qhzhang/git/ts-analysis/calculations/_other/irc/da/ani/irc_1/Gau-43310.EIn"
         output file      "/mlatom/home/qhzhang/git/ts-analysis/calculations/_other/irc/da/ani/irc_1/Gau-43310.EOu"
         message file     "/mlatom/home/qhzhang/git/ts-analysis/calculations/_other/irc/da/ani/irc_1/Gau-43310.EMs"
         fchk file        "/mlatom/home/qhzhang/git/ts-analysis/calculations/_other/irc/da/ani/irc_1/Gau-43310.EFC"
         mat. el file     "/mlatom/home/qhzhang/git/ts-analysis/calculations/_other/irc/da/ani/irc_1/Gau-43310.EUF"
model loaded from /mlatom/home/qhzhang/git/ts-analysis/calculations/_other/irc/da/ani/irc/da_energy_iteration27.npz
 Recovered energy= -234.589613245     dipole=      0.000000000000      0.000000000000      0.000000000000
 Energy=    -234.589613     NIter=   0.
 Dipole moment=       0.000000       0.000000       0.000000
 Leave Link  402 at Sun Apr 28 19:53:07 2024, MaxMem=   104857600 cpu:               0.0 elap:               5.4
 (Enter /mlatom/software/Gaussian/g16-avx2/l716.exe)
 Dipole        = 0.00000000D+00 0.00000000D+00 0.00000000D+00
 -------------------------------------------------------------------
 Center     Atomic                   Forces (Hartrees/Bohr)
 Number     Number              X              Y              Z
 -------------------------------------------------------------------
      1        6          -0.000728636   -0.004673911   -0.004180898
      2        6           0.001987479    0.001938220    0.012330919
      3        1           0.000388205    0.000374069   -0.000521322
      4        1          -0.000440827   -0.000337542   -0.000113725
      5        1          -0.001359670    0.002881767   -0.007688495
      6        6           0.001608562   -0.001500807    0.004004384
      7        6          -0.001247893    0.002267906   -0.002672249
      8        1          -0.000564361   -0.000621567   -0.000709977
      9        1          -0.000096559   -0.000146282   -0.000229840
     10        1           0.000036149   -0.000068065   -0.000746782
     11        6           0.000664578    0.000097521    0.002394952
     12        6          -0.000717394   -0.000138673   -0.001261608
     13        1          -0.000080565   -0.000832349   -0.001761291
     14        1          -0.000893462    0.000466554   -0.000463197
     15        1           0.001052969    0.000573028    0.001347556
     16        1           0.000391429   -0.000279868    0.000271572
 -------------------------------------------------------------------
 Cartesian Forces:  Max     0.012330919 RMS     0.002595027
 Z-matrix is all fixed cartesians, so copy forces.
 Leave Link  716 at Sun Apr 28 19:53:07 2024, MaxMem=   104857600 cpu:               0.0 elap:               0.4
 (Enter /mlatom/software/Gaussian/g16-avx2/l123.exe)
 IRC-IRC-IRC-IRC-IRC-IRC-IRC-IRC-IRC-IRC-IRC-IRC-IRC-IRC-IRC-IRC-IRC-IRC
 Pt 78 Step number   1 out of a maximum of  20
 Point Number:  34          Path Number:   2
                    CURRENT STRUCTURE
                Cartesian Coordinates (Ang):                
 ---------------------------------------------------------------------
 Center     Atomic                     Coordinates (Angstroms)
 Number     Number                        X           Y           Z
 ---------------------------------------------------------------------
      1          6                   -0.889192    1.536705    0.706108
      2          6                   -1.211782    0.724975   -0.317596
      3          1                   -0.590943    1.144356    1.676817
      4          1                   -0.898742    2.617245    0.602510
      5          1                   -1.499551    1.175408   -1.250368
      6          6                   -1.210742   -0.736437   -0.304963
      7          6                   -0.872908   -1.523949    0.729863
      8          1                   -1.498212   -1.202042   -1.241630
      9          1                   -0.892051   -2.606385    0.653288
     10          1                   -0.558440   -1.111331    1.687207
     11          6                    2.017303    0.662154   -0.393726
     12          6                    1.994192   -0.664532   -0.456740
     13          1                    2.357479    1.193052    0.495187
     14          1                    1.686534    1.284802   -1.217560
     15          1                    1.626921   -1.195385   -1.333026
     16          1                    2.328432   -1.286825    0.368763
 ---------------------------------------------------------------------
   CHANGE IN THE REACTION COORDINATE =    0.24763
   NET REACTION COORDINATE UP TO THIS POINT =    9.39781
  # OF POINTS ALONG THE PATH =  78
  # OF STEPS =   1

 Calculating another point on the path.
 Point Number 35 in REVERSE path direction.
 Using LQA Reaction Path Following.
   LQA: T_Est iteration completed in    6 iterations.
 IRC-IRC-IRC-IRC-IRC-IRC-IRC-IRC-IRC-IRC-IRC-IRC-IRC-IRC-IRC-IRC-IRC-IRC
 Leave Link  123 at Sun Apr 28 19:53:09 2024, MaxMem=   104857600 cpu:               0.1 elap:               1.2
 (Enter /mlatom/software/Gaussian/g16-avx2/l202.exe)
                          Input orientation:                          
 ---------------------------------------------------------------------
 Center     Atomic      Atomic             Coordinates (Angstroms)
 Number     Number       Type             X           Y           Z
 ---------------------------------------------------------------------
      1          6           0       -0.886619    1.530908    0.695956
      2          6           0       -1.213113    0.727393   -0.309119
      3          1           0       -0.606582    1.147244    1.677278
      4          1           0       -0.904168    2.614100    0.596292
      5          1           0       -1.473021    1.172712   -1.279060
      6          6           0       -1.207408   -0.736708   -0.296294
      7          6           0       -0.872162   -1.520269    0.728595
      8          1           0       -1.491642   -1.208884   -1.231136
      9          1           0       -0.896205   -2.604297    0.657194
     10          1           0       -0.567633   -1.108468    1.691781
     11          6           0        2.015856    0.661842   -0.389124
     12          6           0        1.991275   -0.664634   -0.466107
     13          1           0        2.314016    1.173883    0.527294
     14          1           0        1.712227    1.307523   -1.216150
     15          1           0        1.676343   -1.183261   -1.365861
     16          1           0        2.286680   -1.293051    0.372125
 ---------------------------------------------------------------------
                    Distance matrix (angstroms):
                    1          2          3          4          5
     1  C    0.000000
     2  C    1.327558   0.000000
     3  H    1.090235   2.118944   0.000000
     4  H    1.087909   2.115391   1.846282   0.000000
     5  H    2.091138   1.098475   3.080795   2.432722   0.000000
     6  C    2.495906   1.464168   2.793788   3.480888   2.163855
     7  C    3.051386   2.499016   2.843617   4.136609   3.412310
     8  H    3.403849   2.162605   3.846237   4.277829   2.382151
     9  H    4.135397   3.483439   3.898526   5.218758   4.283409
    10  H    2.838965   2.791169   2.256094   3.894979   3.853492
    11  C    3.218235   3.230626   3.373843   3.648136   3.636652
    12  C    3.801720   3.497212   3.824378   4.501376   4.004757
    13  H    3.224900   3.652339   3.138959   3.526428   4.195779
    14  H    3.234200   3.117190   3.711400   3.440583   3.188720
    15  H    4.264572   3.621638   4.461355   4.992898   3.934036
    16  H    4.260216   4.098151   4.003677   5.049514   4.789755
                    6          7          8          9         10
     6  C    0.000000
     7  C    1.332949   0.000000
     8  H    1.085204   2.078764   0.000000
     9  H    2.119875   1.086643   2.422294   0.000000
    10  H    2.121310   1.090892   3.067135   1.848198   0.000000
    11  C    3.514824   3.788344   4.063390   4.499171   3.760129
    12  C    3.203998   3.218493   3.607241   3.655357   3.376608
    13  H    4.090119   4.177404   4.822104   4.959540   3.856041
    14  H    3.680935   4.296220   4.073979   5.061192   4.414842
    15  H    3.107958   3.315901   3.170952   3.567926   3.793441
    16  H    3.600687   3.187002   4.105271   3.454184   3.150026
                   11         12         13         14         15
    11  C    0.000000
    12  C    1.328935   0.000000
    13  H    1.091286   2.114510   0.000000
    14  H    1.092276   2.128341   1.849217   0.000000
    15  H    2.115110   1.085224   3.089788   2.495538   0.000000
    16  H    2.115289   1.088487   2.471960   3.100902   1.845307
                   16
    16  H    0.000000
 Symmetry turned off by external request.
 Stoichiometry    C6H10
 Framework group  C1[X(C6H10)]
 Deg. of freedom    42
 Full point group                 C1      NOp   1
 Rotational constants (GHZ):           3.8466945           2.4585503           1.7830004
 Leave Link  202 at Sun Apr 28 19:53:13 2024, MaxMem=   104857600 cpu:               0.0 elap:               0.8
 (Enter /mlatom/software/Gaussian/g16-avx2/l301.exe)
 Standard basis: STO-3G (5D, 7F)
 Ernie: Thresh=  0.10000D-02 Tol=  0.10000D-05 Strict=F.
    40 basis functions,   120 primitive gaussians,    40 cartesian basis functions
    23 alpha electrons       23 beta electrons
       nuclear repulsion energy       210.2116834857 Hartrees.
 IExCor=    0 DFT=F Ex=HF Corr=None ExCW=0 ScaHFX=  1.000000
 ScaDFX=  1.000000  1.000000  1.000000  1.000000 ScalE2=  1.000000  1.000000
 IRadAn=      5 IRanWt=     -1 IRanGd=            0 ICorTp=0 IEmpDi=  4
 NAtoms=   16 NActive=   16 NUniq=   16 SFac= 1.00D+00 NAtFMM=   60 NAOKFM=F Big=F
 Integral buffers will be    131072 words long.
 Raffenetti 1 integral format.
 Two-electron integral symmetry is turned off.
 Leave Link  301 at Sun Apr 28 19:53:14 2024, MaxMem=   104857600 cpu:               0.1 elap:               0.4
 (Enter /mlatom/software/Gaussian/g16-avx2/l402.exe)
 External calculation of energy and first derivatives.
 Running external command "/mlatom/software/miniconda3/bin/python /mlatom/software/mlatom/mlatom/interfaces/gaussian_interface.py model_predict_kwargs R"
         input file       "/mlatom/home/qhzhang/git/ts-analysis/calculations/_other/irc/da/ani/irc_1/Gau-43310.EIn"
         output file      "/mlatom/home/qhzhang/git/ts-analysis/calculations/_other/irc/da/ani/irc_1/Gau-43310.EOu"
         message file     "/mlatom/home/qhzhang/git/ts-analysis/calculations/_other/irc/da/ani/irc_1/Gau-43310.EMs"
         fchk file        "/mlatom/home/qhzhang/git/ts-analysis/calculations/_other/irc/da/ani/irc_1/Gau-43310.EFC"
         mat. el file     "/mlatom/home/qhzhang/git/ts-analysis/calculations/_other/irc/da/ani/irc_1/Gau-43310.EUF"
model loaded from /mlatom/home/qhzhang/git/ts-analysis/calculations/_other/irc/da/ani/irc/da_energy_iteration27.npz
 Recovered energy= -234.589182296     dipole=      0.000000000000      0.000000000000      0.000000000000
 Energy=    -234.589182     NIter=   0.
 Dipole moment=       0.000000       0.000000       0.000000
 Leave Link  402 at Sun Apr 28 19:53:20 2024, MaxMem=   104857600 cpu:               0.0 elap:               5.3
 (Enter /mlatom/software/Gaussian/g16-avx2/l716.exe)
 Dipole        = 0.00000000D+00 0.00000000D+00 0.00000000D+00
 -------------------------------------------------------------------
 Center     Atomic                   Forces (Hartrees/Bohr)
 Number     Number              X              Y              Z
 -------------------------------------------------------------------
      1        6           0.001356384    0.009900352    0.012399195
      2        6          -0.002896853   -0.006702400   -0.018410884
      3        1           0.000557461    0.000093666   -0.001260276
      4        1           0.000329503   -0.001360490   -0.000227054
      5        1           0.000701860   -0.002475231    0.006582864
      6        6          -0.001959646    0.004161594   -0.005104860
      7        6           0.000676511   -0.003966948    0.008749925
      8        1          -0.000568065    0.000438030   -0.001394199
      9        1           0.000385488    0.000707392   -0.000581199
     10        1           0.000151281   -0.000696872   -0.001471639
     11        6          -0.001268157    0.002890346    0.001198670
     12        6           0.000881932    0.001501172    0.000217207
     13        1           0.000301561   -0.000683354   -0.002842197
     14        1           0.001292974   -0.003200790    0.003181063
     15        1          -0.000529652   -0.001027497   -0.000058605
     16        1           0.000587419    0.000421029   -0.000978011
 -------------------------------------------------------------------
 Cartesian Forces:  Max     0.018410884 RMS     0.004315200
 Z-matrix is all fixed cartesians, so copy forces.
 Leave Link  716 at Sun Apr 28 19:53:20 2024, MaxMem=   104857600 cpu:               0.0 elap:               0.4
 (Enter /mlatom/software/Gaussian/g16-avx2/l123.exe)
 IRC-IRC-IRC-IRC-IRC-IRC-IRC-IRC-IRC-IRC-IRC-IRC-IRC-IRC-IRC-IRC-IRC-IRC
 Pt 79 Step number   1 out of a maximum of  20
 Point Number:  35          Path Number:   2
                    CURRENT STRUCTURE
                Cartesian Coordinates (Ang):                
 ---------------------------------------------------------------------
 Center     Atomic                     Coordinates (Angstroms)
 Number     Number                        X           Y           Z
 ---------------------------------------------------------------------
      1          6                   -0.886619    1.530908    0.695956
      2          6                   -1.213113    0.727393   -0.309119
      3          1                   -0.606582    1.147244    1.677278
      4          1                   -0.904168    2.614100    0.596292
      5          1                   -1.473021    1.172712   -1.279060
      6          6                   -1.207408   -0.736708   -0.296294
      7          6                   -0.872162   -1.520269    0.728595
      8          1                   -1.491642   -1.208884   -1.231136
      9          1                   -0.896205   -2.604297    0.657194
     10          1                   -0.567633   -1.108468    1.691781
     11          6                    2.015856    0.661842   -0.389124
     12          6                    1.991275   -0.664634   -0.466107
     13          1                    2.314016    1.173883    0.527294
     14          1                    1.712227    1.307523   -1.216150
     15          1                    1.676343   -1.183261   -1.365861
     16          1                    2.286680   -1.293051    0.372125
 ---------------------------------------------------------------------
   CHANGE IN THE REACTION COORDINATE =    0.25050
   NET REACTION COORDINATE UP TO THIS POINT =    9.64831
  # OF POINTS ALONG THE PATH =  79
  # OF STEPS =   1

 Calculating another point on the path.
 Point Number 36 in REVERSE path direction.
 Using LQA Reaction Path Following.
   Warning:  LQA convergence difficult!  Criteria decreased to 1.d-3.
   LQA: T_Est iteration completed in   51 iterations.
 IRC-IRC-IRC-IRC-IRC-IRC-IRC-IRC-IRC-IRC-IRC-IRC-IRC-IRC-IRC-IRC-IRC-IRC
 Leave Link  123 at Sun Apr 28 19:53:23 2024, MaxMem=   104857600 cpu:               0.4 elap:               1.5
 (Enter /mlatom/software/Gaussian/g16-avx2/l202.exe)
                          Input orientation:                          
 ---------------------------------------------------------------------
 Center     Atomic      Atomic             Coordinates (Angstroms)
 Number     Number       Type             X           Y           Z
 ---------------------------------------------------------------------
      1          6           0       -0.890906    1.538182    0.707346
      2          6           0       -1.203347    0.722357   -0.325502
      3          1           0       -0.595748    1.151457    1.676408
      4          1           0       -0.894483    2.615607    0.588809
      5          1           0       -1.469812    1.167850   -1.282499
      6          6           0       -1.211383   -0.737975   -0.295778
      7          6           0       -0.875461   -1.523746    0.738392
      8          1           0       -1.507158   -1.210018   -1.229191
      9          1           0       -0.892386   -2.605953    0.658288
     10          1           0       -0.544173   -1.106295    1.684116
     11          6           0        2.011732    0.662997   -0.383022
     12          6           0        1.994008   -0.662096   -0.475717
     13          1           0        2.300207    1.161678    0.538438
     14          1           0        1.739860    1.308749   -1.209568
     15          1           0        1.687444   -1.179427   -1.384269
     16          1           0        2.264198   -1.300303    0.367638
 ---------------------------------------------------------------------
                    Distance matrix (angstroms):
                    1          2          3          4          5
     1  C    0.000000
     2  C    1.352762   0.000000
     3  H    1.084323   2.135637   0.000000
     4  H    1.083932   2.125031   1.848202   0.000000
     5  H    2.105175   1.088720   3.085350   2.434912   0.000000
     6  C    2.507958   1.460656   2.799728   3.482733   2.161613
     7  C    3.062124   2.506862   2.848653   4.142098   3.417886
     8  H    3.417973   2.154768   3.853536   4.279707   2.378758
     9  H    4.144426   3.484564   3.904189   5.222023   4.282717
    10  H    2.840345   2.795897   2.258354   3.895507   3.850889
    11  C    3.221825   3.216141   3.358391   3.633624   3.631127
    12  C    3.816227   3.487456   3.824585   4.496658   3.999706
    13  H    3.217684   3.635146   3.111532   3.510340   4.186752
    14  H    3.263147   3.128561   3.716001   3.446998   3.213591
    15  H    4.290471   3.618624   4.473670   4.996165   3.935522
    16  H    4.257591   4.073753   3.987894   5.035924   4.770489
                    6          7          8          9         10
     6  C    0.000000
     7  C    1.341561   0.000000
     8  H    1.086999   2.090180   0.000000
     9  H    2.121637   1.085300   2.426759   0.000000
    10  H    2.121511   1.085546   3.070090   1.850013   0.000000
    11  C    3.515509   3.791477   4.075141   4.494916   3.733109
    12  C    3.211334   3.232700   3.622997   3.660030   3.362224
    13  H    4.078709   4.163694   4.821357   4.939845   3.814024
    14  H    3.705932   4.319430   4.109465   5.073707   4.407114
    15  H    3.127762   3.345553   3.198510   3.586439   3.794792
    16  H    3.582736   3.169360   4.096479   3.428298   3.107684
                   11         12         13         14         15
    11  C    0.000000
    12  C    1.328450   0.000000
    13  H    1.086733   2.109128   0.000000
    14  H    1.083554   2.118339   1.841506   0.000000
    15  H    2.121835   1.089531   3.090802   2.494852   0.000000
    16  H    2.117021   1.091585   2.468161   3.093487   1.848360
                   16
    16  H    0.000000
 Symmetry turned off by external request.
 Stoichiometry    C6H10
 Framework group  C1[X(C6H10)]
 Deg. of freedom    42
 Full point group                 C1      NOp   1
 Rotational constants (GHZ):           3.8240596           2.4536340           1.7814576
 Leave Link  202 at Sun Apr 28 19:53:27 2024, MaxMem=   104857600 cpu:               0.0 elap:               0.5
 (Enter /mlatom/software/Gaussian/g16-avx2/l301.exe)
 Standard basis: STO-3G (5D, 7F)
 Ernie: Thresh=  0.10000D-02 Tol=  0.10000D-05 Strict=F.
    40 basis functions,   120 primitive gaussians,    40 cartesian basis functions
    23 alpha electrons       23 beta electrons
       nuclear repulsion energy       209.8198529194 Hartrees.
 IExCor=    0 DFT=F Ex=HF Corr=None ExCW=0 ScaHFX=  1.000000
 ScaDFX=  1.000000  1.000000  1.000000  1.000000 ScalE2=  1.000000  1.000000
 IRadAn=      5 IRanWt=     -1 IRanGd=            0 ICorTp=0 IEmpDi=  4
 NAtoms=   16 NActive=   16 NUniq=   16 SFac= 1.00D+00 NAtFMM=   60 NAOKFM=F Big=F
 Integral buffers will be    131072 words long.
 Raffenetti 1 integral format.
 Two-electron integral symmetry is turned off.
 Leave Link  301 at Sun Apr 28 19:53:28 2024, MaxMem=   104857600 cpu:               0.1 elap:               0.4
 (Enter /mlatom/software/Gaussian/g16-avx2/l402.exe)
 External calculation of energy and first derivatives.
 Running external command "/mlatom/software/miniconda3/bin/python /mlatom/software/mlatom/mlatom/interfaces/gaussian_interface.py model_predict_kwargs R"
         input file       "/mlatom/home/qhzhang/git/ts-analysis/calculations/_other/irc/da/ani/irc_1/Gau-43310.EIn"
         output file      "/mlatom/home/qhzhang/git/ts-analysis/calculations/_other/irc/da/ani/irc_1/Gau-43310.EOu"
         message file     "/mlatom/home/qhzhang/git/ts-analysis/calculations/_other/irc/da/ani/irc_1/Gau-43310.EMs"
         fchk file        "/mlatom/home/qhzhang/git/ts-analysis/calculations/_other/irc/da/ani/irc_1/Gau-43310.EFC"
         mat. el file     "/mlatom/home/qhzhang/git/ts-analysis/calculations/_other/irc/da/ani/irc_1/Gau-43310.EUF"
model loaded from /mlatom/home/qhzhang/git/ts-analysis/calculations/_other/irc/da/ani/irc/da_energy_iteration27.npz
 Recovered energy= -234.589215958     dipole=      0.000000000000      0.000000000000      0.000000000000
 Energy=    -234.589216     NIter=   0.
 Dipole moment=       0.000000       0.000000       0.000000
 Leave Link  402 at Sun Apr 28 19:53:33 2024, MaxMem=   104857600 cpu:               0.0 elap:               4.8
 (Enter /mlatom/software/Gaussian/g16-avx2/l716.exe)
 Dipole        = 0.00000000D+00 0.00000000D+00 0.00000000D+00
 -------------------------------------------------------------------
 Center     Atomic                   Forces (Hartrees/Bohr)
 Number     Number              X              Y              Z
 -------------------------------------------------------------------
      1        6          -0.002438661   -0.007760606   -0.015146654
      2        6           0.001839155    0.007844417    0.012494169
      3        1           0.000170310   -0.000748314    0.001815748
      4        1          -0.000505175    0.000948357    0.000752415
      5        1           0.000199070    0.000011303    0.001258409
      6        6           0.000033583   -0.001067108   -0.001489038
      7        6          -0.000071074    0.001440172   -0.002578328
      8        1           0.000021864   -0.000312984   -0.000042908
      9        1          -0.000379993    0.000125434    0.000286359
     10        1           0.000133343    0.000006889    0.001729140
     11        6           0.001341326   -0.002019021    0.001858157
     12        6          -0.001000166   -0.002525365    0.000476400
     13        1           0.000663616    0.000831496   -0.000110772
     14        1          -0.001231261    0.000630844   -0.000792357
     15        1           0.000629693    0.000781274    0.002137384
     16        1           0.000594370    0.001813211   -0.002648125
 -------------------------------------------------------------------
 Cartesian Forces:  Max     0.015146654 RMS     0.003464489
 Z-matrix is all fixed cartesians, so copy forces.
 Leave Link  716 at Sun Apr 28 19:53:34 2024, MaxMem=   104857600 cpu:               0.0 elap:               0.4
 (Enter /mlatom/software/Gaussian/g16-avx2/l123.exe)
 IRC-IRC-IRC-IRC-IRC-IRC-IRC-IRC-IRC-IRC-IRC-IRC-IRC-IRC-IRC-IRC-IRC-IRC
 Pt 80 Step number   1 out of a maximum of  20
 Point Number:  36          Path Number:   2
                    CURRENT STRUCTURE
                Cartesian Coordinates (Ang):                
 ---------------------------------------------------------------------
 Center     Atomic                     Coordinates (Angstroms)
 Number     Number                        X           Y           Z
 ---------------------------------------------------------------------
      1          6                   -0.890906    1.538182    0.707346
      2          6                   -1.203347    0.722357   -0.325502
      3          1                   -0.595748    1.151457    1.676408
      4          1                   -0.894483    2.615607    0.588809
      5          1                   -1.469812    1.167850   -1.282499
      6          6                   -1.211383   -0.737975   -0.295778
      7          6                   -0.875461   -1.523746    0.738392
      8          1                   -1.507158   -1.210018   -1.229191
      9          1                   -0.892386   -2.605953    0.658288
     10          1                   -0.544173   -1.106295    1.684116
     11          6                    2.011732    0.662997   -0.383022
     12          6                    1.994008   -0.662096   -0.475717
     13          1                    2.300207    1.161678    0.538438
     14          1                    1.739860    1.308749   -1.209568
     15          1                    1.687444   -1.179427   -1.384269
     16          1                    2.264198   -1.300303    0.367638
 ---------------------------------------------------------------------
   CHANGE IN THE REACTION COORDINATE =    0.22543
   NET REACTION COORDINATE UP TO THIS POINT =    9.87374
  # OF POINTS ALONG THE PATH =  80
  # OF STEPS =   1

 Calculating another point on the path.
 Point Number 37 in REVERSE path direction.
 Using LQA Reaction Path Following.
   LQA: T_Est iteration completed in    5 iterations.
 IRC-IRC-IRC-IRC-IRC-IRC-IRC-IRC-IRC-IRC-IRC-IRC-IRC-IRC-IRC-IRC-IRC-IRC
 Leave Link  123 at Sun Apr 28 19:53:36 2024, MaxMem=   104857600 cpu:               0.1 elap:               1.2
 (Enter /mlatom/software/Gaussian/g16-avx2/l202.exe)
                          Input orientation:                          
 ---------------------------------------------------------------------
 Center     Atomic      Atomic             Coordinates (Angstroms)
 Number     Number       Type             X           Y           Z
 ---------------------------------------------------------------------
      1          6           0       -0.887743    1.535380    0.701293
      2          6           0       -1.209733    0.724129   -0.319194
      3          1           0       -0.594669    1.145397    1.672428
      4          1           0       -0.901625    2.614812    0.595085
      5          1           0       -1.485029    1.172370   -1.270933
      6          6           0       -1.209959   -0.737137   -0.298464
      7          6           0       -0.876448   -1.522913    0.734850
      8          1           0       -1.493958   -1.206834   -1.236146
      9          1           0       -0.896481   -2.605035    0.655633
     10          1           0       -0.564744   -1.109424    1.691315
     11          6           0        2.014874    0.662919   -0.382833
     12          6           0        1.995141   -0.663231   -0.470398
     13          1           0        2.347779    1.178733    0.512160
     14          1           0        1.692481    1.299102   -1.203128
     15          1           0        1.648920   -1.184908   -1.358358
     16          1           0        2.317544   -1.294054    0.355663
 ---------------------------------------------------------------------
                    Distance matrix (angstroms):
                    1          2          3          4          5
     1  C    0.000000
     2  C    1.342832   0.000000
     3  H    1.086776   2.126576   0.000000
     4  H    1.084733   2.122621   1.847721   0.000000
     5  H    2.092415   1.087435   3.075197   2.429614   0.000000
     6  C    2.503532   1.461414   2.794088   3.482681   2.160457
     7  C    3.058499   2.504254   2.842240   4.140162   3.414394
     8  H    3.411878   2.156434   3.847274   4.278931   2.379475
     9  H    4.140676   3.483066   3.897525   5.220201   4.280985
    10  H    2.842440   2.796440   2.255099   3.896813   3.850769
    11  C    3.218960   3.225815   3.356575   3.643100   3.646585
    12  C    3.810220   3.495547   3.817061   4.502453   4.015205
    13  H    3.260609   3.681536   3.163121   3.553566   4.227278
    14  H    3.215619   3.087844   3.677431   3.419657   3.180760
    15  H    4.251681   3.591126   4.432796   4.975852   3.922505
    16  H    4.289408   4.119488   4.020669   5.069478   4.815456
                    6          7          8          9         10
     6  C    0.000000
     7  C    1.340302   0.000000
     8  H    1.086517   2.089510   0.000000
     9  H    2.120757   1.085202   2.427092   0.000000
    10  H    2.124646   1.087639   3.072940   1.849199   0.000000
    11  C    3.516650   3.792996   4.066451   4.498213   3.754693
    12  C    3.210559   3.230743   3.613266   3.660605   3.380104
    13  H    4.121307   4.212377   4.848345   4.986252   3.887012
    14  H    3.659077   4.280061   4.053912   5.039841   4.390201
    15  H    3.081731   3.297462   3.145330   3.542879   3.769153
    16  H    3.630609   3.224554   4.131466   3.484051   3.182081
                   11         12         13         14         15
    11  C    0.000000
    12  C    1.329185   0.000000
    13  H    1.085313   2.117217   0.000000
    14  H    1.086990   2.116423   1.840140   0.000000
    15  H    2.121329   1.086503   3.094195   2.489237   0.000000
    16  H    2.113464   1.088236   2.477918   3.089496   1.843051
                   16
    16  H    0.000000
 Symmetry turned off by external request.
 Stoichiometry    C6H10
 Framework group  C1[X(C6H10)]
 Deg. of freedom    42
 Full point group                 C1      NOp   1
 Rotational constants (GHZ):           3.8340986           2.4518701           1.7796461
 Leave Link  202 at Sun Apr 28 19:53:39 2024, MaxMem=   104857600 cpu:               0.0 elap:               0.5
 (Enter /mlatom/software/Gaussian/g16-avx2/l301.exe)
 Standard basis: STO-3G (5D, 7F)
 Ernie: Thresh=  0.10000D-02 Tol=  0.10000D-05 Strict=F.
    40 basis functions,   120 primitive gaussians,    40 cartesian basis functions
    23 alpha electrons       23 beta electrons
       nuclear repulsion energy       209.9464539276 Hartrees.
 IExCor=    0 DFT=F Ex=HF Corr=None ExCW=0 ScaHFX=  1.000000
 ScaDFX=  1.000000  1.000000  1.000000  1.000000 ScalE2=  1.000000  1.000000
 IRadAn=      5 IRanWt=     -1 IRanGd=            0 ICorTp=0 IEmpDi=  4
 NAtoms=   16 NActive=   16 NUniq=   16 SFac= 1.00D+00 NAtFMM=   60 NAOKFM=F Big=F
 Integral buffers will be    131072 words long.
 Raffenetti 1 integral format.
 Two-electron integral symmetry is turned off.
 Leave Link  301 at Sun Apr 28 19:53:40 2024, MaxMem=   104857600 cpu:               0.0 elap:               0.4
 (Enter /mlatom/software/Gaussian/g16-avx2/l402.exe)
 External calculation of energy and first derivatives.
 Running external command "/mlatom/software/miniconda3/bin/python /mlatom/software/mlatom/mlatom/interfaces/gaussian_interface.py model_predict_kwargs R"
         input file       "/mlatom/home/qhzhang/git/ts-analysis/calculations/_other/irc/da/ani/irc_1/Gau-43310.EIn"
         output file      "/mlatom/home/qhzhang/git/ts-analysis/calculations/_other/irc/da/ani/irc_1/Gau-43310.EOu"
         message file     "/mlatom/home/qhzhang/git/ts-analysis/calculations/_other/irc/da/ani/irc_1/Gau-43310.EMs"
         fchk file        "/mlatom/home/qhzhang/git/ts-analysis/calculations/_other/irc/da/ani/irc_1/Gau-43310.EFC"
         mat. el file     "/mlatom/home/qhzhang/git/ts-analysis/calculations/_other/irc/da/ani/irc_1/Gau-43310.EUF"
model loaded from /mlatom/home/qhzhang/git/ts-analysis/calculations/_other/irc/da/ani/irc/da_energy_iteration27.npz
 Recovered energy= -234.589722329     dipole=      0.000000000000      0.000000000000      0.000000000000
 Energy=    -234.589722     NIter=   0.
 Dipole moment=       0.000000       0.000000       0.000000
 Leave Link  402 at Sun Apr 28 19:53:45 2024, MaxMem=   104857600 cpu:               0.0 elap:               4.8
 (Enter /mlatom/software/Gaussian/g16-avx2/l716.exe)
 Dipole        = 0.00000000D+00 0.00000000D+00 0.00000000D+00
 -------------------------------------------------------------------
 Center     Atomic                   Forces (Hartrees/Bohr)
 Number     Number              X              Y              Z
 -------------------------------------------------------------------
      1        6          -0.001292791   -0.002099168   -0.003418455
      2        6           0.000268722    0.002576040    0.002980928
      3        1           0.000631312   -0.000120600    0.000674642
      4        1          -0.000043174    0.000416188    0.000105537
      5        1           0.000179793   -0.000340355    0.000198192
      6        6           0.000358843   -0.000472543   -0.000935610
      7        6          -0.000549540    0.000704529   -0.000550402
      8        1          -0.000407338   -0.000116030    0.000070461
      9        1           0.000015166   -0.000181909    0.000052920
     10        1           0.000296220   -0.000168075    0.000183161
     11        6          -0.000619435   -0.001269420   -0.002598827
     12        6           0.000578942    0.000546331    0.001786872
     13        1           0.000595005    0.000437891    0.000937324
     14        1          -0.000217945   -0.000396473    0.000826483
     15        1           0.000019133    0.000388077    0.000468750
     16        1           0.000187086    0.000095517   -0.000781978
 -------------------------------------------------------------------
 Cartesian Forces:  Max     0.003418455 RMS     0.001052897
 Z-matrix is all fixed cartesians, so copy forces.
 Leave Link  716 at Sun Apr 28 19:53:46 2024, MaxMem=   104857600 cpu:               0.0 elap:               0.4
 (Enter /mlatom/software/Gaussian/g16-avx2/l123.exe)
 IRC-IRC-IRC-IRC-IRC-IRC-IRC-IRC-IRC-IRC-IRC-IRC-IRC-IRC-IRC-IRC-IRC-IRC
 Pt 81 Step number   1 out of a maximum of  20
 Point Number:  37          Path Number:   2
                    CURRENT STRUCTURE
                Cartesian Coordinates (Ang):                
 ---------------------------------------------------------------------
 Center     Atomic                     Coordinates (Angstroms)
 Number     Number                        X           Y           Z
 ---------------------------------------------------------------------
      1          6                   -0.887743    1.535380    0.701293
      2          6                   -1.209733    0.724129   -0.319194
      3          1                   -0.594669    1.145397    1.672428
      4          1                   -0.901625    2.614812    0.595085
      5          1                   -1.485029    1.172370   -1.270933
      6          6                   -1.209959   -0.737137   -0.298464
      7          6                   -0.876448   -1.522913    0.734850
      8          1                   -1.493958   -1.206834   -1.236146
      9          1                   -0.896481   -2.605035    0.655633
     10          1                   -0.564744   -1.109424    1.691315
     11          6                    2.014874    0.662919   -0.382833
     12          6                    1.995141   -0.663231   -0.470398
     13          1                    2.347779    1.178733    0.512160
     14          1                    1.692481    1.299102   -1.203128
     15          1                    1.648920   -1.184908   -1.358358
     16          1                    2.317544   -1.294054    0.355663
 ---------------------------------------------------------------------
   CHANGE IN THE REACTION COORDINATE =    0.22867
   NET REACTION COORDINATE UP TO THIS POINT =   10.10241
  # OF POINTS ALONG THE PATH =  81
  # OF STEPS =   1

 Calculating another point on the path.
 Point Number 38 in REVERSE path direction.
 Using LQA Reaction Path Following.
   LQA: T_Est iteration completed in    6 iterations.
 IRC-IRC-IRC-IRC-IRC-IRC-IRC-IRC-IRC-IRC-IRC-IRC-IRC-IRC-IRC-IRC-IRC-IRC
 Leave Link  123 at Sun Apr 28 19:53:48 2024, MaxMem=   104857600 cpu:               0.1 elap:               1.2
 (Enter /mlatom/software/Gaussian/g16-avx2/l202.exe)
                          Input orientation:                          
 ---------------------------------------------------------------------
 Center     Atomic      Atomic             Coordinates (Angstroms)
 Number     Number       Type             X           Y           Z
 ---------------------------------------------------------------------
      1          6           0       -0.883669    1.536757    0.691184
      2          6           0       -1.222933    0.724082   -0.315163
      3          1           0       -0.566999    1.156846    1.660584
      4          1           0       -0.898405    2.617482    0.580630
      5          1           0       -1.512068    1.166509   -1.267959
      6          6           0       -1.221076   -0.739605   -0.297902
      7          6           0       -0.869364   -1.522285    0.729220
      8          1           0       -1.530143   -1.208546   -1.227268
      9          1           0       -0.889382   -2.606072    0.658661
     10          1           0       -0.527251   -1.105657    1.674152
     11          6           0        2.023380    0.661935   -0.373177
     12          6           0        1.997307   -0.662704   -0.467721
     13          1           0        2.377148    1.172900    0.521809
     14          1           0        1.683263    1.305384   -1.179043
     15          1           0        1.612156   -1.167140   -1.351594
     16          1           0        2.351512   -1.310047    0.329612
 ---------------------------------------------------------------------
                    Distance matrix (angstroms):
                    1          2          3          4          5
     1  C    0.000000
     2  C    1.337264   0.000000
     3  H    1.088278   2.126291   0.000000
     4  H    1.086465   2.119606   1.846507   0.000000
     5  H    2.090505   1.089568   3.077274   2.428824   0.000000
     6  C    2.504787   1.463790   2.803571   3.485107   2.158461
     7  C    3.059311   2.502381   2.852474   4.142534   3.410484
     8  H    3.411022   2.159019   3.855181   4.278560   2.375472
     9  H    4.142960   3.485616   3.907344   5.224145   4.281584
    10  H    2.841761   2.790931   2.262893   3.898116   3.845597
    11  C    3.217003   3.247426   3.330343   3.642902   3.681660
    12  C    3.805352   3.509473   3.796856   4.499312   4.037588
    13  H    3.285423   3.723244   3.156750   3.580437   4.281275
    14  H    3.184403   3.087099   3.626186   3.388667   3.199584
    15  H    4.208698   3.562112   4.384387   4.935562   3.900473
    16  H    4.324514   4.162941   4.046574   5.103965   4.859302
                    6          7          8          9         10
     6  C    0.000000
     7  C    1.338383   0.000000
     8  H    1.085887   2.088758   0.000000
     9  H    2.123378   1.086266   2.433184   0.000000
    10  H    2.122353   1.087895   3.071582   1.847594   0.000000
    11  C    3.535035   3.788675   4.105569   4.497637   3.717749
    12  C    3.223777   3.223251   3.649351   3.657648   3.340242
    13  H    4.156539   4.224556   4.898722   4.996957   3.867202
    14  H    3.659723   4.260643   4.080214   5.029428   4.340531
    15  H    3.052909   3.257891   3.145030   3.517008   3.706208
    16  H    3.671861   3.252503   4.183471   3.505902   3.183840
                   11         12         13         14         15
    11  C    0.000000
    12  C    1.328264   0.000000
    13  H    1.089604   2.119643   0.000000
    14  H    1.085875   2.116122   1.841718   0.000000
    15  H    2.114692   1.088132   3.093645   2.479558   0.000000
    16  H    2.119032   1.086395   2.490506   3.092422   1.842152
                   16
    16  H    0.000000
 Symmetry turned off by external request.
 Stoichiometry    C6H10
 Framework group  C1[X(C6H10)]
 Deg. of freedom    42
 Full point group                 C1      NOp   1
 Rotational constants (GHZ):           3.8397963           2.4448442           1.7737585
 Leave Link  202 at Sun Apr 28 19:53:52 2024, MaxMem=   104857600 cpu:               0.0 elap:               0.5
 (Enter /mlatom/software/Gaussian/g16-avx2/l301.exe)
 Standard basis: STO-3G (5D, 7F)
 Ernie: Thresh=  0.10000D-02 Tol=  0.10000D-05 Strict=F.
    40 basis functions,   120 primitive gaussians,    40 cartesian basis functions
    23 alpha electrons       23 beta electrons
       nuclear repulsion energy       209.8986305829 Hartrees.
 IExCor=    0 DFT=F Ex=HF Corr=None ExCW=0 ScaHFX=  1.000000
 ScaDFX=  1.000000  1.000000  1.000000  1.000000 ScalE2=  1.000000  1.000000
 IRadAn=      5 IRanWt=     -1 IRanGd=            0 ICorTp=0 IEmpDi=  4
 NAtoms=   16 NActive=   16 NUniq=   16 SFac= 1.00D+00 NAtFMM=   60 NAOKFM=F Big=F
 Integral buffers will be    131072 words long.
 Raffenetti 1 integral format.
 Two-electron integral symmetry is turned off.
 Leave Link  301 at Sun Apr 28 19:53:53 2024, MaxMem=   104857600 cpu:               0.1 elap:               0.4
 (Enter /mlatom/software/Gaussian/g16-avx2/l402.exe)
 External calculation of energy and first derivatives.
 Running external command "/mlatom/software/miniconda3/bin/python /mlatom/software/mlatom/mlatom/interfaces/gaussian_interface.py model_predict_kwargs R"
         input file       "/mlatom/home/qhzhang/git/ts-analysis/calculations/_other/irc/da/ani/irc_1/Gau-43310.EIn"
         output file      "/mlatom/home/qhzhang/git/ts-analysis/calculations/_other/irc/da/ani/irc_1/Gau-43310.EOu"
         message file     "/mlatom/home/qhzhang/git/ts-analysis/calculations/_other/irc/da/ani/irc_1/Gau-43310.EMs"
         fchk file        "/mlatom/home/qhzhang/git/ts-analysis/calculations/_other/irc/da/ani/irc_1/Gau-43310.EFC"
         mat. el file     "/mlatom/home/qhzhang/git/ts-analysis/calculations/_other/irc/da/ani/irc_1/Gau-43310.EUF"
model loaded from /mlatom/home/qhzhang/git/ts-analysis/calculations/_other/irc/da/ani/irc/da_energy_iteration27.npz
 Recovered energy= -234.589773723     dipole=      0.000000000000      0.000000000000      0.000000000000
 Energy=    -234.589774     NIter=   0.
 Dipole moment=       0.000000       0.000000       0.000000
 Leave Link  402 at Sun Apr 28 19:53:59 2024, MaxMem=   104857600 cpu:               0.1 elap:               4.9
 (Enter /mlatom/software/Gaussian/g16-avx2/l716.exe)
 Dipole        = 0.00000000D+00 0.00000000D+00 0.00000000D+00
 -------------------------------------------------------------------
 Center     Atomic                   Forces (Hartrees/Bohr)
 Number     Number              X              Y              Z
 -------------------------------------------------------------------
      1        6           0.000773789    0.002598124    0.002095566
      2        6          -0.001036418   -0.001640283   -0.004025176
      3        1           0.000139781   -0.000362862   -0.000050981
      4        1          -0.000186532   -0.000593561    0.000083576
      5        1           0.000388154   -0.000344005    0.001552031
      6        6          -0.000423318    0.001334973   -0.000748980
      7        6           0.000946630   -0.001253437    0.001038345
      8        1          -0.000115456   -0.000077709   -0.000319254
      9        1          -0.000320459    0.000501923   -0.000170417
     10        1           0.000021191    0.000049765    0.000239685
     11        6           0.000499247    0.000915082    0.001831352
     12        6          -0.000809183   -0.000364867   -0.001990406
     13        1          -0.000056897   -0.000703155   -0.001610688
     14        1          -0.000615466   -0.000318104    0.000277727
     15        1           0.000910351    0.000168331    0.001222547
     16        1          -0.000115413    0.000089788    0.000575076
 -------------------------------------------------------------------
 Cartesian Forces:  Max     0.004025176 RMS     0.001090765
 Z-matrix is all fixed cartesians, so copy forces.
 Leave Link  716 at Sun Apr 28 19:54:00 2024, MaxMem=   104857600 cpu:               0.0 elap:               0.5
 (Enter /mlatom/software/Gaussian/g16-avx2/l123.exe)
 IRC-IRC-IRC-IRC-IRC-IRC-IRC-IRC-IRC-IRC-IRC-IRC-IRC-IRC-IRC-IRC-IRC-IRC
 Pt 82 Step number   1 out of a maximum of  20
 Point Number:  38          Path Number:   2
                    CURRENT STRUCTURE
                Cartesian Coordinates (Ang):                
 ---------------------------------------------------------------------
 Center     Atomic                     Coordinates (Angstroms)
 Number     Number                        X           Y           Z
 ---------------------------------------------------------------------
      1          6                   -0.883669    1.536757    0.691184
      2          6                   -1.222933    0.724082   -0.315163
      3          1                   -0.566999    1.156846    1.660584
      4          1                   -0.898405    2.617482    0.580630
      5          1                   -1.512068    1.166509   -1.267959
      6          6                   -1.221076   -0.739605   -0.297902
      7          6                   -0.869364   -1.522285    0.729220
      8          1                   -1.530143   -1.208546   -1.227268
      9          1                   -0.889382   -2.606072    0.658661
     10          1                   -0.527251   -1.105657    1.674152
     11          6                    2.023380    0.661935   -0.373177
     12          6                    1.997307   -0.662704   -0.467721
     13          1                    2.377148    1.172900    0.521809
     14          1                    1.683263    1.305384   -1.179043
     15          1                    1.612156   -1.167140   -1.351594
     16          1                    2.351512   -1.310047    0.329612
 ---------------------------------------------------------------------
   CHANGE IN THE REACTION COORDINATE =    0.26191
   NET REACTION COORDINATE UP TO THIS POINT =   10.36432
  # OF POINTS ALONG THE PATH =  82
  # OF STEPS =   1

 Calculating another point on the path.
 Point Number 39 in REVERSE path direction.
 Using LQA Reaction Path Following.
   LQA: T_Est iteration completed in    5 iterations.
 IRC-IRC-IRC-IRC-IRC-IRC-IRC-IRC-IRC-IRC-IRC-IRC-IRC-IRC-IRC-IRC-IRC-IRC
 Leave Link  123 at Sun Apr 28 19:54:02 2024, MaxMem=   104857600 cpu:               0.1 elap:               1.2
 (Enter /mlatom/software/Gaussian/g16-avx2/l202.exe)
                          Input orientation:                          
 ---------------------------------------------------------------------
 Center     Atomic      Atomic             Coordinates (Angstroms)
 Number     Number       Type             X           Y           Z
 ---------------------------------------------------------------------
      1          6           0       -0.882053    1.536705    0.697544
      2          6           0       -1.221790    0.725778   -0.320073
      3          1           0       -0.559517    1.147314    1.659715
      4          1           0       -0.905316    2.616934    0.594349
      5          1           0       -1.516131    1.171221   -1.267015
      6          6           0       -1.221672   -0.736919   -0.299559
      7          6           0       -0.869733   -1.524650    0.724304
      8          1           0       -1.530646   -1.203210   -1.228879
      9          1           0       -0.899313   -2.608229    0.649413
     10          1           0       -0.533272   -1.112425    1.672522
     11          6           0        2.018948    0.661717   -0.380407
     12          6           0        2.002387   -0.663198   -0.456828
     13          1           0        2.428423    1.191134    0.480382
     14          1           0        1.616053    1.287761   -1.176448
     15          1           0        1.575493   -1.187327   -1.309665
     16          1           0        2.394982   -1.296426    0.342611
 ---------------------------------------------------------------------
                    Distance matrix (angstroms):
                    1          2          3          4          5
     1  C    0.000000
     2  C    1.344831   0.000000
     3  H    1.086935   2.129756   0.000000
     4  H    1.085396   2.124334   1.847799   0.000000
     5  H    2.096456   1.087085   3.079193   2.434719   0.000000
     6  C    2.505779   1.462841   2.797774   3.485324   2.159555
     7  C    3.061497   2.505813   2.847915   4.143775   3.413342
     8  H    3.411586   2.154603   3.848640   4.278866   2.374781
     9  H    4.145250   3.487047   3.903880   5.225456   4.282219
    10  H    2.844314   2.797049   2.259928   3.899870   3.849926
    11  C    3.216114   3.241933   3.323610   3.650252   3.680007
    12  C    3.806855   3.513300   3.784318   4.507657   4.049872
    13  H    3.335541   3.765813   3.212559   3.627632   4.314314
    14  H    3.132787   3.017045   3.577241   3.355552   3.135660
    15  H    4.181958   3.530447   4.338898   4.924640   3.888792
    16  H    4.346443   4.196368   4.054096   5.125400   4.896630
                    6          7          8          9         10
     6  C    0.000000
     7  C    1.338909   0.000000
     8  H    1.084678   2.086877   0.000000
     9  H    2.122796   1.086566   2.429123   0.000000
    10  H    2.122263   1.087314   3.069385   1.848829   0.000000
    11  C    3.530487   3.787488   4.098472   4.502147   3.725040
    12  C    3.228734   3.222770   3.656501   3.664258   3.341483
    13  H    4.201059   4.279347   4.932412   5.053470   3.936905
    14  H    3.594572   4.207333   4.013652   4.983932   4.300828
    15  H    3.007875   3.198428   3.107230   3.461447   3.653209
    16  H    3.715591   3.294865   4.229518   3.559121   3.221365
                   11         12         13         14         15
    11  C    0.000000
    12  C    1.327220   0.000000
    13  H    1.090371   2.120947   0.000000
    14  H    1.089925   2.115029   1.847801   0.000000
    15  H    2.116397   1.088246   3.096584   2.479002   0.000000
    16  H    2.120962   1.092800   2.491596   3.097143   1.847561
                   16
    16  H    0.000000
 Symmetry turned off by external request.
 Stoichiometry    C6H10
 Framework group  C1[X(C6H10)]
 Deg. of freedom    42
 Full point group                 C1      NOp   1
 Rotational constants (GHZ):           3.8378152           2.4448010           1.7731672
 Leave Link  202 at Sun Apr 28 19:54:05 2024, MaxMem=   104857600 cpu:               0.0 elap:               0.5
 (Enter /mlatom/software/Gaussian/g16-avx2/l301.exe)
 Standard basis: STO-3G (5D, 7F)
 Ernie: Thresh=  0.10000D-02 Tol=  0.10000D-05 Strict=F.
    40 basis functions,   120 primitive gaussians,    40 cartesian basis functions
    23 alpha electrons       23 beta electrons
       nuclear repulsion energy       209.8281058801 Hartrees.
 IExCor=    0 DFT=F Ex=HF Corr=None ExCW=0 ScaHFX=  1.000000
 ScaDFX=  1.000000  1.000000  1.000000  1.000000 ScalE2=  1.000000  1.000000
 IRadAn=      5 IRanWt=     -1 IRanGd=            0 ICorTp=0 IEmpDi=  4
 NAtoms=   16 NActive=   16 NUniq=   16 SFac= 1.00D+00 NAtFMM=   60 NAOKFM=F Big=F
 Integral buffers will be    131072 words long.
 Raffenetti 1 integral format.
 Two-electron integral symmetry is turned off.
 Leave Link  301 at Sun Apr 28 19:54:07 2024, MaxMem=   104857600 cpu:               0.1 elap:               0.4
 (Enter /mlatom/software/Gaussian/g16-avx2/l402.exe)
 External calculation of energy and first derivatives.
 Running external command "/mlatom/software/miniconda3/bin/python /mlatom/software/mlatom/mlatom/interfaces/gaussian_interface.py model_predict_kwargs R"
         input file       "/mlatom/home/qhzhang/git/ts-analysis/calculations/_other/irc/da/ani/irc_1/Gau-43310.EIn"
         output file      "/mlatom/home/qhzhang/git/ts-analysis/calculations/_other/irc/da/ani/irc_1/Gau-43310.EOu"
         message file     "/mlatom/home/qhzhang/git/ts-analysis/calculations/_other/irc/da/ani/irc_1/Gau-43310.EMs"
         fchk file        "/mlatom/home/qhzhang/git/ts-analysis/calculations/_other/irc/da/ani/irc_1/Gau-43310.EFC"
         mat. el file     "/mlatom/home/qhzhang/git/ts-analysis/calculations/_other/irc/da/ani/irc_1/Gau-43310.EUF"
model loaded from /mlatom/home/qhzhang/git/ts-analysis/calculations/_other/irc/da/ani/irc/da_energy_iteration27.npz
 Recovered energy= -234.589704925     dipole=      0.000000000000      0.000000000000      0.000000000000
 Energy=    -234.589705     NIter=   0.
 Dipole moment=       0.000000       0.000000       0.000000
 Leave Link  402 at Sun Apr 28 19:54:12 2024, MaxMem=   104857600 cpu:               0.0 elap:               5.2
 (Enter /mlatom/software/Gaussian/g16-avx2/l716.exe)
 Dipole        = 0.00000000D+00 0.00000000D+00 0.00000000D+00
 -------------------------------------------------------------------
 Center     Atomic                   Forces (Hartrees/Bohr)
 Number     Number              X              Y              Z
 -------------------------------------------------------------------
      1        6          -0.001799207   -0.002363658   -0.005270576
      2        6           0.000883791    0.003521644    0.005353805
      3        1           0.000410920   -0.000425889    0.000542388
      4        1           0.000127063   -0.000052711    0.000061063
      5        1           0.000207476   -0.000134009    0.000488859
      6        6          -0.000183203    0.000282268   -0.001306364
      7        6          -0.000289226   -0.001154237    0.000910126
      8        1          -0.000218856   -0.000395348   -0.000903555
      9        1           0.000226184    0.000772420   -0.000147276
     10        1           0.000619535    0.000070899    0.000451116
     11        6          -0.000368397    0.003255392   -0.000783763
     12        6          -0.000193913   -0.003929134    0.002198319
     13        1          -0.001203232   -0.000661511   -0.001877322
     14        1           0.001786965   -0.001329391    0.002084189
     15        1           0.001439178    0.000540552    0.001195540
     16        1          -0.001445079    0.002002717   -0.002996551
 -------------------------------------------------------------------
 Cartesian Forces:  Max     0.005353805 RMS     0.001773673
 Z-matrix is all fixed cartesians, so copy forces.
 Leave Link  716 at Sun Apr 28 19:54:13 2024, MaxMem=   104857600 cpu:               0.0 elap:               0.4
 (Enter /mlatom/software/Gaussian/g16-avx2/l123.exe)
 IRC-IRC-IRC-IRC-IRC-IRC-IRC-IRC-IRC-IRC-IRC-IRC-IRC-IRC-IRC-IRC-IRC-IRC
 Reaction path inflection point has been passed.
   Previous lowest Hessian eigenvalue=   -0.0025284738
   Current lowest Hessian eigenvalue =    0.0006434195
 Pt 83 Step number   1 out of a maximum of  20
 Point Number:  39          Path Number:   2
                    CURRENT STRUCTURE
                Cartesian Coordinates (Ang):                
 ---------------------------------------------------------------------
 Center     Atomic                     Coordinates (Angstroms)
 Number     Number                        X           Y           Z
 ---------------------------------------------------------------------
      1          6                   -0.882053    1.536705    0.697544
      2          6                   -1.221790    0.725778   -0.320073
      3          1                   -0.559517    1.147314    1.659715
      4          1                   -0.905316    2.616934    0.594349
      5          1                   -1.516131    1.171221   -1.267015
      6          6                   -1.221672   -0.736919   -0.299559
      7          6                   -0.869733   -1.524650    0.724304
      8          1                   -1.530646   -1.203210   -1.228879
      9          1                   -0.899313   -2.608229    0.649413
     10          1                   -0.533272   -1.112425    1.672522
     11          6                    2.018948    0.661717   -0.380407
     12          6                    2.002387   -0.663198   -0.456828
     13          1                    2.428423    1.191134    0.480382
     14          1                    1.616053    1.287761   -1.176448
     15          1                    1.575493   -1.187327   -1.309665
     16          1                    2.394982   -1.296426    0.342611
 ---------------------------------------------------------------------
   CHANGE IN THE REACTION COORDINATE =    0.26764
   NET REACTION COORDINATE UP TO THIS POINT =   10.63195
  # OF POINTS ALONG THE PATH =  83
  # OF STEPS =   1

 Calculating another point on the path.
 Point Number 40 in REVERSE path direction.
 Using LQA Reaction Path Following.
   LQA: T_Est iteration completed in    2 iterations.
 PES minimum detected within a second-order step.
 Calculation of REVERSE path complete.
 Reaction path calculation complete.
 
 Energies reported relative to the TS energy of        -234.566072
 --------------------------------------------------------------------------
    Summary of reaction path following
 --------------------------------------------------------------------------
                        Energy    RxCoord
   1                   -0.02363 -10.63195
   2                   -0.02370 -10.36432
   3                   -0.02365 -10.10241
   4                   -0.02314  -9.87374
   5                   -0.02311  -9.64831
   6                   -0.02354  -9.39781
   7                   -0.02365  -9.15018
   8                   -0.02365  -8.88355
   9                   -0.02351  -8.62566
  10                   -0.02332  -8.38103
  11                   -0.02315  -8.14705
  12                   -0.02331  -7.89500
  13                   -0.02336  -7.64153
  14                   -0.02342  -7.38308
  15                   -0.02338  -7.12394
  16                   -0.02321  -6.87675
  17                   -0.02320  -6.61397
  18                   -0.02312  -6.34195
  19                   -0.02298  -6.06077
  20                   -0.02272  -5.77358
  21                   -0.02235  -5.48675
  22                   -0.02188  -5.20529
  23                   -0.02136  -4.92353
  24                   -0.02079  -4.63601
  25                   -0.02005  -4.34900
  26                   -0.01922  -4.06004
  27                   -0.01814  -3.77629
  28                   -0.01717  -3.48826
  29                   -0.01595  -3.19960
  30                   -0.01467  -2.90913
  31                   -0.01324  -2.61829
  32                   -0.01172  -2.32739
  33                   -0.01010  -2.03648
  34                   -0.00837  -1.74552
  35                   -0.00655  -1.45453
  36                   -0.00471  -1.16364
  37                   -0.00293  -0.87279
  38                   -0.00135  -0.58196
  39                   -0.00034  -0.29108
  40                    0.00000   0.00000
  41                   -0.00036   0.29108
  42                   -0.00171   0.58147
  43                   -0.00443   0.87214
  44                   -0.00834   1.16296
  45                   -0.01325   1.45384
  46                   -0.01919   1.74480
  47                   -0.02592   2.03578
  48                   -0.03318   2.32676
  49                   -0.04085   2.61776
  50                   -0.04887   2.90876
  51                   -0.05698   3.19976
  52                   -0.06490   3.49076
  53                   -0.07218   3.78176
  54                   -0.07853   4.07270
  55                   -0.08359   4.36360
  56                   -0.08732   4.65414
  57                   -0.08966   4.94437
  58                   -0.09039   5.22735
  59                   -0.09071   5.50195
  60                   -0.09115   5.75789
  61                   -0.09098   6.02071
  62                   -0.09097   6.27095
  63                   -0.09120   6.50592
  64                   -0.09126   6.74565
  65                   -0.09129   6.93882
  66                   -0.09063   7.20416
  67                   -0.09022   7.44885
  68                   -0.09138   7.68045
  69                   -0.09082   7.96227
  70                   -0.09115   8.21454
  71                   -0.09102   8.46383
  72                   -0.09125   8.67772
  73                   -0.09156   8.88607
  74                   -0.09142   9.16687
  75                   -0.09080   9.41442
  76                   -0.09102   9.64313
  77                   -0.09149   9.87782
  78                   -0.09141  10.16309
  79                   -0.09142  10.41054
  80                   -0.09132  10.64744
  81                   -0.09157  10.88630
  82                   -0.09128  11.16254
  83                   -0.09105  11.40770
  84                   -0.09156  11.61576
 --------------------------------------------------------------------------
 
 Total number of points:                   83
 Total number of gradient calculations:    84
 Total number of Hessian calculations:      1
 IRC-IRC-IRC-IRC-IRC-IRC-IRC-IRC-IRC-IRC-IRC-IRC-IRC-IRC-IRC-IRC-IRC-IRC
 Leave Link  123 at Sun Apr 28 19:54:15 2024, MaxMem=   104857600 cpu:               0.2 elap:               1.3
 (Enter /mlatom/software/Gaussian/g16-avx2/l202.exe)
                          Input orientation:                          
 ---------------------------------------------------------------------
 Center     Atomic      Atomic             Coordinates (Angstroms)
 Number     Number       Type             X           Y           Z
 ---------------------------------------------------------------------
      1          6           0       -0.882053    1.536705    0.697544
      2          6           0       -1.221790    0.725778   -0.320073
      3          1           0       -0.559517    1.147314    1.659715
      4          1           0       -0.905316    2.616934    0.594349
      5          1           0       -1.516131    1.171221   -1.267015
      6          6           0       -1.221672   -0.736919   -0.299559
      7          6           0       -0.869733   -1.524650    0.724304
      8          1           0       -1.530646   -1.203210   -1.228879
      9          1           0       -0.899313   -2.608229    0.649413
     10          1           0       -0.533272   -1.112425    1.672522
     11          6           0        2.018948    0.661717   -0.380407
     12          6           0        2.002387   -0.663198   -0.456828
     13          1           0        2.428423    1.191134    0.480382
     14          1           0        1.616053    1.287761   -1.176448
     15          1           0        1.575493   -1.187327   -1.309665
     16          1           0        2.394982   -1.296426    0.342611
 ---------------------------------------------------------------------
                    Distance matrix (angstroms):
                    1          2          3          4          5
     1  C    0.000000
     2  C    1.344831   0.000000
     3  H    1.086935   2.129756   0.000000
     4  H    1.085396   2.124334   1.847799   0.000000
     5  H    2.096456   1.087085   3.079193   2.434719   0.000000
     6  C    2.505779   1.462841   2.797774   3.485324   2.159555
     7  C    3.061497   2.505813   2.847915   4.143775   3.413342
     8  H    3.411586   2.154603   3.848640   4.278866   2.374781
     9  H    4.145250   3.487047   3.903880   5.225456   4.282219
    10  H    2.844314   2.797049   2.259928   3.899870   3.849926
    11  C    3.216114   3.241933   3.323610   3.650252   3.680007
    12  C    3.806855   3.513300   3.784318   4.507657   4.049872
    13  H    3.335541   3.765813   3.212559   3.627632   4.314314
    14  H    3.132787   3.017045   3.577241   3.355552   3.135660
    15  H    4.181958   3.530447   4.338898   4.924640   3.888792
    16  H    4.346443   4.196368   4.054096   5.125400   4.896630
                    6          7          8          9         10
     6  C    0.000000
     7  C    1.338909   0.000000
     8  H    1.084678   2.086877   0.000000
     9  H    2.122796   1.086566   2.429123   0.000000
    10  H    2.122263   1.087314   3.069385   1.848829   0.000000
    11  C    3.530487   3.787488   4.098472   4.502147   3.725040
    12  C    3.228734   3.222770   3.656501   3.664258   3.341483
    13  H    4.201059   4.279347   4.932412   5.053470   3.936905
    14  H    3.594572   4.207333   4.013652   4.983932   4.300828
    15  H    3.007875   3.198428   3.107230   3.461447   3.653209
    16  H    3.715591   3.294865   4.229518   3.559121   3.221365
                   11         12         13         14         15
    11  C    0.000000
    12  C    1.327220   0.000000
    13  H    1.090371   2.120947   0.000000
    14  H    1.089925   2.115029   1.847801   0.000000
    15  H    2.116397   1.088246   3.096584   2.479002   0.000000
    16  H    2.120962   1.092800   2.491596   3.097143   1.847561
                   16
    16  H    0.000000
 Symmetry turned off by external request.
 Stoichiometry    C6H10
 Framework group  C1[X(C6H10)]
 Deg. of freedom    42
 Full point group                 C1      NOp   1
 Rotational constants (GHZ):           3.8378152           2.4448010           1.7731672
 Leave Link  202 at Sun Apr 28 19:54:19 2024, MaxMem=   104857600 cpu:               0.0 elap:               0.5
 (Enter /mlatom/software/Gaussian/g16-avx2/l601.exe)
 Leave Link  601 at Sun Apr 28 19:54:20 2024, MaxMem=   104857600 cpu:               0.0 elap:               0.3
 (Enter /mlatom/software/Gaussian/g16-avx2/l9999.exe)

 This type of calculation cannot be archived.


 I DO NOT KNOW WHAT I MAY APPEAR TO THE WORLD; BUT TO MYSELF
 I SEEM TO HAVE BEEN ONLY LIKE A BOY PLAYING ON THE SEASHORE,
 AND DIVERTING MYSELF IN NOW AND THEN FINDING A SMOOTHER PEBBLE
 OR A PRETTIER SHELL THAN ORDINARY, WHILST THE GREAT OCEAN OF
 TRUTH LAY ALL UNDISCOVERED BEFORE ME.
                                          -- NEWTON (1642-1726)
 Job cpu time:       0 days  0 hours  0 minutes 27.4 seconds.
 Elapsed time:       0 days  0 hours 12 minutes 30.5 seconds.
 File lengths (MBytes):  RWF=     22 Int=      0 D2E=      0 Chk=      6 Scr=      2
 Normal termination of Gaussian 16 at Sun Apr 28 19:54:30 2024.
